 Entering Gaussian System, Link 0=g16
 Initial command:
 /home/<user>/g16/l1.exe "/media/<user>/Gaussian/g16/scratch/Gau-202844.inp" -scrdir="/media/<user>/Gaussian/g16/scratch/"
 Default is to use a total of  96 processors:
                               96 via shared-memory
                                1 via Linda
 Entering Link 1 = /home/<user>/g16/l1.exe PID=    202850.
  
 Copyright (c) 1988-2019, Gaussian, Inc.  All Rights Reserved.
  
 This is part of the Gaussian(R) 16 program.  It is based on
 the Gaussian(R) 09 system (copyright 2009, Gaussian, Inc.),
 the Gaussian(R) 03 system (copyright 2003, Gaussian, Inc.),
 the Gaussian(R) 98 system (copyright 1998, Gaussian, Inc.),
 the Gaussian(R) 94 system (copyright 1995, Gaussian, Inc.),
 the Gaussian 92(TM) system (copyright 1992, Gaussian, Inc.),
 the Gaussian 90(TM) system (copyright 1990, Gaussian, Inc.),
 the Gaussian 88(TM) system (copyright 1988, Gaussian, Inc.),
 the Gaussian 86(TM) system (copyright 1986, Carnegie Mellon
 University), and the Gaussian 82(TM) system (copyright 1983,
 Carnegie Mellon University). Gaussian is a federally registered
 trademark of Gaussian, Inc.
  
 This software contains proprietary and confidential information,
 including trade secrets, belonging to Gaussian, Inc.
  
 This software is provided under written license and may be
 used, copied, transmitted, or stored only in accord with that
 written license.
  
 The following legend is applicable only to US Government
 contracts under FAR:
  
                    RESTRICTED RIGHTS LEGEND
  
 Use, reproduction and disclosure by the US Government is
 subject to restrictions as set forth in subparagraphs (a)
 and (c) of the Commercial Computer Software - Restricted
 Rights clause in FAR 52.227-19.
  
 Gaussian, Inc.
 340 Quinnipiac St., Bldg. 40, Wallingford CT 06492
  
  
 ---------------------------------------------------------------
 Warning -- This program may not be used in any manner that
 competes with the business of Gaussian, Inc. or will provide
 assistance to any competitor of Gaussian, Inc.  The licensee
 of this program is prohibited from giving any competitor of
 Gaussian, Inc. access to this program.  By using this program,
 the user acknowledges that Gaussian, Inc. is engaged in the
 business of creating and licensing software in the field of
 computational chemistry and represents and warrants to the
 licensee that it is not a competitor of Gaussian, Inc. and that
 it will not use this program in any manner prohibited above.
 ---------------------------------------------------------------
  

 Cite this work as:
 Gaussian 16, Revision C.01,
 M. J. Frisch, G. W. Trucks, H. B. Schlegel, G. E. Scuseria, 
 M. A. Robb, J. R. Cheeseman, G. Scalmani, V. Barone, 
 G. A. Petersson, H. Nakatsuji, X. Li, M. Caricato, A. V. Marenich, 
 J. Bloino, B. G. Janesko, R. Gomperts, B. Mennucci, H. P. Hratchian, 
 J. V. Ortiz, A. F. Izmaylov, J. L. Sonnenberg, D. Williams-Young, 
 F. Ding, F. Lipparini, F. Egidi, J. Goings, B. Peng, A. Petrone, 
 T. Henderson, D. Ranasinghe, V. G. Zakrzewski, J. Gao, N. Rega, 
 G. Zheng, W. Liang, M. Hada, M. Ehara, K. Toyota, R. Fukuda, 
 J. Hasegawa, M. Ishida, T. Nakajima, Y. Honda, O. Kitao, H. Nakai, 
 T. Vreven, K. Throssell, J. A. Montgomery, Jr., J. E. Peralta, 
 F. Ogliaro, M. J. Bearpark, J. J. Heyd, E. N. Brothers, K. N. Kudin, 
 V. N. Staroverov, T. A. Keith, R. Kobayashi, J. Normand, 
 K. Raghavachari, A. P. Rendell, J. C. Burant, S. S. Iyengar, 
 J. Tomasi, M. Cossi, J. M. Millam, M. Klene, C. Adamo, R. Cammi, 
 J. W. Ochterski, R. L. Martin, K. Morokuma, O. Farkas, 
 J. B. Foresman, and D. J. Fox, Gaussian, Inc., Wallingford CT, 2019.
 
 ******************************************
 Gaussian 16:  ES64L-G16RevC.01  3-Jul-2019
                14-Mar-2024 
 ******************************************
 %mem=240GB
 %nprocshared=30
 Will use up to   30 processors via shared memory.
 %chk=FBTP_S1opt.chk
 Default route: IOp(8/117=-99) IOp(7/127=-99)
 ------------------------------------
 #p opt td=(nstates=3) b3lyp/6-31g(d)
 ------------------------------------
 1/18=20,19=15,26=3,38=1/1,3;
 2/9=110,12=2,17=6,18=5,40=1/2;
 3/5=1,6=6,7=1,11=9,25=1,30=1,71=1,74=-5/1,2,3,8;
 4//1;
 5/5=2,38=5/2;
 8/6=1,10=2,108=3,117=-99/1;
 9/15=2,41=3,42=1,70=2/14;
 10/5=4/2;
 6/7=2,8=2,9=2,10=2/1;
 7/12=6,13=5,127=-99/1,2,3,16;
 1/18=20,19=15,26=3/3(2);
 2/9=110/2;
 99//99;
 2/9=110/2;
 3/5=1,6=6,7=1,11=9,25=1,30=1,71=1,74=-5/1,2,3,8;
 4/5=5,16=3,69=1/1;
 5/5=2,38=5/2;
 8/6=1,10=2,108=3,117=-99/1;
 9/15=2,41=3,42=1,49=4,70=2/14;
 10/5=4/2;
 7/12=6,13=5,127=-99/1,2,3,16;
 1/18=20,19=15,26=3/3(-8);
 2/9=110/2;
 6/7=2,8=2,9=2,10=2/1;
 99/9=10/99;
 Leave Link    1 at Thu Mar 14 09:19:50 2024, MaxMem= 32212254720 cpu:               4.9 elap:               0.1
 (Enter /home/<user>/g16/l101.exe)
 -----
 S1OPT
 -----
 Symbolic Z-matrix:
 Charge =  0 Multiplicity = 1
 C                    -2.44542   1.57695  -0.64076 
 C                    -1.80077   0.3779   -0.27654 
 C                    -2.59319  -0.73283   0.08439 
 C                    -3.97616  -0.63937   0.06755 
 C                    -4.60488   0.56401  -0.30831 
 C                    -3.8351    1.67379  -0.66176 
 H                    -1.84701   2.4381   -0.91227 
 H                    -2.10824  -1.65197   0.40334 
 H                    -4.30591   2.60911  -0.95355 
 C                    -5.01102  -1.70522   0.42978 
 C                    -6.31491  -0.94163   0.19669 
 C                    -7.62391  -1.38318   0.3531 
 C                    -8.6784   -0.50296   0.08175 
 C                    -8.42139   0.80541  -0.34166 
 C                    -7.1091    1.25543  -0.5009 
 C                    -6.05737   0.37695  -0.23066 
 H                    -7.83509  -2.39808   0.68234 
 H                    -9.70499  -0.83893   0.20136 
 H                    -9.2502    1.47734  -0.54828 
 H                    -6.91421   2.27303  -0.82994 
 C                    -4.87345  -2.14582   1.90459 
 H                    -5.66193  -2.85955   2.17027 
 H                    -3.90685  -2.6342    2.07473 
 H                    -4.94654  -1.28807   2.58062 
 C                    -4.90395  -2.93496  -0.49962 
 H                    -3.93825  -3.43701  -0.36795 
 H                    -5.6931   -3.66141  -0.2734 
 H                    -4.99819  -2.64437  -1.55083 
 C                    -0.3266    0.25076  -0.29718 
 C                     0.5618    1.31728   0.08692 
 C                     0.29685  -0.92087  -0.68218 
 C                     2.01063   1.14113   0.06218 
 C                     1.70739  -1.09191  -0.70634 
 H                    -0.31617  -1.75125  -1.01973 
 C                     2.60447  -0.10485  -0.34686 
 H                     2.09278  -2.04338  -1.06061 
 N                     0.18514   2.52621   0.51989 
 N                     2.68058   2.22307   0.47675 
 S                     1.5587    3.35942   0.85873 
 C                     4.06691  -0.33176  -0.37637 
 C                     4.97177   0.6724   -0.76291 
 C                     4.59257  -1.59367  -0.04558 
 C                     6.33845   0.41378  -0.82591 
 H                     4.60057   1.65686  -1.02192 
 C                     5.96046  -1.84282  -0.10778 
 H                     3.92282  -2.3818    0.28715 
 C                     6.86199  -0.84468  -0.5009 
 H                     7.01344   1.20664  -1.14169 
 H                     6.33657  -2.82831   0.15869 
 C                     8.35077  -1.10594  -0.52408 
 H                     8.55692  -2.15344  -0.7719 
 H                     8.82176  -0.4961   -1.3078 
 C                     9.02992  -0.7933    0.82109 
 H                     8.81369   0.25527   1.09479 
 H                     8.57745  -1.41786   1.60108 
 N                     10.45827  -1.11993   0.75581 
 H                     10.92674  -0.47468   0.12 
 H                     10.8867  -0.97225   1.66832 
 
 ITRead=  0  0  0  0  0  0  0  0  0  0  0  0  0  0  0  0  0  0  0  0
 ITRead=  0  0  0  0  0  0  0  0  0  0  0  0  0  0  0  0  0  0  0  0
 ITRead=  0  0  0  0  0  0  0  0  0  0  0  0  0  0  0  0  0  0
 MicOpt= -1 -1 -1 -1 -1 -1 -1 -1 -1 -1 -1 -1 -1 -1 -1 -1 -1 -1 -1 -1
 MicOpt= -1 -1 -1 -1 -1 -1 -1 -1 -1 -1 -1 -1 -1 -1 -1 -1 -1 -1 -1 -1
 MicOpt= -1 -1 -1 -1 -1 -1 -1 -1 -1 -1 -1 -1 -1 -1 -1 -1 -1 -1
 NAtoms=     58 NQM=       58 NQMF=       0 NMMI=      0 NMMIF=      0
                NMic=       0 NMicF=      0.
                    Isotopes and Nuclear Properties:
 (Nuclear quadrupole moments (NQMom) in fm**2, nuclear magnetic moments (NMagM)
  in nuclear magnetons)

  Atom         1           2           3           4           5           6           7           8           9          10
 IAtWgt=          12          12          12          12          12          12           1           1           1          12
 AtmWgt=  12.0000000  12.0000000  12.0000000  12.0000000  12.0000000  12.0000000   1.0078250   1.0078250   1.0078250  12.0000000
 NucSpn=           0           0           0           0           0           0           1           1           1           0
 AtZEff=  -0.0000000  -0.0000000  -0.0000000  -0.0000000  -0.0000000  -0.0000000  -0.0000000  -0.0000000  -0.0000000  -0.0000000
 NQMom=    0.0000000   0.0000000   0.0000000   0.0000000   0.0000000   0.0000000   0.0000000   0.0000000   0.0000000   0.0000000
 NMagM=    0.0000000   0.0000000   0.0000000   0.0000000   0.0000000   0.0000000   2.7928460   2.7928460   2.7928460   0.0000000
 AtZNuc=   6.0000000   6.0000000   6.0000000   6.0000000   6.0000000   6.0000000   1.0000000   1.0000000   1.0000000   6.0000000

  Atom        11          12          13          14          15          16          17          18          19          20
 IAtWgt=          12          12          12          12          12          12           1           1           1           1
 AtmWgt=  12.0000000  12.0000000  12.0000000  12.0000000  12.0000000  12.0000000   1.0078250   1.0078250   1.0078250   1.0078250
 NucSpn=           0           0           0           0           0           0           1           1           1           1
 AtZEff=  -0.0000000  -0.0000000  -0.0000000  -0.0000000  -0.0000000  -0.0000000  -0.0000000  -0.0000000  -0.0000000  -0.0000000
 NQMom=    0.0000000   0.0000000   0.0000000   0.0000000   0.0000000   0.0000000   0.0000000   0.0000000   0.0000000   0.0000000
 NMagM=    0.0000000   0.0000000   0.0000000   0.0000000   0.0000000   0.0000000   2.7928460   2.7928460   2.7928460   2.7928460
 AtZNuc=   6.0000000   6.0000000   6.0000000   6.0000000   6.0000000   6.0000000   1.0000000   1.0000000   1.0000000   1.0000000

  Atom        21          22          23          24          25          26          27          28          29          30
 IAtWgt=          12           1           1           1          12           1           1           1          12          12
 AtmWgt=  12.0000000   1.0078250   1.0078250   1.0078250  12.0000000   1.0078250   1.0078250   1.0078250  12.0000000  12.0000000
 NucSpn=           0           1           1           1           0           1           1           1           0           0
 AtZEff=  -0.0000000  -0.0000000  -0.0000000  -0.0000000  -0.0000000  -0.0000000  -0.0000000  -0.0000000  -0.0000000  -0.0000000
 NQMom=    0.0000000   0.0000000   0.0000000   0.0000000   0.0000000   0.0000000   0.0000000   0.0000000   0.0000000   0.0000000
 NMagM=    0.0000000   2.7928460   2.7928460   2.7928460   0.0000000   2.7928460   2.7928460   2.7928460   0.0000000   0.0000000
 AtZNuc=   6.0000000   1.0000000   1.0000000   1.0000000   6.0000000   1.0000000   1.0000000   1.0000000   6.0000000   6.0000000

  Atom        31          32          33          34          35          36          37          38          39          40
 IAtWgt=          12          12          12           1          12           1          14          14          32          12
 AtmWgt=  12.0000000  12.0000000  12.0000000   1.0078250  12.0000000   1.0078250  14.0030740  14.0030740  31.9720718  12.0000000
 NucSpn=           0           0           0           1           0           1           2           2           0           0
 AtZEff=  -0.0000000  -0.0000000  -0.0000000  -0.0000000  -0.0000000  -0.0000000  -0.0000000  -0.0000000  -0.0000000  -0.0000000
 NQMom=    0.0000000   0.0000000   0.0000000   0.0000000   0.0000000   0.0000000   2.0440000   2.0440000   0.0000000   0.0000000
 NMagM=    0.0000000   0.0000000   0.0000000   2.7928460   0.0000000   2.7928460   0.4037610   0.4037610   0.0000000   0.0000000
 AtZNuc=   6.0000000   6.0000000   6.0000000   1.0000000   6.0000000   1.0000000   7.0000000   7.0000000  16.0000000   6.0000000

  Atom        41          42          43          44          45          46          47          48          49          50
 IAtWgt=          12          12          12           1          12           1          12           1           1          12
 AtmWgt=  12.0000000  12.0000000  12.0000000   1.0078250  12.0000000   1.0078250  12.0000000   1.0078250   1.0078250  12.0000000
 NucSpn=           0           0           0           1           0           1           0           1           1           0
 AtZEff=  -0.0000000  -0.0000000  -0.0000000  -0.0000000  -0.0000000  -0.0000000  -0.0000000  -0.0000000  -0.0000000  -0.0000000
 NQMom=    0.0000000   0.0000000   0.0000000   0.0000000   0.0000000   0.0000000   0.0000000   0.0000000   0.0000000   0.0000000
 NMagM=    0.0000000   0.0000000   0.0000000   2.7928460   0.0000000   2.7928460   0.0000000   2.7928460   2.7928460   0.0000000
 AtZNuc=   6.0000000   6.0000000   6.0000000   1.0000000   6.0000000   1.0000000   6.0000000   1.0000000   1.0000000   6.0000000

  Atom        51          52          53          54          55          56          57          58
 IAtWgt=           1           1          12           1           1          14           1           1
 AtmWgt=   1.0078250   1.0078250  12.0000000   1.0078250   1.0078250  14.0030740   1.0078250   1.0078250
 NucSpn=           1           1           0           1           1           2           1           1
 AtZEff=  -0.0000000  -0.0000000  -0.0000000  -0.0000000  -0.0000000  -0.0000000  -0.0000000  -0.0000000
 NQMom=    0.0000000   0.0000000   0.0000000   0.0000000   0.0000000   2.0440000   0.0000000   0.0000000
 NMagM=    2.7928460   2.7928460   0.0000000   2.7928460   2.7928460   0.4037610   2.7928460   2.7928460
 AtZNuc=   1.0000000   1.0000000   6.0000000   1.0000000   1.0000000   7.0000000   1.0000000   1.0000000
 Leave Link  101 at Thu Mar 14 09:19:51 2024, MaxMem= 32212254720 cpu:              14.9 elap:               0.5
 (Enter /home/<user>/g16/l103.exe)

 GradGradGradGradGradGradGradGradGradGradGradGradGradGradGradGradGradGrad
 Berny optimization.
 Initialization pass.
                           ----------------------------
                           !    Initial Parameters    !
                           ! (Angstroms and Degrees)  !
 --------------------------                            --------------------------
 ! Name  Definition              Value          Derivative Info.                !
 --------------------------------------------------------------------------------
 ! R1    R(1,2)                  1.4092         estimate D2E/DX2                !
 ! R2    R(1,6)                  1.3932         estimate D2E/DX2                !
 ! R3    R(1,7)                  1.0832         estimate D2E/DX2                !
 ! R4    R(2,3)                  1.4114         estimate D2E/DX2                !
 ! R5    R(2,29)                 1.4798         estimate D2E/DX2                !
 ! R6    R(3,4)                  1.3862         estimate D2E/DX2                !
 ! R7    R(3,8)                  1.0871         estimate D2E/DX2                !
 ! R8    R(4,5)                  1.4088         estimate D2E/DX2                !
 ! R9    R(4,10)                 1.5291         estimate D2E/DX2                !
 ! R10   R(5,6)                  1.3961         estimate D2E/DX2                !
 ! R11   R(5,16)                 1.4665         estimate D2E/DX2                !
 ! R12   R(6,9)                  1.087          estimate D2E/DX2                !
 ! R13   R(10,11)                1.5289         estimate D2E/DX2                !
 ! R14   R(10,21)                1.5454         estimate D2E/DX2                !
 ! R15   R(10,25)                1.5452         estimate D2E/DX2                !
 ! R16   R(11,12)                1.3903         estimate D2E/DX2                !
 ! R17   R(11,16)                1.4098         estimate D2E/DX2                !
 ! R18   R(12,13)                1.4001         estimate D2E/DX2                !
 ! R19   R(12,17)                1.0877         estimate D2E/DX2                !
 ! R20   R(13,14)                1.399          estimate D2E/DX2                !
 ! R21   R(13,18)                1.0868         estimate D2E/DX2                !
 ! R22   R(14,15)                1.3964         estimate D2E/DX2                !
 ! R23   R(14,19)                1.0868         estimate D2E/DX2                !
 ! R24   R(15,16)                1.3967         estimate D2E/DX2                !
 ! R25   R(15,20)                1.0871         estimate D2E/DX2                !
 ! R26   R(21,22)                1.0962         estimate D2E/DX2                !
 ! R27   R(21,23)                1.0963         estimate D2E/DX2                !
 ! R28   R(21,24)                1.0946         estimate D2E/DX2                !
 ! R29   R(25,26)                1.0963         estimate D2E/DX2                !
 ! R30   R(25,27)                1.0962         estimate D2E/DX2                !
 ! R31   R(25,28)                1.0947         estimate D2E/DX2                !
 ! R32   R(29,30)                1.4402         estimate D2E/DX2                !
 ! R33   R(29,31)                1.3819         estimate D2E/DX2                !
 ! R34   R(30,32)                1.4597         estimate D2E/DX2                !
 ! R35   R(30,37)                1.3382         estimate D2E/DX2                !
 ! R36   R(31,33)                1.4211         estimate D2E/DX2                !
 ! R37   R(31,34)                1.0859         estimate D2E/DX2                !
 ! R38   R(32,35)                1.4396         estimate D2E/DX2                !
 ! R39   R(32,38)                1.3384         estimate D2E/DX2                !
 ! R40   R(33,35)                1.3814         estimate D2E/DX2                !
 ! R41   R(33,36)                1.086          estimate D2E/DX2                !
 ! R42   R(35,40)                1.4802         estimate D2E/DX2                !
 ! R43   R(37,39)                1.6419         estimate D2E/DX2                !
 ! R44   R(38,39)                1.6419         estimate D2E/DX2                !
 ! R45   R(40,41)                1.4059         estimate D2E/DX2                !
 ! R46   R(40,42)                1.4065         estimate D2E/DX2                !
 ! R47   R(41,43)                1.3924         estimate D2E/DX2                !
 ! R48   R(41,44)                1.0835         estimate D2E/DX2                !
 ! R49   R(42,45)                1.3918         estimate D2E/DX2                !
 ! R50   R(42,46)                1.0865         estimate D2E/DX2                !
 ! R51   R(43,47)                1.4012         estimate D2E/DX2                !
 ! R52   R(43,48)                1.0881         estimate D2E/DX2                !
 ! R53   R(45,47)                1.4013         estimate D2E/DX2                !
 ! R54   R(45,49)                1.088          estimate D2E/DX2                !
 ! R55   R(47,50)                1.5117         estimate D2E/DX2                !
 ! R56   R(50,51)                1.096          estimate D2E/DX2                !
 ! R57   R(50,52)                1.0991         estimate D2E/DX2                !
 ! R58   R(50,53)                1.539          estimate D2E/DX2                !
 ! R59   R(53,54)                1.1051         estimate D2E/DX2                !
 ! R60   R(53,55)                1.0969         estimate D2E/DX2                !
 ! R61   R(53,56)                1.4667         estimate D2E/DX2                !
 ! R62   R(56,57)                1.0198         estimate D2E/DX2                !
 ! R63   R(56,58)                1.0188         estimate D2E/DX2                !
 ! A1    A(2,1,6)              121.2868         estimate D2E/DX2                !
 ! A2    A(2,1,7)              119.241          estimate D2E/DX2                !
 ! A3    A(6,1,7)              119.4719         estimate D2E/DX2                !
 ! A4    A(1,2,3)              118.6118         estimate D2E/DX2                !
 ! A5    A(1,2,29)             121.6822         estimate D2E/DX2                !
 ! A6    A(3,2,29)             119.6882         estimate D2E/DX2                !
 ! A7    A(2,3,4)              120.2635         estimate D2E/DX2                !
 ! A8    A(2,3,8)              119.3396         estimate D2E/DX2                !
 ! A9    A(4,3,8)              120.3727         estimate D2E/DX2                !
 ! A10   A(3,4,5)              120.4023         estimate D2E/DX2                !
 ! A11   A(3,4,10)             128.7053         estimate D2E/DX2                !
 ! A12   A(5,4,10)             110.8896         estimate D2E/DX2                !
 ! A13   A(4,5,6)              120.0316         estimate D2E/DX2                !
 ! A14   A(4,5,16)             108.5981         estimate D2E/DX2                !
 ! A15   A(6,5,16)             131.3685         estimate D2E/DX2                !
 ! A16   A(1,6,5)              119.4009         estimate D2E/DX2                !
 ! A17   A(1,6,9)              119.7272         estimate D2E/DX2                !
 ! A18   A(5,6,9)              120.8718         estimate D2E/DX2                !
 ! A19   A(4,10,11)            101.1241         estimate D2E/DX2                !
 ! A20   A(4,10,21)            111.3808         estimate D2E/DX2                !
 ! A21   A(4,10,25)            111.4299         estimate D2E/DX2                !
 ! A22   A(11,10,21)           111.3347         estimate D2E/DX2                !
 ! A23   A(11,10,25)           111.4002         estimate D2E/DX2                !
 ! A24   A(21,10,25)           109.9349         estimate D2E/DX2                !
 ! A25   A(10,11,12)           128.8435         estimate D2E/DX2                !
 ! A26   A(10,11,16)           110.9487         estimate D2E/DX2                !
 ! A27   A(12,11,16)           120.2078         estimate D2E/DX2                !
 ! A28   A(11,12,13)           119.185          estimate D2E/DX2                !
 ! A29   A(11,12,17)           120.8776         estimate D2E/DX2                !
 ! A30   A(13,12,17)           119.9373         estimate D2E/DX2                !
 ! A31   A(12,13,14)           120.5472         estimate D2E/DX2                !
 ! A32   A(12,13,18)           119.7192         estimate D2E/DX2                !
 ! A33   A(14,13,18)           119.7336         estimate D2E/DX2                !
 ! A34   A(13,14,15)           120.5672         estimate D2E/DX2                !
 ! A35   A(13,14,19)           119.7133         estimate D2E/DX2                !
 ! A36   A(15,14,19)           119.7195         estimate D2E/DX2                !
 ! A37   A(14,15,16)           118.8733         estimate D2E/DX2                !
 ! A38   A(14,15,20)           120.3087         estimate D2E/DX2                !
 ! A39   A(16,15,20)           120.818          estimate D2E/DX2                !
 ! A40   A(5,16,11)            108.4379         estimate D2E/DX2                !
 ! A41   A(5,16,15)            130.9426         estimate D2E/DX2                !
 ! A42   A(11,16,15)           120.6195         estimate D2E/DX2                !
 ! A43   A(10,21,22)           110.6649         estimate D2E/DX2                !
 ! A44   A(10,21,23)           110.7091         estimate D2E/DX2                !
 ! A45   A(10,21,24)           111.1032         estimate D2E/DX2                !
 ! A46   A(22,21,23)           107.8508         estimate D2E/DX2                !
 ! A47   A(22,21,24)           108.2097         estimate D2E/DX2                !
 ! A48   A(23,21,24)           108.1878         estimate D2E/DX2                !
 ! A49   A(10,25,26)           110.6864         estimate D2E/DX2                !
 ! A50   A(10,25,27)           110.6954         estimate D2E/DX2                !
 ! A51   A(10,25,28)           111.123          estimate D2E/DX2                !
 ! A52   A(26,25,27)           107.8094         estimate D2E/DX2                !
 ! A53   A(26,25,28)           108.223          estimate D2E/DX2                !
 ! A54   A(27,25,28)           108.1866         estimate D2E/DX2                !
 ! A55   A(2,29,30)            123.1726         estimate D2E/DX2                !
 ! A56   A(2,29,31)            121.747          estimate D2E/DX2                !
 ! A57   A(30,29,31)           115.0785         estimate D2E/DX2                !
 ! A58   A(29,30,32)           121.2228         estimate D2E/DX2                !
 ! A59   A(29,30,37)           125.5659         estimate D2E/DX2                !
 ! A60   A(32,30,37)           113.1954         estimate D2E/DX2                !
 ! A61   A(29,31,33)           123.6823         estimate D2E/DX2                !
 ! A62   A(29,31,34)           118.7014         estimate D2E/DX2                !
 ! A63   A(33,31,34)           117.5807         estimate D2E/DX2                !
 ! A64   A(30,32,35)           121.2448         estimate D2E/DX2                !
 ! A65   A(30,32,38)           113.2054         estimate D2E/DX2                !
 ! A66   A(35,32,38)           125.5344         estimate D2E/DX2                !
 ! A67   A(31,33,35)           123.6528         estimate D2E/DX2                !
 ! A68   A(31,33,36)           117.597          estimate D2E/DX2                !
 ! A69   A(35,33,36)           118.7163         estimate D2E/DX2                !
 ! A70   A(32,35,33)           115.1186         estimate D2E/DX2                !
 ! A71   A(32,35,40)           123.0857         estimate D2E/DX2                !
 ! A72   A(33,35,40)           121.7943         estimate D2E/DX2                !
 ! A73   A(30,37,39)           106.8427         estimate D2E/DX2                !
 ! A74   A(32,38,39)           106.8291         estimate D2E/DX2                !
 ! A75   A(37,39,38)            99.927          estimate D2E/DX2                !
 ! A76   A(35,40,41)           122.1323         estimate D2E/DX2                !
 ! A77   A(35,40,42)           120.1391         estimate D2E/DX2                !
 ! A78   A(41,40,42)           117.7073         estimate D2E/DX2                !
 ! A79   A(40,41,43)           120.7653         estimate D2E/DX2                !
 ! A80   A(40,41,44)           119.6151         estimate D2E/DX2                !
 ! A81   A(43,41,44)           119.618          estimate D2E/DX2                !
 ! A82   A(40,42,45)           121.1602         estimate D2E/DX2                !
 ! A83   A(40,42,46)           119.5034         estimate D2E/DX2                !
 ! A84   A(45,42,46)           119.3203         estimate D2E/DX2                !
 ! A85   A(41,43,47)           121.5378         estimate D2E/DX2                !
 ! A86   A(41,43,48)           119.1223         estimate D2E/DX2                !
 ! A87   A(47,43,48)           119.3385         estimate D2E/DX2                !
 ! A88   A(42,45,47)           121.154          estimate D2E/DX2                !
 ! A89   A(42,45,49)           119.405          estimate D2E/DX2                !
 ! A90   A(47,45,49)           119.4402         estimate D2E/DX2                !
 ! A91   A(43,47,45)           117.6728         estimate D2E/DX2                !
 ! A92   A(43,47,50)           121.3071         estimate D2E/DX2                !
 ! A93   A(45,47,50)           120.984          estimate D2E/DX2                !
 ! A94   A(47,50,51)           110.7255         estimate D2E/DX2                !
 ! A95   A(47,50,52)           109.6983         estimate D2E/DX2                !
 ! A96   A(47,50,53)           112.7116         estimate D2E/DX2                !
 ! A97   A(51,50,52)           106.7673         estimate D2E/DX2                !
 ! A98   A(51,50,53)           107.987          estimate D2E/DX2                !
 ! A99   A(52,50,53)           108.7501         estimate D2E/DX2                !
 ! A100  A(50,53,54)           108.8386         estimate D2E/DX2                !
 ! A101  A(50,53,55)           108.8946         estimate D2E/DX2                !
 ! A102  A(50,53,56)           110.2197         estimate D2E/DX2                !
 ! A103  A(54,53,55)           106.4654         estimate D2E/DX2                !
 ! A104  A(54,53,56)           114.3872         estimate D2E/DX2                !
 ! A105  A(55,53,56)           107.8526         estimate D2E/DX2                !
 ! A106  A(53,56,57)           109.5245         estimate D2E/DX2                !
 ! A107  A(53,56,58)           109.7172         estimate D2E/DX2                !
 ! A108  A(57,56,58)           105.8733         estimate D2E/DX2                !
 ! D1    D(6,1,2,3)             -0.6548         estimate D2E/DX2                !
 ! D2    D(6,1,2,29)           177.8063         estimate D2E/DX2                !
 ! D3    D(7,1,2,3)            179.5348         estimate D2E/DX2                !
 ! D4    D(7,1,2,29)            -2.004          estimate D2E/DX2                !
 ! D5    D(2,1,6,5)              0.3501         estimate D2E/DX2                !
 ! D6    D(2,1,6,9)           -179.5662         estimate D2E/DX2                !
 ! D7    D(7,1,6,5)           -179.84           estimate D2E/DX2                !
 ! D8    D(7,1,6,9)              0.2438         estimate D2E/DX2                !
 ! D9    D(1,2,3,4)              0.5036         estimate D2E/DX2                !
 ! D10   D(1,2,3,8)           -177.7142         estimate D2E/DX2                !
 ! D11   D(29,2,3,4)          -177.9891         estimate D2E/DX2                !
 ! D12   D(29,2,3,8)             3.7931         estimate D2E/DX2                !
 ! D13   D(1,2,29,30)           37.3343         estimate D2E/DX2                !
 ! D14   D(1,2,29,31)         -143.1958         estimate D2E/DX2                !
 ! D15   D(3,2,29,30)         -144.2207         estimate D2E/DX2                !
 ! D16   D(3,2,29,31)           35.2491         estimate D2E/DX2                !
 ! D17   D(2,3,4,5)             -0.0579         estimate D2E/DX2                !
 ! D18   D(2,3,4,10)          -179.3905         estimate D2E/DX2                !
 ! D19   D(8,3,4,5)            178.1414         estimate D2E/DX2                !
 ! D20   D(8,3,4,10)            -1.1912         estimate D2E/DX2                !
 ! D21   D(3,4,5,6)             -0.2562         estimate D2E/DX2                !
 ! D22   D(3,4,5,16)          -179.809          estimate D2E/DX2                !
 ! D23   D(10,4,5,6)           179.1863         estimate D2E/DX2                !
 ! D24   D(10,4,5,16)           -0.3665         estimate D2E/DX2                !
 ! D25   D(3,4,10,11)          179.7934         estimate D2E/DX2                !
 ! D26   D(3,4,10,21)           61.4231         estimate D2E/DX2                !
 ! D27   D(3,4,10,25)          -61.7391         estimate D2E/DX2                !
 ! D28   D(5,4,10,11)            0.4095         estimate D2E/DX2                !
 ! D29   D(5,4,10,21)         -117.9607         estimate D2E/DX2                !
 ! D30   D(5,4,10,25)          118.877          estimate D2E/DX2                !
 ! D31   D(4,5,6,1)              0.1108         estimate D2E/DX2                !
 ! D32   D(4,5,6,9)           -179.974          estimate D2E/DX2                !
 ! D33   D(16,5,6,1)           179.546          estimate D2E/DX2                !
 ! D34   D(16,5,6,9)            -0.5388         estimate D2E/DX2                !
 ! D35   D(4,5,16,11)            0.1542         estimate D2E/DX2                !
 ! D36   D(4,5,16,15)         -179.8343         estimate D2E/DX2                !
 ! D37   D(6,5,16,11)         -179.3299         estimate D2E/DX2                !
 ! D38   D(6,5,16,15)            0.6816         estimate D2E/DX2                !
 ! D39   D(4,10,11,12)         179.747          estimate D2E/DX2                !
 ! D40   D(4,10,11,16)          -0.3125         estimate D2E/DX2                !
 ! D41   D(21,10,11,12)        -61.8494         estimate D2E/DX2                !
 ! D42   D(21,10,11,16)        118.091          estimate D2E/DX2                !
 ! D43   D(25,10,11,12)         61.258          estimate D2E/DX2                !
 ! D44   D(25,10,11,16)       -118.8016         estimate D2E/DX2                !
 ! D45   D(4,10,21,22)         176.2195         estimate D2E/DX2                !
 ! D46   D(4,10,21,23)         -64.2533         estimate D2E/DX2                !
 ! D47   D(4,10,21,24)          55.984          estimate D2E/DX2                !
 ! D48   D(11,10,21,22)         64.1734         estimate D2E/DX2                !
 ! D49   D(11,10,21,23)       -176.2995         estimate D2E/DX2                !
 ! D50   D(11,10,21,24)        -56.0621         estimate D2E/DX2                !
 ! D51   D(25,10,21,22)        -59.7683         estimate D2E/DX2                !
 ! D52   D(25,10,21,23)         59.7588         estimate D2E/DX2                !
 ! D53   D(25,10,21,24)        179.9962         estimate D2E/DX2                !
 ! D54   D(4,10,25,26)          64.3077         estimate D2E/DX2                !
 ! D55   D(4,10,25,27)        -176.2118         estimate D2E/DX2                !
 ! D56   D(4,10,25,28)         -55.972          estimate D2E/DX2                !
 ! D57   D(11,10,25,26)        176.4205         estimate D2E/DX2                !
 ! D58   D(11,10,25,27)        -64.099          estimate D2E/DX2                !
 ! D59   D(11,10,25,28)         56.1408         estimate D2E/DX2                !
 ! D60   D(21,10,25,26)        -59.6759         estimate D2E/DX2                !
 ! D61   D(21,10,25,27)         59.8046         estimate D2E/DX2                !
 ! D62   D(21,10,25,28)       -179.9556         estimate D2E/DX2                !
 ! D63   D(10,11,12,13)        179.9088         estimate D2E/DX2                !
 ! D64   D(10,11,12,17)         -0.0545         estimate D2E/DX2                !
 ! D65   D(16,11,12,13)         -0.0268         estimate D2E/DX2                !
 ! D66   D(16,11,12,17)       -179.9901         estimate D2E/DX2                !
 ! D67   D(10,11,16,5)           0.1174         estimate D2E/DX2                !
 ! D68   D(10,11,16,15)       -179.8926         estimate D2E/DX2                !
 ! D69   D(12,11,16,5)        -179.9363         estimate D2E/DX2                !
 ! D70   D(12,11,16,15)          0.0537         estimate D2E/DX2                !
 ! D71   D(11,12,13,14)         -0.0026         estimate D2E/DX2                !
 ! D72   D(11,12,13,18)       -179.9841         estimate D2E/DX2                !
 ! D73   D(17,12,13,14)        179.961          estimate D2E/DX2                !
 ! D74   D(17,12,13,18)         -0.0205         estimate D2E/DX2                !
 ! D75   D(12,13,14,15)          0.0061         estimate D2E/DX2                !
 ! D76   D(12,13,14,19)       -179.9853         estimate D2E/DX2                !
 ! D77   D(18,13,14,15)        179.9876         estimate D2E/DX2                !
 ! D78   D(18,13,14,19)         -0.0038         estimate D2E/DX2                !
 ! D79   D(13,14,15,16)          0.02           estimate D2E/DX2                !
 ! D80   D(13,14,15,20)       -179.9874         estimate D2E/DX2                !
 ! D81   D(19,14,15,16)       -179.9887         estimate D2E/DX2                !
 ! D82   D(19,14,15,20)          0.004          estimate D2E/DX2                !
 ! D83   D(14,15,16,5)         179.9378         estimate D2E/DX2                !
 ! D84   D(14,15,16,11)         -0.0496         estimate D2E/DX2                !
 ! D85   D(20,15,16,5)          -0.0549         estimate D2E/DX2                !
 ! D86   D(20,15,16,11)        179.9578         estimate D2E/DX2                !
 ! D87   D(2,29,30,32)         179.4232         estimate D2E/DX2                !
 ! D88   D(2,29,30,37)           0.9746         estimate D2E/DX2                !
 ! D89   D(31,29,30,32)         -0.0791         estimate D2E/DX2                !
 ! D90   D(31,29,30,37)       -178.5276         estimate D2E/DX2                !
 ! D91   D(2,29,31,33)        -179.4397         estimate D2E/DX2                !
 ! D92   D(2,29,31,34)           2.7851         estimate D2E/DX2                !
 ! D93   D(30,29,31,33)          0.0704         estimate D2E/DX2                !
 ! D94   D(30,29,31,34)       -177.7049         estimate D2E/DX2                !
 ! D95   D(29,30,32,35)         -0.0054         estimate D2E/DX2                !
 ! D96   D(29,30,32,38)       -178.6544         estimate D2E/DX2                !
 ! D97   D(37,30,32,35)        178.6216         estimate D2E/DX2                !
 ! D98   D(37,30,32,38)         -0.0273         estimate D2E/DX2                !
 ! D99   D(29,30,37,39)        178.7105         estimate D2E/DX2                !
 ! D100  D(32,30,37,39)          0.1539         estimate D2E/DX2                !
 ! D101  D(29,31,33,35)          0.0289         estimate D2E/DX2                !
 ! D102  D(29,31,33,36)       -177.821          estimate D2E/DX2                !
 ! D103  D(34,31,33,35)        177.8274         estimate D2E/DX2                !
 ! D104  D(34,31,33,36)         -0.0225         estimate D2E/DX2                !
 ! D105  D(30,32,35,33)          0.0997         estimate D2E/DX2                !
 ! D106  D(30,32,35,40)       -179.4686         estimate D2E/DX2                !
 ! D107  D(38,32,35,33)        178.5737         estimate D2E/DX2                !
 ! D108  D(38,32,35,40)         -0.9945         estimate D2E/DX2                !
 ! D109  D(30,32,38,39)         -0.1141         estimate D2E/DX2                !
 ! D110  D(35,32,38,39)       -178.6946         estimate D2E/DX2                !
 ! D111  D(31,33,35,32)         -0.1132         estimate D2E/DX2                !
 ! D112  D(31,33,35,40)        179.4612         estimate D2E/DX2                !
 ! D113  D(36,33,35,32)        177.7141         estimate D2E/DX2                !
 ! D114  D(36,33,35,40)         -2.7116         estimate D2E/DX2                !
 ! D115  D(32,35,40,41)        -37.2314         estimate D2E/DX2                !
 ! D116  D(32,35,40,42)        144.4877         estimate D2E/DX2                !
 ! D117  D(33,35,40,41)        143.2286         estimate D2E/DX2                !
 ! D118  D(33,35,40,42)        -35.0524         estimate D2E/DX2                !
 ! D119  D(30,37,39,38)         -0.199          estimate D2E/DX2                !
 ! D120  D(32,38,39,37)          0.1838         estimate D2E/DX2                !
 ! D121  D(35,40,41,43)       -177.707          estimate D2E/DX2                !
 ! D122  D(35,40,41,44)          1.8345         estimate D2E/DX2                !
 ! D123  D(42,40,41,43)          0.6138         estimate D2E/DX2                !
 ! D124  D(42,40,41,44)       -179.8447         estimate D2E/DX2                !
 ! D125  D(35,40,42,45)        177.9115         estimate D2E/DX2                !
 ! D126  D(35,40,42,46)         -3.5585         estimate D2E/DX2                !
 ! D127  D(41,40,42,45)         -0.4442         estimate D2E/DX2                !
 ! D128  D(41,40,42,46)        178.0858         estimate D2E/DX2                !
 ! D129  D(40,41,43,47)         -0.4117         estimate D2E/DX2                !
 ! D130  D(40,41,43,48)        179.1605         estimate D2E/DX2                !
 ! D131  D(44,41,43,47)       -179.9532         estimate D2E/DX2                !
 ! D132  D(44,41,43,48)         -0.381          estimate D2E/DX2                !
 ! D133  D(40,42,45,47)          0.0634         estimate D2E/DX2                !
 ! D134  D(40,42,45,49)        179.7307         estimate D2E/DX2                !
 ! D135  D(46,42,45,47)       -178.4692         estimate D2E/DX2                !
 ! D136  D(46,42,45,49)          1.1981         estimate D2E/DX2                !
 ! D137  D(41,43,47,45)          0.0168         estimate D2E/DX2                !
 ! D138  D(41,43,47,50)       -177.8182         estimate D2E/DX2                !
 ! D139  D(48,43,47,45)       -179.5545         estimate D2E/DX2                !
 ! D140  D(48,43,47,50)          2.6105         estimate D2E/DX2                !
 ! D141  D(42,45,47,43)          0.1561         estimate D2E/DX2                !
 ! D142  D(42,45,47,50)        177.9984         estimate D2E/DX2                !
 ! D143  D(49,45,47,43)       -179.5111         estimate D2E/DX2                !
 ! D144  D(49,45,47,50)         -1.6688         estimate D2E/DX2                !
 ! D145  D(43,47,50,51)       -150.0404         estimate D2E/DX2                !
 ! D146  D(43,47,50,52)        -32.4542         estimate D2E/DX2                !
 ! D147  D(43,47,50,53)         88.8758         estimate D2E/DX2                !
 ! D148  D(45,47,50,51)         32.1961         estimate D2E/DX2                !
 ! D149  D(45,47,50,52)        149.7824         estimate D2E/DX2                !
 ! D150  D(45,47,50,53)        -88.8876         estimate D2E/DX2                !
 ! D151  D(47,50,53,54)        -56.2397         estimate D2E/DX2                !
 ! D152  D(47,50,53,55)         59.4382         estimate D2E/DX2                !
 ! D153  D(47,50,53,56)        177.5618         estimate D2E/DX2                !
 ! D154  D(51,50,53,54)       -178.8718         estimate D2E/DX2                !
 ! D155  D(51,50,53,55)        -63.1939         estimate D2E/DX2                !
 ! D156  D(51,50,53,56)         54.9297         estimate D2E/DX2                !
 ! D157  D(52,50,53,54)         65.6278         estimate D2E/DX2                !
 ! D158  D(52,50,53,55)       -178.6943         estimate D2E/DX2                !
 ! D159  D(52,50,53,56)        -60.5708         estimate D2E/DX2                !
 ! D160  D(50,53,56,57)         68.1479         estimate D2E/DX2                !
 ! D161  D(50,53,56,58)       -176.0441         estimate D2E/DX2                !
 ! D162  D(54,53,56,57)        -54.8629         estimate D2E/DX2                !
 ! D163  D(54,53,56,58)         60.9451         estimate D2E/DX2                !
 ! D164  D(55,53,56,57)       -173.0895         estimate D2E/DX2                !
 ! D165  D(55,53,56,58)        -57.2816         estimate D2E/DX2                !
 --------------------------------------------------------------------------------
 Trust Radius=3.00D-01 FncErr=1.00D-07 GrdErr=1.00D-06 EigMax=2.50D+02 EigMin=1.00D-04
 Number of steps in this run=    346 maximum allowed number of steps=    348.
 GradGradGradGradGradGradGradGradGradGradGradGradGradGradGradGradGradGrad

 Leave Link  103 at Thu Mar 14 09:19:51 2024, MaxMem= 32212254720 cpu:               0.3 elap:               0.0
 (Enter /home/<user>/g16/l202.exe)
 Stoichiometry    C29H25N3S
 Framework group  C1[X(C29H25N3S)]
 Deg. of freedom   168
 Full point group                 C1      NOp   1
 Largest Abelian subgroup         C1      NOp   1
 Largest concise Abelian subgroup C1      NOp   1
                         Standard orientation:                         
 ---------------------------------------------------------------------
 Center     Atomic      Atomic             Coordinates (Angstroms)
 Number     Number       Type             X           Y           Z
 ---------------------------------------------------------------------
      1          6           0       -2.445420    1.576952   -0.640756
      2          6           0       -1.800770    0.377898   -0.276543
      3          6           0       -2.593188   -0.732829    0.084386
      4          6           0       -3.976156   -0.639371    0.067553
      5          6           0       -4.604884    0.564012   -0.308309
      6          6           0       -3.835098    1.673787   -0.661764
      7          1           0       -1.847013    2.438095   -0.912271
      8          1           0       -2.108244   -1.651967    0.403337
      9          1           0       -4.305906    2.609112   -0.953548
     10          6           0       -5.011020   -1.705216    0.429783
     11          6           0       -6.314910   -0.941629    0.196693
     12          6           0       -7.623913   -1.383182    0.353095
     13          6           0       -8.678397   -0.502959    0.081747
     14          6           0       -8.421388    0.805409   -0.341662
     15          6           0       -7.109101    1.255427   -0.500897
     16          6           0       -6.057367    0.376946   -0.230661
     17          1           0       -7.835091   -2.398082    0.682337
     18          1           0       -9.704987   -0.838925    0.201362
     19          1           0       -9.250200    1.477337   -0.548281
     20          1           0       -6.914211    2.273031   -0.829937
     21          6           0       -4.873450   -2.145823    1.904592
     22          1           0       -5.661933   -2.859551    2.170274
     23          1           0       -3.906850   -2.634198    2.074728
     24          1           0       -4.946541   -1.288068    2.580623
     25          6           0       -4.903949   -2.934957   -0.499622
     26          1           0       -3.938253   -3.437009   -0.367953
     27          1           0       -5.693098   -3.661406   -0.273395
     28          1           0       -4.998190   -2.644371   -1.550825
     29          6           0       -0.326596    0.250758   -0.297183
     30          6           0        0.561803    1.317276    0.086920
     31          6           0        0.296845   -0.920873   -0.682176
     32          6           0        2.010629    1.141126    0.062178
     33          6           0        1.707388   -1.091909   -0.706344
     34          1           0       -0.316167   -1.751252   -1.019726
     35          6           0        2.604471   -0.104847   -0.346857
     36          1           0        2.092779   -2.043380   -1.060607
     37          7           0        0.185135    2.526214    0.519893
     38          7           0        2.680579    2.223073    0.476747
     39         16           0        1.558695    3.359421    0.858730
     40          6           0        4.066915   -0.331759   -0.376367
     41          6           0        4.971773    0.672396   -0.762914
     42          6           0        4.592573   -1.593667   -0.045584
     43          6           0        6.338455    0.413776   -0.825905
     44          1           0        4.600567    1.656859   -1.021918
     45          6           0        5.960456   -1.842817   -0.107780
     46          1           0        3.922815   -2.381800    0.287153
     47          6           0        6.861990   -0.844676   -0.500902
     48          1           0        7.013438    1.206643   -1.141689
     49          1           0        6.336570   -2.828307    0.158693
     50          6           0        8.350770   -1.105944   -0.524079
     51          1           0        8.556915   -2.153440   -0.771898
     52          1           0        8.821757   -0.496101   -1.307801
     53          6           0        9.029919   -0.793298    0.821086
     54          1           0        8.813687    0.255269    1.094789
     55          1           0        8.577448   -1.417855    1.601077
     56          7           0       10.458266   -1.119926    0.755806
     57          1           0       10.926743   -0.474683    0.119996
     58          1           0       10.886698   -0.972254    1.668323
 ---------------------------------------------------------------------
 Rotational constants (GHZ):           0.3750593           0.0391474           0.0364047
 Leave Link  202 at Thu Mar 14 09:19:51 2024, MaxMem= 32212254720 cpu:               0.1 elap:               0.0
 (Enter /home/<user>/g16/l301.exe)
 Standard basis: 6-31G(d) (6D, 7F)
 Ernie: Thresh=  0.10000D-02 Tol=  0.10000D-05 Strict=F.
 There are   549 symmetry adapted cartesian basis functions of A   symmetry.
 There are   549 symmetry adapted basis functions of A   symmetry.
   549 basis functions,  1048 primitive gaussians,   549 cartesian basis functions
   118 alpha electrons      118 beta electrons
       nuclear repulsion energy      3077.1700958446 Hartrees.
 IExCor=  402 DFT=T Ex+Corr=B3LYP ExCW=0 ScaHFX=  0.200000
 ScaDFX=  0.800000  0.720000  1.000000  0.810000 ScalE2=  1.000000  1.000000
 IRadAn=      5 IRanWt=     -1 IRanGd=            0 ICorTp=0 IEmpDi=  4
 NAtoms=   58 NActive=   58 NUniq=   58 SFac= 1.00D+00 NAtFMM=   60 NAOKFM=F Big=F
 Integral buffers will be    131072 words long.
 Regular integral format.
 Two-electron integral symmetry is turned on.
 Leave Link  301 at Thu Mar 14 09:19:51 2024, MaxMem= 32212254720 cpu:               0.8 elap:               0.0
 (Enter /home/<user>/g16/l302.exe)
 NPDir=0 NMtPBC=     1 NCelOv=     1 NCel=       1 NClECP=     1 NCelD=      1
         NCelK=      1 NCelE2=     1 NClLst=     1 CellRange=     0.0.
 One-electron integrals computed using PRISM.
 One-electron integral symmetry used in STVInt
 NBasis=   549 RedAO= T EigKep=  2.62D-04  NBF=   549
 NBsUse=   549 1.00D-06 EigRej= -1.00D+00 NBFU=   549
 Precomputing XC quadrature grid using
 IXCGrd= 4 IRadAn=           5 IRanWt=          -1 IRanGd=           0 AccXCQ= 0.00D+00.
 Generated NRdTot=       0 NPtTot=           0 NUsed=           0 NTot=          32
 NSgBfM=   513   513   513   513   513 MxSgAt=    58 MxSgA2=    58.
 Leave Link  302 at Thu Mar 14 09:19:51 2024, MaxMem= 32212254720 cpu:              12.4 elap:               0.4
 (Enter /home/<user>/g16/l303.exe)
 DipDrv:  MaxL=1.
 Leave Link  303 at Thu Mar 14 09:19:51 2024, MaxMem= 32212254720 cpu:               1.4 elap:               0.1
 (Enter /home/<user>/g16/l308.exe)
 Leave Link  308 at Thu Mar 14 09:19:51 2024, MaxMem= 32212254720 cpu:               1.9 elap:               0.1
 (Enter /home/<user>/g16/l401.exe)
 ExpMin= 1.17D-01 ExpMax= 2.19D+04 ExpMxC= 3.30D+03 IAcc=3 IRadAn=         5 AccDes= 0.00D+00
 Harris functional with IExCor=  402 and IRadAn=       5 diagonalized for initial guess.
 HarFok:  IExCor=  402 AccDes= 0.00D+00 IRadAn=         5 IDoV= 1 UseB2=F ITyADJ=14
 ICtDFT=  3500011 ScaDFX=  1.000000  1.000000  1.000000  1.000000
 FoFCou: FMM=F IPFlag=           0 FMFlag=      100000 FMFlg1=           0
         NFxFlg=           0 DoJE=T BraDBF=F KetDBF=T FulRan=T
         wScrn=  0.000000 ICntrl=       500 IOpCl=  0 I1Cent=   200000004 NGrid=           0
         NMat0=    1 NMatS0=      1 NMatT0=    0 NMatD0=    1 NMtDS0=    0 NMtDT0=    0
 Petite list used in FoFCou.
 Harris En= -1682.59011819642    
 JPrj=0 DoOrth=F DoCkMO=F.
 Leave Link  401 at Thu Mar 14 09:19:52 2024, MaxMem= 32212254720 cpu:              29.8 elap:               1.0
 (Enter /home/<user>/g16/l502.exe)
 Integral symmetry usage will be decided dynamically.
 Closed shell SCF:
 Using DIIS extrapolation, IDIIS=  1040.
 NGot= 32212254720 LenX= 32211628124 LenY= 32211326174
 Requested convergence on RMS density matrix=1.00D-08 within 128 cycles.
 Requested convergence on MAX density matrix=1.00D-06.
 Requested convergence on             energy=1.00D-06.
 No special actions if energy rises.
 Fock matrices will be formed incrementally for  20 cycles.
 Integral accuracy reduced to 1.0D-05 until final iterations.

 Cycle   1  Pass 0  IDiag  1:
 FoFJK:  IHMeth= 1 ICntrl=       0 DoSepK=F KAlg= 0 I1Cent=           0 FoldK=F
 IRaf= 550000000 NMat=       1 IRICut=       1 DoRegI=T DoRafI=F ISym2E= 0 IDoP0=0 IntGTp=1.
 FoFCou: FMM=F IPFlag=           0 FMFlag=      100000 FMFlg1=           0
         NFxFlg=           0 DoJE=F BraDBF=F KetDBF=F FulRan=T
         wScrn=  0.000000 ICntrl=         0 IOpCl=  0 I1Cent=           0 NGrid=           0
         NMat0=    1 NMatS0=      1 NMatT0=    0 NMatD0=    1 NMtDS0=    0 NMtDT0=    0
 Symmetry not used in FoFCou.
 E= -1681.73455937938    
 DIIS: error= 3.21D-02 at cycle   1 NSaved=   1.
 NSaved= 1 IEnMin= 1 EnMin= -1681.73455937938     IErMin= 1 ErrMin= 3.21D-02
 ErrMax= 3.21D-02  0.00D+00 EMaxC= 1.00D-01 BMatC= 7.86D-01 BMatP= 7.86D-01
 IDIUse=3 WtCom= 6.79D-01 WtEn= 3.21D-01
 Coeff-Com:  0.100D+01
 Coeff-En:   0.100D+01
 Coeff:      0.100D+01
 Gap=     0.288 Goal=   None    Shift=    0.000
 GapD=    0.288 DampG=1.000 DampE=0.500 DampFc=0.5000 IDamp=-1.
 Damping current iteration by 5.00D-01
 RMSDP=6.81D-03 MaxDP=8.74D-01              OVMax= 9.35D-01

 Cycle   2  Pass 0  IDiag  1:
 RMSU=  3.37D-03    CP:  9.71D-01
 E= -1681.66962604249     Delta-E=        0.064933336898 Rises=F Damp=T
 DIIS: error= 2.61D-02 at cycle   2 NSaved=   2.
 NSaved= 2 IEnMin= 1 EnMin= -1681.73455937938     IErMin= 2 ErrMin= 2.61D-02
 ErrMax= 2.61D-02  0.00D+00 EMaxC= 1.00D-01 BMatC= 1.71D-01 BMatP= 7.86D-01
 IDIUse=3 WtCom= 7.39D-01 WtEn= 2.61D-01
 Coeff-Com:  0.228D+00 0.772D+00
 Coeff-En:   0.531D+00 0.469D+00
 Coeff:      0.307D+00 0.693D+00
 Gap=     0.030 Goal=   None    Shift=    0.000
 RMSDP=3.37D-03 MaxDP=4.33D-01 DE= 6.49D-02 OVMax= 6.77D-01

 Cycle   3  Pass 0  IDiag  1:
 RMSU=  2.39D-03    CP:  9.52D-01  3.03D-01
 E= -1682.22974310938     Delta-E=       -0.560117066896 Rises=F Damp=F
 DIIS: error= 2.63D-02 at cycle   3 NSaved=   3.
 NSaved= 3 IEnMin= 3 EnMin= -1682.22974310938     IErMin= 2 ErrMin= 2.61D-02
 ErrMax= 2.63D-02  0.00D+00 EMaxC= 1.00D-01 BMatC= 2.87D-01 BMatP= 1.71D-01
 IDIUse=2 WtCom= 0.00D+00 WtEn= 1.00D+00
 Coeff-En:   0.000D+00 0.191D+00 0.809D+00
 Coeff:      0.000D+00 0.191D+00 0.809D+00
 Gap=     0.349 Goal=   None    Shift=    0.000
 RMSDP=3.26D-03 MaxDP=4.02D-01 DE=-5.60D-01 OVMax= 3.60D-01

 Cycle   4  Pass 0  IDiag  1:
 RMSU=  2.53D-03    CP:  9.58D-01  5.09D-01  1.92D-01
 E= -1681.65848202912     Delta-E=        0.571261080260 Rises=F Damp=F
 DIIS: error= 3.55D-02 at cycle   4 NSaved=   4.
 NSaved= 4 IEnMin= 3 EnMin= -1682.22974310938     IErMin= 2 ErrMin= 2.61D-02
 ErrMax= 3.55D-02  0.00D+00 EMaxC= 1.00D-01 BMatC= 7.54D-01 BMatP= 1.71D-01
 IDIUse=2 WtCom= 0.00D+00 WtEn= 1.00D+00
 Coeff-En:   0.000D+00 0.000D+00 0.669D+00 0.331D+00
 Coeff:      0.000D+00 0.000D+00 0.669D+00 0.331D+00
 Gap=     0.165 Goal=   None    Shift=    0.000
 RMSDP=1.77D-03 MaxDP=1.54D-01 DE= 5.71D-01 OVMax= 4.63D-01

 Cycle   5  Pass 0  IDiag  1:
 RMSU=  8.30D-04    CP:  9.57D-01  4.04D-01  5.15D-01  4.81D-01
 E= -1682.57188769456     Delta-E=       -0.913405665442 Rises=F Damp=F
 DIIS: error= 1.01D-02 at cycle   5 NSaved=   5.
 NSaved= 5 IEnMin= 5 EnMin= -1682.57188769456     IErMin= 5 ErrMin= 1.01D-02
 ErrMax= 1.01D-02  0.00D+00 EMaxC= 1.00D-01 BMatC= 2.66D-02 BMatP= 1.71D-01
 IDIUse=3 WtCom= 8.99D-01 WtEn= 1.01D-01
 Coeff-Com:  0.243D-01 0.367D-01 0.268D+00 0.778D-01 0.594D+00
 Coeff-En:   0.000D+00 0.000D+00 0.312D-01 0.000D+00 0.969D+00
 Coeff:      0.219D-01 0.330D-01 0.244D+00 0.699D-01 0.632D+00
 Gap=     0.119 Goal=   None    Shift=    0.000
 RMSDP=6.47D-04 MaxDP=1.04D-01 DE=-9.13D-01 OVMax= 1.01D-01

 Cycle   6  Pass 0  IDiag  1:
 RMSU=  4.23D-04    CP:  9.54D-01  3.57D-01  6.14D-01  3.75D-01  6.50D-01
 E= -1682.59283778063     Delta-E=       -0.020950086069 Rises=F Damp=F
 DIIS: error= 3.32D-03 at cycle   6 NSaved=   6.
 NSaved= 6 IEnMin= 6 EnMin= -1682.59283778063     IErMin= 6 ErrMin= 3.32D-03
 ErrMax= 3.32D-03  0.00D+00 EMaxC= 1.00D-01 BMatC= 1.09D-02 BMatP= 2.66D-02
 IDIUse=3 WtCom= 9.67D-01 WtEn= 3.32D-02
 Coeff-Com: -0.190D-02-0.144D-01 0.450D-01-0.137D-01 0.450D+00 0.535D+00
 Coeff-En:   0.000D+00 0.000D+00 0.000D+00 0.000D+00 0.274D+00 0.726D+00
 Coeff:     -0.184D-02-0.139D-01 0.435D-01-0.132D-01 0.444D+00 0.541D+00
 Gap=     0.114 Goal=   None    Shift=    0.000
 RMSDP=2.75D-04 MaxDP=3.16D-02 DE=-2.10D-02 OVMax= 3.25D-02

 Cycle   7  Pass 0  IDiag  1:
 RMSU=  1.43D-04    CP:  9.55D-01  3.71D-01  5.96D-01  3.94D-01  7.79D-01
                    CP:  5.42D-01
 E= -1682.60385844714     Delta-E=       -0.011020666503 Rises=F Damp=F
 DIIS: error= 9.77D-04 at cycle   7 NSaved=   7.
 NSaved= 7 IEnMin= 7 EnMin= -1682.60385844714     IErMin= 7 ErrMin= 9.77D-04
 ErrMax= 9.77D-04  0.00D+00 EMaxC= 1.00D-01 BMatC= 8.03D-04 BMatP= 1.09D-02
 IDIUse=3 WtCom= 9.90D-01 WtEn= 9.77D-03
 Coeff-Com: -0.863D-03-0.566D-02 0.123D-01-0.151D-01 0.212D+00 0.318D+00
 Coeff-Com:  0.479D+00
 Coeff-En:   0.000D+00 0.000D+00 0.000D+00 0.000D+00 0.000D+00 0.000D+00
 Coeff-En:   0.100D+01
 Coeff:     -0.854D-03-0.560D-02 0.121D-01-0.149D-01 0.209D+00 0.315D+00
 Coeff:      0.485D+00
 Gap=     0.113 Goal=   None    Shift=    0.000
 RMSDP=8.20D-05 MaxDP=4.15D-03 DE=-1.10D-02 OVMax= 9.88D-03

 Cycle   8  Pass 0  IDiag  1:
 RMSU=  3.01D-05    CP:  9.55D-01  3.71D-01  5.98D-01  3.92D-01  7.88D-01
                    CP:  5.98D-01  4.99D-01
 E= -1682.60469709385     Delta-E=       -0.000838646711 Rises=F Damp=F
 DIIS: error= 1.96D-04 at cycle   8 NSaved=   8.
 NSaved= 8 IEnMin= 8 EnMin= -1682.60469709385     IErMin= 8 ErrMin= 1.96D-04
 ErrMax= 1.96D-04  0.00D+00 EMaxC= 1.00D-01 BMatC= 4.54D-05 BMatP= 8.03D-04
 IDIUse=3 WtCom= 9.98D-01 WtEn= 1.96D-03
 Coeff-Com:  0.260D-03-0.188D-02 0.402D-02-0.661D-02 0.686D-01 0.115D+00
 Coeff-Com:  0.255D+00 0.566D+00
 Coeff-En:   0.000D+00 0.000D+00 0.000D+00 0.000D+00 0.000D+00 0.000D+00
 Coeff-En:   0.000D+00 0.100D+01
 Coeff:      0.259D-03-0.188D-02 0.401D-02-0.660D-02 0.685D-01 0.114D+00
 Coeff:      0.255D+00 0.567D+00
 Gap=     0.113 Goal=   None    Shift=    0.000
 RMSDP=2.03D-05 MaxDP=1.31D-03 DE=-8.39D-04 OVMax= 2.58D-03

 Cycle   9  Pass 0  IDiag  1:
 RMSU=  1.57D-05    CP:  9.55D-01  3.70D-01  5.98D-01  3.90D-01  7.89D-01
                    CP:  5.97D-01  5.37D-01  6.50D-01
 E= -1682.60473038795     Delta-E=       -0.000033294098 Rises=F Damp=F
 DIIS: error= 1.75D-04 at cycle   9 NSaved=   9.
 NSaved= 9 IEnMin= 9 EnMin= -1682.60473038795     IErMin= 9 ErrMin= 1.75D-04
 ErrMax= 1.75D-04  0.00D+00 EMaxC= 1.00D-01 BMatC= 1.78D-05 BMatP= 4.54D-05
 IDIUse=3 WtCom= 9.98D-01 WtEn= 1.75D-03
 Coeff-Com:  0.467D-03-0.462D-03 0.767D-03-0.184D-02 0.773D-02 0.205D-01
 Coeff-Com:  0.980D-01 0.419D+00 0.456D+00
 Coeff-En:   0.000D+00 0.000D+00 0.000D+00 0.000D+00 0.000D+00 0.000D+00
 Coeff-En:   0.000D+00 0.254D+00 0.746D+00
 Coeff:      0.466D-03-0.461D-03 0.765D-03-0.183D-02 0.771D-02 0.205D-01
 Coeff:      0.979D-01 0.418D+00 0.457D+00
 Gap=     0.113 Goal=   None    Shift=    0.000
 RMSDP=1.16D-05 MaxDP=1.06D-03 DE=-3.33D-05 OVMax= 1.81D-03

 Cycle  10  Pass 0  IDiag  1:
 RMSU=  7.12D-06    CP:  9.55D-01  3.70D-01  5.99D-01  3.90D-01  7.88D-01
                    CP:  5.98D-01  5.52D-01  7.80D-01  4.99D-01
 E= -1682.60474427059     Delta-E=       -0.000013882645 Rises=F Damp=F
 DIIS: error= 8.67D-05 at cycle  10 NSaved=  10.
 NSaved=10 IEnMin=10 EnMin= -1682.60474427059     IErMin=10 ErrMin= 8.67D-05
 ErrMax= 8.67D-05  0.00D+00 EMaxC= 1.00D-01 BMatC= 4.14D-06 BMatP= 1.78D-05
 IDIUse=1 WtCom= 1.00D+00 WtEn= 0.00D+00
 Coeff-Com:  0.315D-03-0.197D-03-0.104D-03-0.207D-03-0.570D-02-0.363D-02
 Coeff-Com:  0.327D-01 0.219D+00 0.351D+00 0.407D+00
 Coeff:      0.315D-03-0.197D-03-0.104D-03-0.207D-03-0.570D-02-0.363D-02
 Coeff:      0.327D-01 0.219D+00 0.351D+00 0.407D+00
 Gap=     0.113 Goal=   None    Shift=    0.000
 RMSDP=4.58D-06 MaxDP=4.12D-04 DE=-1.39D-05 OVMax= 5.15D-04

 Initial convergence to 1.0D-05 achieved.  Increase integral accuracy.
 Cycle  11  Pass 1  IDiag  1:
 E= -1682.60476841274     Delta-E=       -0.000024142147 Rises=F Damp=F
 DIIS: error= 1.03D-04 at cycle   1 NSaved=   1.
 NSaved= 1 IEnMin= 1 EnMin= -1682.60476841274     IErMin= 1 ErrMin= 1.03D-04
 ErrMax= 1.03D-04  0.00D+00 EMaxC= 1.00D-01 BMatC= 2.88D-06 BMatP= 2.88D-06
 IDIUse=3 WtCom= 9.99D-01 WtEn= 1.03D-03
 Coeff-Com:  0.100D+01
 Coeff-En:   0.100D+01
 Coeff:      0.100D+01
 Gap=     0.113 Goal=   None    Shift=    0.000
 RMSDP=4.58D-06 MaxDP=4.12D-04 DE=-2.41D-05 OVMax= 3.95D-04

 Cycle  12  Pass 1  IDiag  1:
 RMSU=  6.81D-05    CP:  1.00D+00
 E= -1682.60477007574     Delta-E=       -0.000001663004 Rises=F Damp=F
 DIIS: error= 3.64D-05 at cycle   2 NSaved=   2.
 NSaved= 2 IEnMin= 2 EnMin= -1682.60477007574     IErMin= 2 ErrMin= 3.64D-05
 ErrMax= 3.64D-05  0.00D+00 EMaxC= 1.00D-01 BMatC= 8.37D-07 BMatP= 2.88D-06
 IDIUse=1 WtCom= 1.00D+00 WtEn= 0.00D+00
 Coeff-Com:  0.267D+00 0.733D+00
 Coeff:      0.267D+00 0.733D+00
 Gap=     0.113 Goal=   None    Shift=    0.000
 RMSDP=4.88D-06 MaxDP=3.28D-04 DE=-1.66D-06 OVMax= 6.43D-04

 Cycle  13  Pass 1  IDiag  1:
 RMSU=  4.85D-06    CP:  1.00D+00  1.01D+00
 E= -1682.60476875077     Delta-E=        0.000001324971 Rises=F Damp=F
 DIIS: error= 5.54D-05 at cycle   3 NSaved=   3.
 NSaved= 3 IEnMin= 2 EnMin= -1682.60477007574     IErMin= 2 ErrMin= 3.64D-05
 ErrMax= 5.54D-05  0.00D+00 EMaxC= 1.00D-01 BMatC= 2.11D-06 BMatP= 8.37D-07
 IDIUse=1 WtCom= 1.00D+00 WtEn= 0.00D+00
 Coeff-Com:  0.115D-01 0.610D+00 0.378D+00
 Coeff:      0.115D-01 0.610D+00 0.378D+00
 Gap=     0.113 Goal=   None    Shift=    0.000
 RMSDP=3.22D-06 MaxDP=2.46D-04 DE= 1.32D-06 OVMax= 4.71D-04

 Cycle  14  Pass 1  IDiag  1:
 RMSU=  1.03D-06    CP:  1.00D+00  1.01D+00  3.72D-01
 E= -1682.60477086620     Delta-E=       -0.000002115430 Rises=F Damp=F
 DIIS: error= 1.28D-05 at cycle   4 NSaved=   4.
 NSaved= 4 IEnMin= 4 EnMin= -1682.60477086620     IErMin= 4 ErrMin= 1.28D-05
 ErrMax= 1.28D-05  0.00D+00 EMaxC= 1.00D-01 BMatC= 1.18D-07 BMatP= 8.37D-07
 IDIUse=1 WtCom= 1.00D+00 WtEn= 0.00D+00
 Coeff-Com: -0.347D-02 0.414D+00 0.277D+00 0.313D+00
 Coeff:     -0.347D-02 0.414D+00 0.277D+00 0.313D+00
 Gap=     0.113 Goal=   None    Shift=    0.000
 RMSDP=7.16D-07 MaxDP=6.14D-05 DE=-2.12D-06 OVMax= 1.02D-04

 Cycle  15  Pass 1  IDiag  1:
 RMSU=  1.76D-07    CP:  1.00D+00  1.01D+00  3.95D-01  3.34D-01
 E= -1682.60477098626     Delta-E=       -0.000000120064 Rises=F Damp=F
 DIIS: error= 9.18D-07 at cycle   5 NSaved=   5.
 NSaved= 5 IEnMin= 5 EnMin= -1682.60477098626     IErMin= 5 ErrMin= 9.18D-07
 ErrMax= 9.18D-07  0.00D+00 EMaxC= 1.00D-01 BMatC= 1.18D-09 BMatP= 1.18D-07
 IDIUse=1 WtCom= 1.00D+00 WtEn= 0.00D+00
 Coeff-Com: -0.236D-02 0.235D+00 0.158D+00 0.187D+00 0.423D+00
 Coeff:     -0.236D-02 0.235D+00 0.158D+00 0.187D+00 0.423D+00
 Gap=     0.113 Goal=   None    Shift=    0.000
 RMSDP=8.59D-08 MaxDP=5.69D-06 DE=-1.20D-07 OVMax= 9.18D-06

 Cycle  16  Pass 1  IDiag  1:
 RMSU=  6.36D-08    CP:  1.00D+00  1.01D+00  3.97D-01  3.45D-01  6.80D-01
 E= -1682.60477098745     Delta-E=       -0.000000001187 Rises=F Damp=F
 DIIS: error= 2.58D-07 at cycle   6 NSaved=   6.
 NSaved= 6 IEnMin= 6 EnMin= -1682.60477098745     IErMin= 6 ErrMin= 2.58D-07
 ErrMax= 2.58D-07  0.00D+00 EMaxC= 1.00D-01 BMatC= 7.95D-11 BMatP= 1.18D-09
 IDIUse=1 WtCom= 1.00D+00 WtEn= 0.00D+00
 Coeff-Com: -0.106D-02 0.993D-01 0.667D-01 0.799D-01 0.252D+00 0.503D+00
 Coeff:     -0.106D-02 0.993D-01 0.667D-01 0.799D-01 0.252D+00 0.503D+00
 Gap=     0.113 Goal=   None    Shift=    0.000
 RMSDP=2.40D-08 MaxDP=1.67D-06 DE=-1.19D-09 OVMax= 2.45D-06

 Cycle  17  Pass 1  IDiag  1:
 RMSU=  1.78D-08    CP:  1.00D+00  1.01D+00  3.96D-01  3.45D-01  7.20D-01
                    CP:  7.80D-01
 E= -1682.60477098746     Delta-E=       -0.000000000013 Rises=F Damp=F
 DIIS: error= 6.86D-08 at cycle   7 NSaved=   7.
 NSaved= 7 IEnMin= 7 EnMin= -1682.60477098746     IErMin= 7 ErrMin= 6.86D-08
 ErrMax= 6.86D-08  0.00D+00 EMaxC= 1.00D-01 BMatC= 7.00D-12 BMatP= 7.95D-11
 IDIUse=1 WtCom= 1.00D+00 WtEn= 0.00D+00
 Coeff-Com: -0.338D-03 0.299D-01 0.202D-01 0.239D-01 0.990D-01 0.282D+00
 Coeff-Com:  0.545D+00
 Coeff:     -0.338D-03 0.299D-01 0.202D-01 0.239D-01 0.990D-01 0.282D+00
 Coeff:      0.545D+00
 Gap=     0.113 Goal=   None    Shift=    0.000
 RMSDP=7.02D-09 MaxDP=6.18D-07 DE=-1.27D-11 OVMax= 9.66D-07

 SCF Done:  E(RB3LYP) =  -1682.60477099     A.U. after   17 cycles
            NFock= 17  Conv=0.70D-08     -V/T= 2.0082
 KE= 1.668919146320D+03 PE=-1.007620800673D+04 EE= 3.647513993579D+03
 Leave Link  502 at Thu Mar 14 09:20:15 2024, MaxMem= 32212254720 cpu:             679.4 elap:              22.7
 (Enter /home/<user>/g16/l801.exe)
 DoSCS=F DFT=T ScalE2(SS,OS)=  1.000000  1.000000
 ExpMin= 1.17D-01 ExpMax= 2.19D+04 ExpMxC= 3.30D+03 IAcc=3 IRadAn=         5 AccDes= 0.00D+00
 HarFok:  IExCor=  205 AccDes= 0.00D+00 IRadAn=         5 IDoV=-2 UseB2=F ITyADJ=14
 ICtDFT= 12500011 ScaDFX=  1.000000  1.000000  1.000000  1.000000
 GSVD:  LWork=       -1665 too small for GESVD, short by        7400 words or        7400 for optimal perf.
 Largest valence mixing into a core orbital is  1.09D-04
 Largest core mixing into a valence orbital is  2.81D-05
 Range of M.O.s used for correlation:    38   549
 NBasis=   549 NAE=   118 NBE=   118 NFC=    37 NFV=     0
 NROrb=    512 NOA=    81 NOB=    81 NVA=   431 NVB=   431

 **** Warning!!: The largest alpha MO coefficient is  0.10642608D+02

 Leave Link  801 at Thu Mar 14 09:20:15 2024, MaxMem= 32212254720 cpu:               2.2 elap:               0.1
 (Enter /home/<user>/g16/l914.exe)
 RHF ground state
 Two-electron integrals replicated using symmetry.
 MDV= 32212254720 DFT=T DoStab=F Mixed=T DoRPA=T DoScal=F NonHer=T
 Making orbital integer symmetry assigments:
 Orbital symmetries:
       Occupied  (A) (A) (A) (A) (A) (A) (A) (A) (A) (A) (A) (A)
                 (A) (A) (A) (A) (A) (A) (A) (A) (A) (A) (A) (A)
                 (A) (A) (A) (A) (A) (A) (A) (A) (A) (A) (A) (A)
                 (A) (A) (A) (A) (A) (A) (A) (A) (A) (A) (A) (A)
                 (A) (A) (A) (A) (A) (A) (A) (A) (A) (A) (A) (A)
                 (A) (A) (A) (A) (A) (A) (A) (A) (A) (A) (A) (A)
                 (A) (A) (A) (A) (A) (A) (A) (A) (A) (A) (A) (A)
                 (A) (A) (A) (A) (A) (A) (A) (A) (A) (A) (A) (A)
                 (A) (A) (A) (A) (A) (A) (A) (A) (A) (A) (A) (A)
                 (A) (A) (A) (A) (A) (A) (A) (A) (A) (A)
       Virtual   (A) (A) (A) (A) (A) (A) (A) (A) (A) (A) (A) (A)
                 (A) (A) (A) (A) (A) (A) (A) (A) (A) (A) (A) (A)
                 (A) (A) (A) (A) (A) (A) (A) (A) (A) (A) (A) (A)
                 (A) (A) (A) (A) (A) (A) (A) (A) (A) (A) (A) (A)
                 (A) (A) (A) (A) (A) (A) (A) (A) (A) (A) (A) (A)
                 (A) (A) (A) (A) (A) (A) (A) (A) (A) (A) (A) (A)
                 (A) (A) (A) (A) (A) (A) (A) (A) (A) (A) (A) (A)
                 (A) (A) (A) (A) (A) (A) (A) (A) (A) (A) (A) (A)
                 (A) (A) (A) (A) (A) (A) (A) (A) (A) (A) (A) (A)
                 (A) (A) (A) (A) (A) (A) (A) (A) (A) (A) (A) (A)
                 (A) (A) (A) (A) (A) (A) (A) (A) (A) (A) (A) (A)
                 (A) (A) (A) (A) (A) (A) (A) (A) (A) (A) (A) (A)
                 (A) (A) (A) (A) (A) (A) (A) (A) (A) (A) (A) (A)
                 (A) (A) (A) (A) (A) (A) (A) (A) (A) (A) (A) (A)
                 (A) (A) (A) (A) (A) (A) (A) (A) (A) (A) (A) (A)
                 (A) (A) (A) (A) (A) (A) (A) (A) (A) (A) (A) (A)
                 (A) (A) (A) (A) (A) (A) (A) (A) (A) (A) (A) (A)
                 (A) (A) (A) (A) (A) (A) (A) (A) (A) (A) (A) (A)
                 (A) (A) (A) (A) (A) (A) (A) (A) (A) (A) (A) (A)
                 (A) (A) (A) (A) (A) (A) (A) (A) (A) (A) (A) (A)
                 (A) (A) (A) (A) (A) (A) (A) (A) (A) (A) (A) (A)
                 (A) (A) (A) (A) (A) (A) (A) (A) (A) (A) (A) (A)
                 (A) (A) (A) (A) (A) (A) (A) (A) (A) (A) (A) (A)
                 (A) (A) (A) (A) (A) (A) (A) (A) (A) (A) (A) (A)
                 (A) (A) (A) (A) (A) (A) (A) (A) (A) (A) (A) (A)
                 (A) (A) (A) (A) (A) (A) (A) (A) (A) (A) (A) (A)
                 (A) (A) (A) (A) (A) (A) (A) (A) (A) (A) (A) (A)
                 (A) (A) (A) (A) (A) (A) (A) (A) (A) (A) (A) (A)
                 (A) (A) (A) (A) (A) (A) (A) (A) (A) (A) (A) (A)
                 (A) (A) (A) (A) (A) (A) (A) (A) (A) (A) (A) (A)
                 (A) (A) (A) (A) (A) (A) (A) (A) (A) (A) (A) (A)
                 (A) (A) (A) (A) (A) (A) (A) (A) (A) (A) (A) (A)
                 (A) (A) (A) (A) (A) (A) (A) (A) (A) (A) (A) (A)
                 (A) (A) (A) (A) (A) (A) (A) (A) (A) (A) (A) (A)
                 (A) (A) (A) (A) (A) (A) (A) (A) (A) (A) (A) (A)
                 (A) (A) (A) (A) (A) (A) (A) (A) (A) (A) (A)
    12 initial guesses have been made.
 Convergence on wavefunction:    0.000001000000000
 Davidson Disk Diagonalization:  ConvIn= 1.00D-06 SkipCon=T Conv= 1.00D-06.
 Max sub-space:  2000 roots to seek:    12 dimension of matrix:        69822
 Iteration     1 Dimension    12 NMult     0 NNew     12
 CISAX will form    12 AO SS matrices at one time.
 NMat=    12 NSing=    12 JSym2X= 0.
 FoFJK:  IHMeth= 1 ICntrl=       0 DoSepK=F KAlg= 0 I1Cent=           0 FoldK=F
 IRaf= 550000000 NMat=      24 IRICut=       1 DoRegI=T DoRafI=F ISym2E= 0 IDoP0=0 IntGTp=1.
 FoFCou: FMM=F IPFlag=           0 FMFlag=      100000 FMFlg1=           0
         NFxFlg=           0 DoJE=F BraDBF=F KetDBF=F FulRan=T
         wScrn=  0.000000 ICntrl=         0 IOpCl=  0 I1Cent=           0 NGrid=           0
         NMat0=   24 NMatS0=     12 NMatT0=    0 NMatD0=   24 NMtDS0=    0 NMtDT0=    0
 Symmetry not used in FoFCou.
 Excitation Energies [eV] at current iteration:
 Root      1 :     2.874395702638922
 Root      2 :     3.512379199686049
 Root      3 :     3.709592435542292
 Root      4 :     3.802449222307394
 Root      5 :     3.912004580447783
 Root      6 :     3.999692947226685
 Root      7 :     4.214218993804774
 Root      8 :     4.690891044017650
 Root      9 :     4.829622340739280
 Root     10 :     5.054905759151576
 Root     11 :     5.223428653812561
 Root     12 :     5.689874061142184
 Iteration     2 Dimension    18 NMult    12 NNew      6
 CISAX will form     6 AO SS matrices at one time.
 NMat=     6 NSing=     6 JSym2X= 0.
 Root      1 not converged, maximum delta is    0.133904096934355
 Root      2 not converged, maximum delta is    0.135413025873543
 Root      3 not converged, maximum delta is    0.094518659658056
 Excitation Energies [eV] at current iteration:
 Root      1 :     2.665636877637822   Change is   -0.208758825001101
 Root      2 :     3.364989810171713   Change is   -0.147389389514336
 Root      3 :     3.680984744037155   Change is   -0.028607691505136
 Iteration     3 Dimension    24 NMult    18 NNew      6
 CISAX will form     6 AO SS matrices at one time.
 NMat=     6 NSing=     6 JSym2X= 0.
 Root      1 not converged, maximum delta is    0.011377831547985
 Root      2 not converged, maximum delta is    0.013987641729233
 Root      3 not converged, maximum delta is    0.040280830949286
 Excitation Energies [eV] at current iteration:
 Root      1 :     2.650429829818374   Change is   -0.015207047819448
 Root      2 :     3.348244065544477   Change is   -0.016745744627237
 Root      3 :     3.678326671300082   Change is   -0.002658072737073
 Iteration     4 Dimension    30 NMult    24 NNew      6
 CISAX will form     6 AO SS matrices at one time.
 NMat=     6 NSing=     6 JSym2X= 0.
 Root      1 not converged, maximum delta is    0.002757946621432
 Root      2 not converged, maximum delta is    0.009682121557957
 Root      3 not converged, maximum delta is    0.012732926260663
 Excitation Energies [eV] at current iteration:
 Root      1 :     2.647886158241632   Change is   -0.002543671576742
 Root      2 :     3.345174475088261   Change is   -0.003069590456216
 Root      3 :     3.677678441576097   Change is   -0.000648229723985
 Iteration     5 Dimension    36 NMult    30 NNew      6
 CISAX will form     6 AO SS matrices at one time.
 NMat=     6 NSing=     6 JSym2X= 0.
 Root      1 not converged, maximum delta is    0.001578569349450
 Root      2 not converged, maximum delta is    0.001898791713969
 Root      3 not converged, maximum delta is    0.002486390943328
 Excitation Energies [eV] at current iteration:
 Root      1 :     2.647347565076047   Change is   -0.000538593165585
 Root      2 :     3.344651759165612   Change is   -0.000522715922649
 Root      3 :     3.677527733751188   Change is   -0.000150707824909
 Iteration     6 Dimension    42 NMult    36 NNew      6
 CISAX will form     6 AO SS matrices at one time.
 NMat=     6 NSing=     6 JSym2X= 0.
 Root      1 not converged, maximum delta is    0.000463311660133
 Root      2 not converged, maximum delta is    0.000659446618582
 Root      3 not converged, maximum delta is    0.001367358883250
 Excitation Energies [eV] at current iteration:
 Root      1 :     2.647297894840375   Change is   -0.000049670235672
 Root      2 :     3.344553245467456   Change is   -0.000098513698156
 Root      3 :     3.677506323750722   Change is   -0.000021410000466
 Iteration     7 Dimension    48 NMult    42 NNew      6
 CISAX will form     6 AO SS matrices at one time.
 NMat=     6 NSing=     6 JSym2X= 0.
 Root      1 not converged, maximum delta is    0.000104338738141
 Root      2 not converged, maximum delta is    0.000215759315622
 Root      3 not converged, maximum delta is    0.001091490113721
 Excitation Energies [eV] at current iteration:
 Root      1 :     2.647292914116492   Change is   -0.000004980723883
 Root      2 :     3.344540369621756   Change is   -0.000012875845700
 Root      3 :     3.677502370708984   Change is   -0.000003953041738
 Iteration     8 Dimension    54 NMult    48 NNew      6
 CISAX will form     6 AO SS matrices at one time.
 NMat=     6 NSing=     6 JSym2X= 0.
 Root      1 not converged, maximum delta is    0.000031196068854
 Root      2 not converged, maximum delta is    0.000083338892917
 Root      3 not converged, maximum delta is    0.000249250590492
 Excitation Energies [eV] at current iteration:
 Root      1 :     2.647292550052617   Change is   -0.000000364063876
 Root      2 :     3.344538890149972   Change is   -0.000001479471783
 Root      3 :     3.677501776509819   Change is   -0.000000594199166
 Iteration     9 Dimension    60 NMult    54 NNew      6
 CISAX will form     6 AO SS matrices at one time.
 NMat=     6 NSing=     6 JSym2X= 0.
 Root      1 not converged, maximum delta is    0.000006654760929
 Root      2 not converged, maximum delta is    0.000022858459966
 Root      3 not converged, maximum delta is    0.000043594292340
 Excitation Energies [eV] at current iteration:
 Root      1 :     2.647292511508043   Change is   -0.000000038544574
 Root      2 :     3.344538751492955   Change is   -0.000000138657017
 Root      3 :     3.677501690538748   Change is   -0.000000085971070
 Iteration    10 Dimension    66 NMult    60 NNew      6
 CISAX will form     6 AO SS matrices at one time.
 NMat=     6 NSing=     6 JSym2X= 0.
 Root      1 not converged, maximum delta is    0.000002195015116
 Root      2 not converged, maximum delta is    0.000007305226654
 Root      3 not converged, maximum delta is    0.000027639580437
 Excitation Energies [eV] at current iteration:
 Root      1 :     2.647292508148869   Change is   -0.000000003359174
 Root      2 :     3.344538738262086   Change is   -0.000000013230869
 Root      3 :     3.677501681133765   Change is   -0.000000009404983
 Iteration    11 Dimension    72 NMult    66 NNew      6
 CISAX will form     6 AO SS matrices at one time.
 NMat=     6 NSing=     6 JSym2X= 0.
 Root      1 has converged.
 Root      2 not converged, maximum delta is    0.000002359045199
 Root      3 not converged, maximum delta is    0.000008750456770
 Excitation Energies [eV] at current iteration:
 Root      1 :     2.647292507763278   Change is   -0.000000000385590
 Root      2 :     3.344538736872526   Change is   -0.000000001389560
 Root      3 :     3.677501680115153   Change is   -0.000000001018612
 Iteration    12 Dimension    76 NMult    72 NNew      4
 CISAX will form     4 AO SS matrices at one time.
 NMat=     4 NSing=     4 JSym2X= 0.
 Root      1 has converged.
 Root      2 has converged.
 Root      3 not converged, maximum delta is    0.000001415217689
 Excitation Energies [eV] at current iteration:
 Root      1 :     2.647292507760794   Change is   -0.000000000002484
 Root      2 :     3.344538736743729   Change is   -0.000000000128797
 Root      3 :     3.677501680013038   Change is   -0.000000000102114
 Iteration    13 Dimension    78 NMult    76 NNew      2
 CISAX will form     2 AO SS matrices at one time.
 NMat=     2 NSing=     2 JSym2X= 0.
 Root      1 has converged.
 Root      2 has converged.
 Root      3 has converged.
 Excitation Energies [eV] at current iteration:
 Root      1 :     2.647292507760639   Change is   -0.000000000000155
 Root      2 :     3.344538736739354   Change is   -0.000000000004375
 Root      3 :     3.677501679998955   Change is   -0.000000000014083
 Convergence achieved on expansion vectors.
 ***********************************************************************
 Excited states from <AA,BB:AA,BB> singles matrix:
 ***********************************************************************
 
 1PDM for each excited state written to RWF  633
 Ground to excited state transition densities written to RWF  633
 Ground to excited state transition electric dipole moments (Au):
       state          X           Y           Z        Dip. S.      Osc.
         1        -2.4248      0.0719      0.0295      5.8857      0.3817
         2         0.4449     -0.2406     -0.0312      0.2568      0.0210
         3        -0.0693      0.0368      0.0044      0.0062      0.0006
 Ground to excited state transition velocity dipole moments (Au):
       state          X           Y           Z        Dip. S.      Osc.
         1         0.2357     -0.0065     -0.0028      0.0556      0.3810
         2        -0.0560      0.0328      0.0043      0.0042      0.0229
         3         0.0109     -0.0065     -0.0004      0.0002      0.0008
 Ground to excited state transition magnetic dipole moments (Au):
       state          X           Y           Z
         1        -0.0205     -0.2337     -0.0249
         2        -0.0011      0.0716     -0.1365
         3        -0.0197     -0.1040     -0.1687
 Ground to excited state transition velocity quadrupole moments (Au):
       state          XX          YY          ZZ          XY          XZ          YZ
         1        -0.0660      0.0084      0.0047     -0.1199     -0.0581      0.0417
         2        -1.9402      0.1655      0.0108      0.1781      0.0398      0.0704
         3         0.0459      0.0105     -0.0064     -0.0910      0.0081     -0.0003
 <0|del|b> * <b|rxdel|0> + <0|del|b> * <b|delr+rdel|0>
 Rotatory Strengths (R) in cgs (10**-40 erg-esu-cm/Gauss)
       state          XX          YY          ZZ    R(velocity)    E-M Angle
         1         5.6193     17.2085    -46.4486     -7.8736       93.35
         2         3.5218    -15.0669     22.0351      3.4967       79.52
         3         2.1948     -0.4821      1.0728      0.9285       77.84
 1/2[<0|r|b>*<b|rxdel|0> + (<0|rxdel|b>*<b|r|0>)*]
 Rotatory Strengths (R) in cgs (10**-40 erg-esu-cm/Gauss)
       state          XX          YY          ZZ     R(length)
         1       -35.1595     11.8857      0.5188     -7.5850
         2         0.3510     12.1879     -3.0073      3.1772
         3        -0.9662      2.7016      0.5282      0.7545
  1/2[<0|del|b>*<b|r|0> + (<0|r|b>*<b|del|0>)*] (Au)
       state          X           Y           Z        Dip. S.   Osc.(frdel)
         1        -0.5715     -0.0005     -0.0001      0.5721      0.3814
         2        -0.0249     -0.0079     -0.0001      0.0329      0.0220
         3        -0.0008     -0.0002     -0.0000      0.0010      0.0007

 Excitation energies and oscillator strengths:
 
 Excited State   1:      Singlet-A      2.6473 eV  468.34 nm  f=0.3817  <S**2>=0.000
     118 ->119         0.70256
 This state for optimization and/or second-order correction.
 Total Energy, E(TD-HF/TD-DFT) =  -1682.50748478    
 Copying the excited state density for this state as the 1-particle RhoCI density.
 
 Excited State   2:      Singlet-A      3.3445 eV  370.71 nm  f=0.0210  <S**2>=0.000
     117 ->119         0.69716
 
 Excited State   3:      Singlet-A      3.6775 eV  337.14 nm  f=0.0006  <S**2>=0.000
     113 ->119         0.18500
     116 ->119         0.66781
 SavETr:  write IOETrn=   770 NScale= 10 NData=  16 NLR=1 NState=    3 LETran=      64.
 The selected state is a singlet.
 CISGrd: IGrad=2 NXY=2 DFT=T
 CISAX will form     1 AO SS matrices at one time.
 NMat=     1 NSing=     1 JSym2X= 0.
 Leave Link  914 at Thu Mar 14 09:22:32 2024, MaxMem= 32212254720 cpu:            4111.8 elap:             137.1
 (Enter /home/<user>/g16/l1002.exe)
 Minotr:  Closed shell wavefunction.
          Computing CIS/TDA/TD derivatives.
          Using Z-Vector for PSCF gradient.
          Skipping F1 and S1 gradient terms here.
          IDoAtm=11111111111111111111111111111111111111111111111111
          IDoAtm=11111111
          Frozen-core window.
          Direct CPHF calculation.
          Differentiating once with respect to electric field.
                with respect to dipole field.
          Differentiating once with respect to nuclear coordinates.
          Requested convergence is 1.0D-10 RMS, and 1.0D-09 maximum.
          NewPWx=F KeepS1=T KeepF1=T KeepIn=T MapXYZ=F SortEE=F KeepMc=T.
 Two-electron integral symmetry used by symmetrizing perturbed Fock matrices.
          MDV=   32212254720 using IRadAn=       5.
          Solving linear equations separately, MaxMat=     360.
          There are     1 degrees of freedom in the 1st order CPHF.  IDoFFX=0 NUNeed=     1.
 FoFJK:  IHMeth= 1 ICntrl=       0 DoSepK=F KAlg= 0 I1Cent=           0 FoldK=F
 IRaf= 580000000 NMat=       1 IRICut=       1 DoRegI=T DoRafI=F ISym2E=-1 IDoP0=0 IntGTp=1.
 FoFCou: FMM=F IPFlag=           0 FMFlag=      100000 FMFlg1=           0
         NFxFlg=           0 DoJE=F BraDBF=F KetDBF=F FulRan=T
         wScrn=  0.000000 ICntrl=         0 IOpCl=  0 I1Cent=           0 NGrid=           0
         NMat0=    1 NMatS0=      1 NMatT0=    0 NMatD0=    1 NMtDS0=    0 NMtDT0=    0
 Petite list used in FoFCou.
 LinEq1:  Iter=  0 NonCon=     1 RMS=5.64D-03 Max=6.09D-01 NDo=     1
 AX will form     1 AO Fock derivatives at one time.
 LinEq1:  Iter=  1 NonCon=     1 RMS=3.48D-03 Max=4.24D-01 NDo=     1
 LinEq1:  Iter=  2 NonCon=     1 RMS=2.70D-03 Max=3.21D-01 NDo=     1
 LinEq1:  Iter=  3 NonCon=     1 RMS=2.11D-03 Max=1.66D-01 NDo=     1
 LinEq1:  Iter=  4 NonCon=     1 RMS=2.00D-03 Max=1.42D-01 NDo=     1
 LinEq1:  Iter=  5 NonCon=     1 RMS=1.28D-03 Max=4.80D-02 NDo=     1
 LinEq1:  Iter=  6 NonCon=     1 RMS=7.64D-04 Max=3.34D-02 NDo=     1
 LinEq1:  Iter=  7 NonCon=     1 RMS=5.23D-04 Max=2.38D-02 NDo=     1
 LinEq1:  Iter=  8 NonCon=     1 RMS=3.37D-04 Max=1.76D-02 NDo=     1
 LinEq1:  Iter=  9 NonCon=     1 RMS=2.42D-04 Max=1.37D-02 NDo=     1
 LinEq1:  Iter= 10 NonCon=     1 RMS=1.60D-04 Max=8.48D-03 NDo=     1
 LinEq1:  Iter= 11 NonCon=     1 RMS=9.85D-05 Max=3.75D-03 NDo=     1
 LinEq1:  Iter= 12 NonCon=     1 RMS=6.31D-05 Max=3.39D-03 NDo=     1
 LinEq1:  Iter= 13 NonCon=     1 RMS=4.06D-05 Max=2.55D-03 NDo=     1
 LinEq1:  Iter= 14 NonCon=     1 RMS=2.70D-05 Max=8.73D-04 NDo=     1
 LinEq1:  Iter= 15 NonCon=     1 RMS=2.12D-05 Max=1.28D-03 NDo=     1
 LinEq1:  Iter= 16 NonCon=     1 RMS=1.00D-05 Max=4.24D-04 NDo=     1
 LinEq1:  Iter= 17 NonCon=     1 RMS=6.19D-06 Max=3.70D-04 NDo=     1
 LinEq1:  Iter= 18 NonCon=     1 RMS=3.63D-06 Max=1.94D-04 NDo=     1
 LinEq1:  Iter= 19 NonCon=     1 RMS=1.85D-06 Max=7.92D-05 NDo=     1
 LinEq1:  Iter= 20 NonCon=     1 RMS=8.63D-07 Max=2.71D-05 NDo=     1
 LinEq1:  Iter= 21 NonCon=     1 RMS=5.22D-07 Max=2.52D-05 NDo=     1
 LinEq1:  Iter= 22 NonCon=     1 RMS=2.95D-07 Max=1.07D-05 NDo=     1
 LinEq1:  Iter= 23 NonCon=     1 RMS=2.09D-07 Max=8.00D-06 NDo=     1
 LinEq1:  Iter= 24 NonCon=     1 RMS=9.46D-08 Max=4.16D-06 NDo=     1
 LinEq1:  Iter= 25 NonCon=     1 RMS=6.41D-08 Max=3.27D-06 NDo=     1
 LinEq1:  Iter= 26 NonCon=     1 RMS=3.43D-08 Max=1.59D-06 NDo=     1
 LinEq1:  Iter= 27 NonCon=     1 RMS=1.84D-08 Max=9.70D-07 NDo=     1
 LinEq1:  Iter= 28 NonCon=     1 RMS=9.93D-09 Max=4.13D-07 NDo=     1
 LinEq1:  Iter= 29 NonCon=     1 RMS=4.23D-09 Max=2.00D-07 NDo=     1
 LinEq1:  Iter= 30 NonCon=     1 RMS=2.04D-09 Max=9.01D-08 NDo=     1
 LinEq1:  Iter= 31 NonCon=     1 RMS=1.11D-09 Max=6.92D-08 NDo=     1
 LinEq1:  Iter= 32 NonCon=     1 RMS=7.18D-10 Max=3.46D-08 NDo=     1
 LinEq1:  Iter= 33 NonCon=     1 RMS=3.89D-10 Max=1.50D-08 NDo=     1
 LinEq1:  Iter= 34 NonCon=     1 RMS=1.75D-10 Max=7.03D-09 NDo=     1
 LinEq1:  Iter= 35 NonCon=     1 RMS=1.00D-10 Max=5.05D-09 NDo=     1
 LinEq1:  Iter= 36 NonCon=     1 RMS=4.61D-11 Max=2.83D-09 NDo=     1
 LinEq1:  Iter= 37 NonCon=     1 RMS=2.43D-11 Max=1.16D-09 NDo=     1
 LinEq1:  Iter= 38 NonCon=     0 RMS=1.43D-11 Max=8.24D-10 NDo=     1
 Linear equations converged to 1.000D-10 1.000D-09 after    38 iterations.
 End of Minotr F.D. properties file   721 does not exist.
 End of Minotr F.D. properties file   722 does not exist.
 End of Minotr F.D. properties file   788 does not exist.
 Leave Link 1002 at Thu Mar 14 09:24:05 2024, MaxMem= 32212254720 cpu:            2736.6 elap:              92.2
 (Enter /home/<user>/g16/l601.exe)
 Copying SCF densities to generalized density rwf, IOpCl= 0 IROHF=0.

 **********************************************************************

            Population analysis using the SCF Density.

 **********************************************************************

 Orbital symmetries:
       Occupied  (A) (A) (A) (A) (A) (A) (A) (A) (A) (A) (A) (A)
                 (A) (A) (A) (A) (A) (A) (A) (A) (A) (A) (A) (A)
                 (A) (A) (A) (A) (A) (A) (A) (A) (A) (A) (A) (A)
                 (A) (A) (A) (A) (A) (A) (A) (A) (A) (A) (A) (A)
                 (A) (A) (A) (A) (A) (A) (A) (A) (A) (A) (A) (A)
                 (A) (A) (A) (A) (A) (A) (A) (A) (A) (A) (A) (A)
                 (A) (A) (A) (A) (A) (A) (A) (A) (A) (A) (A) (A)
                 (A) (A) (A) (A) (A) (A) (A) (A) (A) (A) (A) (A)
                 (A) (A) (A) (A) (A) (A) (A) (A) (A) (A) (A) (A)
                 (A) (A) (A) (A) (A) (A) (A) (A) (A) (A)
       Virtual   (A) (A) (A) (A) (A) (A) (A) (A) (A) (A) (A) (A)
                 (A) (A) (A) (A) (A) (A) (A) (A) (A) (A) (A) (A)
                 (A) (A) (A) (A) (A) (A) (A) (A) (A) (A) (A) (A)
                 (A) (A) (A) (A) (A) (A) (A) (A) (A) (A) (A) (A)
                 (A) (A) (A) (A) (A) (A) (A) (A) (A) (A) (A) (A)
                 (A) (A) (A) (A) (A) (A) (A) (A) (A) (A) (A) (A)
                 (A) (A) (A) (A) (A) (A) (A) (A) (A) (A) (A) (A)
                 (A) (A) (A) (A) (A) (A) (A) (A) (A) (A) (A) (A)
                 (A) (A) (A) (A) (A) (A) (A) (A) (A) (A) (A) (A)
                 (A) (A) (A) (A) (A) (A) (A) (A) (A) (A) (A) (A)
                 (A) (A) (A) (A) (A) (A) (A) (A) (A) (A) (A) (A)
                 (A) (A) (A) (A) (A) (A) (A) (A) (A) (A) (A) (A)
                 (A) (A) (A) (A) (A) (A) (A) (A) (A) (A) (A) (A)
                 (A) (A) (A) (A) (A) (A) (A) (A) (A) (A) (A) (A)
                 (A) (A) (A) (A) (A) (A) (A) (A) (A) (A) (A) (A)
                 (A) (A) (A) (A) (A) (A) (A) (A) (A) (A) (A) (A)
                 (A) (A) (A) (A) (A) (A) (A) (A) (A) (A) (A) (A)
                 (A) (A) (A) (A) (A) (A) (A) (A) (A) (A) (A) (A)
                 (A) (A) (A) (A) (A) (A) (A) (A) (A) (A) (A) (A)
                 (A) (A) (A) (A) (A) (A) (A) (A) (A) (A) (A) (A)
                 (A) (A) (A) (A) (A) (A) (A) (A) (A) (A) (A) (A)
                 (A) (A) (A) (A) (A) (A) (A) (A) (A) (A) (A) (A)
                 (A) (A) (A) (A) (A) (A) (A) (A) (A) (A) (A) (A)
                 (A) (A) (A) (A) (A) (A) (A) (A) (A) (A) (A) (A)
                 (A) (A) (A) (A) (A) (A) (A) (A) (A) (A) (A) (A)
                 (A) (A) (A) (A) (A) (A) (A) (A) (A) (A) (A) (A)
                 (A) (A) (A) (A) (A) (A) (A) (A) (A) (A) (A) (A)
                 (A) (A) (A) (A) (A) (A) (A) (A) (A) (A) (A) (A)
                 (A) (A) (A) (A) (A) (A) (A) (A) (A) (A) (A) (A)
                 (A) (A) (A) (A) (A) (A) (A) (A) (A) (A) (A) (A)
                 (A) (A) (A) (A) (A) (A) (A) (A) (A) (A) (A) (A)
                 (A) (A) (A) (A) (A) (A) (A) (A) (A) (A) (A) (A)
                 (A) (A) (A) (A) (A) (A) (A) (A) (A) (A) (A) (A)
                 (A) (A) (A) (A) (A) (A) (A) (A) (A) (A) (A) (A)
                 (A) (A) (A) (A) (A) (A) (A) (A) (A) (A) (A) (A)
                 (A) (A) (A) (A) (A) (A) (A) (A) (A) (A) (A)
 The electronic state is 1-A.
 Alpha  occ. eigenvalues --  -88.96749 -14.36700 -14.36696 -14.31178 -10.24300
 Alpha  occ. eigenvalues --  -10.24264 -10.21320 -10.21291 -10.20772 -10.20762
 Alpha  occ. eigenvalues --  -10.20293 -10.20247 -10.20172 -10.19959 -10.19433
 Alpha  occ. eigenvalues --  -10.19165 -10.19089 -10.19024 -10.18953 -10.18930
 Alpha  occ. eigenvalues --  -10.18917 -10.18877 -10.18848 -10.18840 -10.18830
 Alpha  occ. eigenvalues --  -10.18818 -10.18666 -10.18633 -10.18609 -10.18514
 Alpha  occ. eigenvalues --  -10.18391 -10.18116 -10.18033  -8.02334  -5.98878
 Alpha  occ. eigenvalues --   -5.98294  -5.98059  -1.01532  -0.89188  -0.88713
 Alpha  occ. eigenvalues --   -0.87926  -0.86901  -0.85171  -0.83912  -0.81261
 Alpha  occ. eigenvalues --   -0.79275  -0.77453  -0.75981  -0.75065  -0.74134
 Alpha  occ. eigenvalues --   -0.73959  -0.73014  -0.71587  -0.69308  -0.68758
 Alpha  occ. eigenvalues --   -0.65099  -0.64214  -0.62599  -0.61949  -0.61494
 Alpha  occ. eigenvalues --   -0.59858  -0.58932  -0.57974  -0.57456  -0.56484
 Alpha  occ. eigenvalues --   -0.54985  -0.51362  -0.50898  -0.50489  -0.49516
 Alpha  occ. eigenvalues --   -0.48818  -0.48333  -0.47145  -0.46760  -0.45594
 Alpha  occ. eigenvalues --   -0.45294  -0.44854  -0.44610  -0.44199  -0.43557
 Alpha  occ. eigenvalues --   -0.43536  -0.43024  -0.42777  -0.41849  -0.41637
 Alpha  occ. eigenvalues --   -0.41374  -0.40827  -0.39259  -0.39021  -0.38479
 Alpha  occ. eigenvalues --   -0.38365  -0.38019  -0.37893  -0.37782  -0.37224
 Alpha  occ. eigenvalues --   -0.36080  -0.35468  -0.35225  -0.34999  -0.34374
 Alpha  occ. eigenvalues --   -0.34331  -0.34119  -0.33827  -0.33186  -0.32650
 Alpha  occ. eigenvalues --   -0.32018  -0.31817  -0.30984  -0.29646  -0.28319
 Alpha  occ. eigenvalues --   -0.26286  -0.25744  -0.24788  -0.24666  -0.24283
 Alpha  occ. eigenvalues --   -0.23394  -0.22558  -0.19946
 Alpha virt. eigenvalues --   -0.08617  -0.03734  -0.01442  -0.00756   0.00084
 Alpha virt. eigenvalues --    0.00930   0.01031   0.01372   0.02618   0.05713
 Alpha virt. eigenvalues --    0.07518   0.08221   0.08273   0.10003   0.10126
 Alpha virt. eigenvalues --    0.11049   0.11428   0.12492   0.12956   0.13184
 Alpha virt. eigenvalues --    0.13622   0.13713   0.14371   0.15323   0.15691
 Alpha virt. eigenvalues --    0.16141   0.16434   0.16724   0.17019   0.17591
 Alpha virt. eigenvalues --    0.17968   0.18114   0.18541   0.19063   0.19257
 Alpha virt. eigenvalues --    0.19488   0.20274   0.20687   0.21347   0.21514
 Alpha virt. eigenvalues --    0.22590   0.23000   0.23683   0.24155   0.24642
 Alpha virt. eigenvalues --    0.25485   0.25833   0.26529   0.26656   0.27219
 Alpha virt. eigenvalues --    0.27460   0.27767   0.27898   0.28202   0.29451
 Alpha virt. eigenvalues --    0.30548   0.31158   0.32648   0.32768   0.33524
 Alpha virt. eigenvalues --    0.34171   0.34648   0.35155   0.36091   0.36796
 Alpha virt. eigenvalues --    0.37498   0.39154   0.39690   0.41065   0.42447
 Alpha virt. eigenvalues --    0.43437   0.44962   0.46892   0.48850   0.49462
 Alpha virt. eigenvalues --    0.49642   0.49765   0.50601   0.50981   0.51258
 Alpha virt. eigenvalues --    0.51603   0.51892   0.52782   0.53214   0.53269
 Alpha virt. eigenvalues --    0.53791   0.53954   0.54617   0.55076   0.55422
 Alpha virt. eigenvalues --    0.55575   0.55878   0.56117   0.57116   0.57145
 Alpha virt. eigenvalues --    0.57475   0.57734   0.58323   0.58398   0.59103
 Alpha virt. eigenvalues --    0.59467   0.59525   0.59694   0.59988   0.60538
 Alpha virt. eigenvalues --    0.60831   0.61151   0.61451   0.61923   0.62196
 Alpha virt. eigenvalues --    0.62591   0.63141   0.63435   0.63966   0.64427
 Alpha virt. eigenvalues --    0.64813   0.65314   0.65650   0.65747   0.66504
 Alpha virt. eigenvalues --    0.67029   0.67568   0.67669   0.67985   0.69008
 Alpha virt. eigenvalues --    0.69405   0.69872   0.71481   0.72032   0.73058
 Alpha virt. eigenvalues --    0.74441   0.75318   0.75519   0.75979   0.76833
 Alpha virt. eigenvalues --    0.77027   0.78077   0.78562   0.79017   0.79427
 Alpha virt. eigenvalues --    0.79538   0.80389   0.81032   0.81372   0.81892
 Alpha virt. eigenvalues --    0.82618   0.82701   0.83142   0.83585   0.83974
 Alpha virt. eigenvalues --    0.84412   0.84657   0.85356   0.85924   0.86557
 Alpha virt. eigenvalues --    0.87094   0.87314   0.88200   0.88781   0.89125
 Alpha virt. eigenvalues --    0.89385   0.90267   0.90908   0.90956   0.91205
 Alpha virt. eigenvalues --    0.91632   0.91945   0.92323   0.92967   0.93960
 Alpha virt. eigenvalues --    0.94435   0.95351   0.95905   0.96524   0.96858
 Alpha virt. eigenvalues --    0.97009   0.97656   0.97924   0.98611   0.99059
 Alpha virt. eigenvalues --    0.99270   0.99477   0.99958   1.00575   1.01531
 Alpha virt. eigenvalues --    1.01837   1.02459   1.03250   1.03891   1.04344
 Alpha virt. eigenvalues --    1.05400   1.06430   1.07142   1.07832   1.08911
 Alpha virt. eigenvalues --    1.09642   1.10365   1.11680   1.12225   1.12388
 Alpha virt. eigenvalues --    1.13420   1.13995   1.14895   1.15787   1.16632
 Alpha virt. eigenvalues --    1.17745   1.18788   1.20036   1.21007   1.22518
 Alpha virt. eigenvalues --    1.22705   1.23904   1.24219   1.25407   1.26785
 Alpha virt. eigenvalues --    1.29464   1.30235   1.30928   1.32663   1.33867
 Alpha virt. eigenvalues --    1.34208   1.35411   1.35584   1.36346   1.38181
 Alpha virt. eigenvalues --    1.40398   1.40630   1.41492   1.42087   1.42128
 Alpha virt. eigenvalues --    1.43359   1.45244   1.45452   1.45821   1.46268
 Alpha virt. eigenvalues --    1.46913   1.47741   1.48231   1.48580   1.48942
 Alpha virt. eigenvalues --    1.50071   1.50220   1.50889   1.52120   1.52933
 Alpha virt. eigenvalues --    1.54522   1.55956   1.57767   1.58745   1.60416
 Alpha virt. eigenvalues --    1.61174   1.64851   1.65476   1.66991   1.68329
 Alpha virt. eigenvalues --    1.70800   1.71172   1.71542   1.72682   1.73497
 Alpha virt. eigenvalues --    1.74988   1.76143   1.76663   1.77154   1.78295
 Alpha virt. eigenvalues --    1.79223   1.79878   1.80571   1.81311   1.81603
 Alpha virt. eigenvalues --    1.81899   1.82521   1.83574   1.84277   1.85058
 Alpha virt. eigenvalues --    1.86086   1.87438   1.88023   1.89053   1.90722
 Alpha virt. eigenvalues --    1.90862   1.91282   1.91648   1.92591   1.93057
 Alpha virt. eigenvalues --    1.93516   1.93957   1.95370   1.95975   1.96387
 Alpha virt. eigenvalues --    1.97971   1.98657   2.00691   2.00922   2.01443
 Alpha virt. eigenvalues --    2.02698   2.03363   2.04291   2.04496   2.04834
 Alpha virt. eigenvalues --    2.06155   2.06652   2.07927   2.08784   2.10031
 Alpha virt. eigenvalues --    2.11873   2.12612   2.12972   2.13682   2.14392
 Alpha virt. eigenvalues --    2.15426   2.16693   2.18298   2.19280   2.19589
 Alpha virt. eigenvalues --    2.19697   2.22192   2.22984   2.23602   2.24179
 Alpha virt. eigenvalues --    2.24420   2.25019   2.25571   2.26365   2.26574
 Alpha virt. eigenvalues --    2.26966   2.27512   2.27679   2.29195   2.30205
 Alpha virt. eigenvalues --    2.30539   2.31181   2.31927   2.32595   2.32993
 Alpha virt. eigenvalues --    2.33381   2.34681   2.35538   2.37351   2.37801
 Alpha virt. eigenvalues --    2.38688   2.40253   2.42830   2.43131   2.43186
 Alpha virt. eigenvalues --    2.43769   2.44976   2.46219   2.47218   2.50038
 Alpha virt. eigenvalues --    2.50683   2.53383   2.54142   2.55962   2.57987
 Alpha virt. eigenvalues --    2.58543   2.59612   2.60721   2.61564   2.62291
 Alpha virt. eigenvalues --    2.63601   2.64924   2.65975   2.66131   2.67873
 Alpha virt. eigenvalues --    2.68079   2.69914   2.70431   2.72299   2.74043
 Alpha virt. eigenvalues --    2.74823   2.74989   2.75452   2.75552   2.76593
 Alpha virt. eigenvalues --    2.78408   2.80322   2.81115   2.83761   2.83909
 Alpha virt. eigenvalues --    2.86639   2.88223   2.91706   2.92649   2.94978
 Alpha virt. eigenvalues --    2.95510   2.98014   2.99738   3.01921   3.06108
 Alpha virt. eigenvalues --    3.08546   3.15282   3.27157   3.31744   3.32320
 Alpha virt. eigenvalues --    3.38058   3.45663   3.52102   3.78481   3.86494
 Alpha virt. eigenvalues --    3.99944   4.02281   4.08013   4.08614   4.09836
 Alpha virt. eigenvalues --    4.10734   4.11794   4.12232   4.15062   4.15584
 Alpha virt. eigenvalues --    4.16230   4.18137   4.19189   4.21655   4.23607
 Alpha virt. eigenvalues --    4.24726   4.29074   4.31384   4.34076   4.35324
 Alpha virt. eigenvalues --    4.36627   4.38925   4.42735   4.44163   4.48952
 Alpha virt. eigenvalues --    4.52090   4.61302   4.70498   4.79482   4.81758
 Alpha virt. eigenvalues --    4.85982
          Condensed to atoms (all electrons):
 Mulliken charges:
               1
     1  C   -0.165785
     2  C    0.107362
     3  C   -0.257087
     4  C    0.101126
     5  C    0.086381
     6  C   -0.202415
     7  H    0.149783
     8  H    0.127000
     9  H    0.131301
    10  C   -0.062377
    11  C    0.102344
    12  C   -0.202853
    13  C   -0.131251
    14  C   -0.136483
    15  C   -0.191350
    16  C    0.079659
    17  H    0.124476
    18  H    0.127512
    19  H    0.128423
    20  H    0.130142
    21  C   -0.436903
    22  H    0.144107
    23  H    0.144502
    24  H    0.159426
    25  C   -0.437229
    26  H    0.142055
    27  H    0.144749
    28  H    0.157698
    29  C    0.112126
    30  C    0.185805
    31  C   -0.213702
    32  C    0.186378
    33  C   -0.215924
    34  H    0.140635
    35  C    0.115440
    36  H    0.141706
    37  N   -0.571016
    38  N   -0.571176
    39  S    0.565779
    40  C    0.096053
    41  C   -0.149720
    42  C   -0.170873
    43  C   -0.191521
    44  H    0.149620
    45  C   -0.190327
    46  H    0.129806
    47  C    0.176038
    48  H    0.122710
    49  H    0.127117
    50  C   -0.342373
    51  H    0.157767
    52  H    0.135397
    53  C   -0.130583
    54  H    0.120690
    55  H    0.144927
    56  N   -0.714728
    57  H    0.292179
    58  H    0.297457
 Sum of Mulliken charges =  -0.00000
 Mulliken charges with hydrogens summed into heavy atoms:
               1
     1  C   -0.016002
     2  C    0.107362
     3  C   -0.130087
     4  C    0.101126
     5  C    0.086381
     6  C   -0.071114
    10  C   -0.062377
    11  C    0.102344
    12  C   -0.078378
    13  C   -0.003739
    14  C   -0.008061
    15  C   -0.061208
    16  C    0.079659
    21  C    0.011131
    25  C    0.007272
    29  C    0.112126
    30  C    0.185805
    31  C   -0.073067
    32  C    0.186378
    33  C   -0.074217
    35  C    0.115440
    37  N   -0.571016
    38  N   -0.571176
    39  S    0.565779
    40  C    0.096053
    41  C   -0.000100
    42  C   -0.041067
    43  C   -0.068811
    45  C   -0.063209
    47  C    0.176038
    50  C   -0.049209
    53  C    0.135034
    56  N   -0.125092
 Electronic spatial extent (au):  <R**2>=          27805.1494
 Charge=              0.0000 electrons
 Dipole moment (field-independent basis, Debye):
    X=              0.0245    Y=             -0.5353    Z=              0.0294  Tot=              0.5366
 Quadrupole moment (field-independent basis, Debye-Ang):
   XX=           -174.7426   YY=           -187.5137   ZZ=           -199.7609
   XY=             13.8706   XZ=              3.4017   YZ=             -4.3925
 Traceless Quadrupole moment (field-independent basis, Debye-Ang):
   XX=             12.5965   YY=             -0.1746   ZZ=            -12.4218
   XY=             13.8706   XZ=              3.4017   YZ=             -4.3925
 Octapole moment (field-independent basis, Debye-Ang**2):
  XXX=             72.9274  YYY=             17.9660  ZZZ=             18.8895  XYY=            -37.7558
  XXY=            132.9587  XXZ=             51.0379  XZZ=             43.4501  YZZ=              4.4979
  YYZ=             -0.6039  XYZ=             11.3836
 Hexadecapole moment (field-independent basis, Debye-Ang**3):
 XXXX=         -30848.2433 YYYY=          -3134.9597 ZZZZ=           -751.5064 XXXY=           1636.1625
 XXXZ=            550.5910 YYYX=             60.8931 YYYZ=              0.5812 ZZZX=             83.6655
 ZZZY=              6.4063 XXYY=          -6322.4489 XXZZ=          -5792.3287 YYZZ=           -659.8535
 XXYZ=           -202.7365 YYXZ=             12.7830 ZZXY=             -3.0793
 N-N= 3.077170095845D+03 E-N=-1.007620800287D+04  KE= 1.668919146320D+03
 No NMR shielding tensors so no spin-rotation constants.
 Leave Link  601 at Thu Mar 14 09:24:05 2024, MaxMem= 32212254720 cpu:               6.6 elap:               0.2
 (Enter /home/<user>/g16/l701.exe)
 ... and contract with generalized density number  6.
 Compute integral first derivatives.
 Leave Link  701 at Thu Mar 14 09:24:05 2024, MaxMem= 32212254720 cpu:               6.3 elap:               0.2
 (Enter /home/<user>/g16/l702.exe)
 L702 exits ... SP integral derivatives will be done elsewhere.
 Leave Link  702 at Thu Mar 14 09:24:05 2024, MaxMem= 32212254720 cpu:               0.9 elap:               0.0
 (Enter /home/<user>/g16/l703.exe)
 Integral derivatives from FoFJK, PRISM(SPDF).
 Compute integral first derivatives, UseDBF=F ICtDFT=           0.
 Calling FoFJK, ICntrl=  10005127 FMM=F ISym2X=0 I1Cent= 0 IOpClX= 0 NMat=1 NMatS=1 NMatT=0.
 FoFJK:  IHMeth= 1 ICntrl=10005127 DoSepK=F KAlg= 0 I1Cent=           0 FoldK=F
 IRaf=         0 NMat=       1 IRICut=       1 DoRegI=T DoRafI=F ISym2E= 0 IDoP0=0 IntGTp=1.
 FoFCou: FMM=F IPFlag=           0 FMFlag=      100000 FMFlg1=         800
         NFxFlg=           0 DoJE=F BraDBF=F KetDBF=F FulRan=T
         wScrn=  0.000000 ICntrl=  10005127 IOpCl=  0 I1Cent=           0 NGrid=           0
         NMat0=    1 NMatS0=      1 NMatT0=    0 NMatD0=    1 NMtDS0=    0 NMtDT0=    0
 Symmetry not used in FoFCou.
 Leave Link  703 at Thu Mar 14 09:24:13 2024, MaxMem= 32212254720 cpu:             227.5 elap:               7.6
 (Enter /home/<user>/g16/l716.exe)
 Dipole        =-3.13810208D+00-1.59544685D+00-4.01099471D-01
 ***** Axes restored to original set *****
 -------------------------------------------------------------------
 Center     Atomic                   Forces (Hartrees/Bohr)
 Number     Number              X              Y              Z
 -------------------------------------------------------------------
      1        6          -0.013517813    0.013836109   -0.002277806
      2        6           0.022354249   -0.007036199    0.000186979
      3        6          -0.011502217   -0.008406722    0.000411377
      4        6           0.009026940   -0.009955862    0.003396404
      5        6          -0.017197748    0.001033938    0.000339777
      6        6           0.010777341    0.007664245   -0.002575986
      7        1           0.000903633   -0.001027725    0.001516060
      8        1          -0.000016139    0.000835961   -0.000730272
      9        1           0.000280923   -0.000358174   -0.000143668
     10        6           0.000413340   -0.001529302    0.000642504
     11        6          -0.001228184   -0.007247755    0.002361721
     12        6           0.002784445   -0.001768360    0.000490052
     13        6          -0.000088209   -0.002393208    0.000749004
     14        6           0.003623450    0.005785961   -0.001878496
     15        6          -0.007616757    0.004304014   -0.001376425
     16        6           0.014552020    0.003403192   -0.001385759
     17        1           0.000197438    0.000498224   -0.000148042
     18        1           0.000296476    0.000095628   -0.000019015
     19        1           0.000447077   -0.000205547    0.000078298
     20        1          -0.000140853   -0.000447539    0.000155074
     21        6          -0.000063739    0.000170982    0.000676868
     22        1           0.000121494    0.000066135   -0.000180272
     23        1          -0.000392370    0.000305678   -0.000287991
     24        1           0.000132184   -0.000143275    0.000173644
     25        6          -0.000037719   -0.000220964   -0.000590376
     26        1          -0.000384629    0.000432488    0.000072466
     27        1           0.000126400    0.000161787    0.000093239
     28        1           0.000099734   -0.000214785   -0.000092795
     29        6          -0.006181191    0.026645013    0.009927913
     30        6           0.006216668   -0.004189630   -0.004777571
     31        6           0.026358617   -0.030673549   -0.006019849
     32        6          -0.008402472   -0.002749190   -0.004167461
     33        6          -0.033224893   -0.022957044   -0.006891585
     34        1           0.000803406   -0.001332195   -0.000915173
     35        6           0.011673349    0.022321799    0.008323728
     36        1          -0.001123939   -0.000413667   -0.000813408
     37        7          -0.024957061   -0.004148111   -0.002253846
     38        7           0.020735145   -0.009307984   -0.002125305
     39       16           0.004841288    0.028656154    0.009703676
     40        6          -0.015242463    0.001022508    0.000336903
     41        6           0.006486714    0.005651871   -0.000657809
     42        6           0.004677746   -0.006415881   -0.000783382
     43        6          -0.003266503    0.002741573   -0.000751912
     44        1          -0.000949684   -0.000453887    0.001086851
     45        6          -0.004518191   -0.002300163    0.001710173
     46        1          -0.000022835    0.000181425   -0.000448024
     47        6           0.003402185    0.000008107   -0.000058955
     48        1          -0.000093666   -0.000067189   -0.000118255
     49        1           0.000102666    0.000019285    0.000169622
     50        6          -0.001224040   -0.000106280   -0.001100635
     51        1          -0.000057928   -0.000161197    0.000179270
     52        1          -0.000051385    0.000174756    0.000102715
     53        6           0.000160044    0.000455845    0.001079291
     54        1           0.000049261   -0.000221669   -0.000136264
     55        1           0.000034893    0.000031455   -0.000033958
     56        7          -0.000053315   -0.000082451   -0.000293931
     57        1          -0.000015547    0.000052692    0.000021626
     58        1          -0.000107638   -0.000021325    0.000048993
 -------------------------------------------------------------------
 Cartesian Forces:  Max     0.033224893 RMS     0.007530708
 Leave Link  716 at Thu Mar 14 09:24:13 2024, MaxMem= 32212254720 cpu:               1.7 elap:               0.1
 (Enter /home/<user>/g16/l103.exe)

 GradGradGradGradGradGradGradGradGradGradGradGradGradGradGradGradGradGrad
 Berny optimization.
 FormGI is forming the generalized inverse of G from B-inverse, IUseBI=4.
 GSVD:  received Info=                   1 from GESDD.
 Internal  Forces:  Max     0.026824784 RMS     0.004068102
 Search for a local minimum.
 Step number   1 out of a maximum of  346
 All quantities printed in internal units (Hartrees-Bohrs-Radians)
 RMS Force = .40681D-02 SwitMx=.10000D-02 MixMth= 1
 Mixed Optimization -- RFO/linear search
 Second derivative matrix not updated -- first step.
 ITU=  0
     Eigenvalues ---    0.00230   0.00230   0.00250   0.00611   0.00754
     Eigenvalues ---    0.00810   0.01027   0.01033   0.01253   0.01452
     Eigenvalues ---    0.01467   0.01604   0.01608   0.01639   0.01639
     Eigenvalues ---    0.01655   0.01692   0.01714   0.01732   0.01757
     Eigenvalues ---    0.01884   0.01903   0.02006   0.02027   0.02037
     Eigenvalues ---    0.02068   0.02077   0.02084   0.02088   0.02094
     Eigenvalues ---    0.02112   0.02114   0.02119   0.02120   0.02122
     Eigenvalues ---    0.02134   0.02143   0.02145   0.02146   0.02155
     Eigenvalues ---    0.02160   0.02161   0.02189   0.02292   0.04037
     Eigenvalues ---    0.04268   0.04398   0.04475   0.05426   0.05428
     Eigenvalues ---    0.05431   0.05497   0.05497   0.05554   0.05979
     Eigenvalues ---    0.08012   0.08978   0.09291   0.11605   0.12617
     Eigenvalues ---    0.12832   0.15987   0.15992   0.15993   0.15995
     Eigenvalues ---    0.15999   0.16000   0.16000   0.16000   0.16000
     Eigenvalues ---    0.16000   0.16000   0.16000   0.16000   0.16000
     Eigenvalues ---    0.16000   0.16000   0.16000   0.16000   0.16000
     Eigenvalues ---    0.16000   0.16000   0.18962   0.21874   0.21950
     Eigenvalues ---    0.22000   0.22000   0.22451   0.22465   0.22615
     Eigenvalues ---    0.22951   0.23523   0.23992   0.24472   0.24529
     Eigenvalues ---    0.24663   0.24980   0.24981   0.24988   0.24990
     Eigenvalues ---    0.24997   0.24998   0.24999   0.24999   0.24999
     Eigenvalues ---    0.28050   0.28067   0.28484   0.28609   0.29012
     Eigenvalues ---    0.31179   0.33128   0.33785   0.34027   0.34037
     Eigenvalues ---    0.34090   0.34100   0.34104   0.34105   0.34131
     Eigenvalues ---    0.34276   0.34289   0.34542   0.34594   0.34766
     Eigenvalues ---    0.35033   0.35049   0.35084   0.35151   0.35154
     Eigenvalues ---    0.35158   0.35186   0.35189   0.35222   0.35283
     Eigenvalues ---    0.35287   0.35571   0.35607   0.36142   0.37940
     Eigenvalues ---    0.38123   0.38999   0.40437   0.41409   0.41434
     Eigenvalues ---    0.41611   0.41653   0.42109   0.42369   0.42658
     Eigenvalues ---    0.43586   0.44364   0.44523   0.44545   0.44935
     Eigenvalues ---    0.44950   0.45054   0.45798   0.45947   0.46077
     Eigenvalues ---    0.46106   0.46907   0.46962   0.47199   0.47533
     Eigenvalues ---    0.48084   0.54483   0.56913
 RFO step:  Lambda=-1.62035004D-02 EMin= 2.30000000D-03
 Linear search not attempted -- first point.
 Iteration  1 RMS(Cart)=  0.08918846 RMS(Int)=  0.00171258
 Iteration  2 RMS(Cart)=  0.00358960 RMS(Int)=  0.00006406
 Iteration  3 RMS(Cart)=  0.00000845 RMS(Int)=  0.00006398
 Iteration  4 RMS(Cart)=  0.00000000 RMS(Int)=  0.00006398
 ITry= 1 IFail=0 DXMaxC= 6.12D-01 DCOld= 1.00D+10 DXMaxT= 3.00D-01 DXLimC= 3.00D+00 Rises=F
 Variable       Old X    -DE/DX   Delta X   Delta X   Delta X     New X
                                 (Linear)    (Quad)   (Total)
    R1        2.66308   0.01242   0.00000   0.02701   0.02702   2.69009
    R2        2.63278  -0.00850   0.00000  -0.01768  -0.01768   2.61510
    R3        2.04700  -0.00070   0.00000  -0.00187  -0.00187   2.04513
    R4        2.66707   0.00832   0.00000   0.01832   0.01833   2.68539
    R5        2.79640  -0.01411   0.00000  -0.03895  -0.03895   2.75745
    R6        2.61958  -0.00724   0.00000  -0.01448  -0.01448   2.60511
    R7        2.05426  -0.00093   0.00000  -0.00252  -0.00252   2.05174
    R8        2.66224   0.01110   0.00000   0.02427   0.02426   2.68650
    R9        2.88960  -0.00131   0.00000  -0.00273  -0.00273   2.88687
   R10        2.63825   0.00846   0.00000   0.01766   0.01766   2.65591
   R11        2.77135  -0.01091   0.00000  -0.03016  -0.03016   2.74119
   R12        2.05419  -0.00039   0.00000  -0.00106  -0.00106   2.05312
   R13        2.88920  -0.00116   0.00000  -0.00278  -0.00277   2.88642
   R14        2.92030   0.00023   0.00000   0.00079   0.00079   2.92108
   R15        2.91993   0.00017   0.00000   0.00058   0.00058   2.92051
   R16        2.62728  -0.00294   0.00000  -0.00588  -0.00588   2.62139
   R17        2.66418   0.00742   0.00000   0.01614   0.01614   2.68032
   R18        2.64586   0.00186   0.00000   0.00360   0.00361   2.64946
   R19        2.05539  -0.00055   0.00000  -0.00149  -0.00149   2.05390
   R20        2.64370   0.00473   0.00000   0.00953   0.00953   2.65323
   R21        2.05370  -0.00031   0.00000  -0.00085  -0.00085   2.05285
   R22        2.63884  -0.00462   0.00000  -0.00978  -0.00978   2.62906
   R23        2.05373  -0.00048   0.00000  -0.00131  -0.00131   2.05242
   R24        2.63947   0.00569   0.00000   0.01225   0.01224   2.65171
   R25        2.05430  -0.00049   0.00000  -0.00134  -0.00134   2.05297
   R26        2.07156  -0.00017   0.00000  -0.00049  -0.00049   2.07107
   R27        2.07162  -0.00053   0.00000  -0.00148  -0.00148   2.07014
   R28        2.06846  -0.00001   0.00000  -0.00004  -0.00004   2.06842
   R29        2.07178  -0.00053   0.00000  -0.00148  -0.00148   2.07030
   R30        2.07153  -0.00018   0.00000  -0.00050  -0.00050   2.07102
   R31        2.06867   0.00002   0.00000   0.00006   0.00006   2.06873
   R32        2.72163  -0.00287   0.00000  -0.00821  -0.00830   2.71334
   R33        2.61139   0.02682   0.00000   0.05418   0.05431   2.66571
   R34        2.75844  -0.00872   0.00000  -0.02804  -0.02835   2.73009
   R35        2.52890   0.01017   0.00000   0.01642   0.01640   2.54530
   R36        2.68545  -0.02624   0.00000  -0.05767  -0.05746   2.62800
   R37        2.05212   0.00085   0.00000   0.00230   0.00230   2.05442
   R38        2.72042  -0.00002   0.00000  -0.00112  -0.00125   2.71918
   R39        2.52921   0.00987   0.00000   0.01584   0.01578   2.54499
   R40        2.61048   0.02642   0.00000   0.05341   0.05350   2.66398
   R41        2.05218   0.00023   0.00000   0.00062   0.00062   2.05280
   R42        2.79724  -0.01065   0.00000  -0.02944  -0.02944   2.76780
   R43        3.10267   0.02291   0.00000   0.05237   0.05246   3.15513
   R44        3.10273   0.02172   0.00000   0.04968   0.04975   3.15248
   R45        2.65674   0.00500   0.00000   0.01095   0.01095   2.66769
   R46        2.65783   0.00536   0.00000   0.01178   0.01178   2.66961
   R47        2.63118  -0.00276   0.00000  -0.00571  -0.00571   2.62547
   R48        2.04758  -0.00035   0.00000  -0.00093  -0.00093   2.04665
   R49        2.63008  -0.00291   0.00000  -0.00595  -0.00595   2.62413
   R50        2.05315  -0.00025   0.00000  -0.00069  -0.00069   2.05246
   R51        2.64792   0.00315   0.00000   0.00654   0.00654   2.65446
   R52        2.05621  -0.00007   0.00000  -0.00020  -0.00020   2.05601
   R53        2.64804   0.00367   0.00000   0.00766   0.00766   2.65570
   R54        2.05595   0.00006   0.00000   0.00016   0.00016   2.05611
   R55        2.85672  -0.00127   0.00000  -0.00386  -0.00386   2.85286
   R56        2.07109   0.00010   0.00000   0.00029   0.00029   2.07138
   R57        2.07694   0.00000   0.00000   0.00000   0.00000   2.07695
   R58        2.90825   0.00067   0.00000   0.00223   0.00223   2.91048
   R59        2.08826  -0.00025   0.00000  -0.00073  -0.00073   2.08754
   R60        2.07284  -0.00006   0.00000  -0.00016  -0.00016   2.07268
   R61        2.77161  -0.00015   0.00000  -0.00040  -0.00040   2.77121
   R62        1.92721   0.00001   0.00000   0.00003   0.00003   1.92724
   R63        1.92534  -0.00000   0.00000  -0.00001  -0.00001   1.92533
    A1        2.11685  -0.00042   0.00000  -0.00172  -0.00173   2.11512
    A2        2.08115  -0.00136   0.00000  -0.00805  -0.00807   2.07307
    A3        2.08518   0.00179   0.00000   0.00980   0.00978   2.09495
    A4        2.07017   0.00173   0.00000   0.00686   0.00686   2.07702
    A5        2.12376  -0.00344   0.00000  -0.01300  -0.01303   2.11073
    A6        2.08895   0.00172   0.00000   0.00641   0.00638   2.09534
    A7        2.09899  -0.00138   0.00000  -0.00500  -0.00500   2.09400
    A8        2.08287   0.00024   0.00000  -0.00008  -0.00008   2.08279
    A9        2.10090   0.00114   0.00000   0.00507   0.00507   2.10597
   A10        2.10142  -0.00073   0.00000  -0.00352  -0.00353   2.09789
   A11        2.24633   0.00066   0.00000   0.00020   0.00021   2.24654
   A12        1.93539   0.00008   0.00000   0.00333   0.00332   1.93871
   A13        2.09495   0.00230   0.00000   0.00932   0.00932   2.10427
   A14        1.89539  -0.00040   0.00000  -0.00171  -0.00172   1.89367
   A15        2.29281  -0.00189   0.00000  -0.00760  -0.00759   2.28522
   A16        2.08394  -0.00149   0.00000  -0.00596  -0.00596   2.07798
   A17        2.08963   0.00062   0.00000   0.00225   0.00225   2.09188
   A18        2.10961   0.00088   0.00000   0.00372   0.00371   2.11332
   A19        1.76495  -0.00128   0.00000  -0.00782  -0.00781   1.75713
   A20        1.94396   0.00042   0.00000   0.00164   0.00164   1.94560
   A21        1.94482   0.00039   0.00000   0.00116   0.00115   1.94597
   A22        1.94316   0.00040   0.00000   0.00116   0.00115   1.94431
   A23        1.94430   0.00036   0.00000   0.00071   0.00071   1.94501
   A24        1.91873  -0.00031   0.00000   0.00248   0.00248   1.92120
   A25        2.24874   0.00027   0.00000  -0.00068  -0.00068   2.24806
   A26        1.93642   0.00090   0.00000   0.00498   0.00499   1.94141
   A27        2.09802  -0.00117   0.00000  -0.00430  -0.00430   2.09372
   A28        2.08017  -0.00066   0.00000  -0.00304  -0.00304   2.07713
   A29        2.10971   0.00023   0.00000   0.00098   0.00098   2.11069
   A30        2.09330   0.00042   0.00000   0.00206   0.00206   2.09536
   A31        2.10395   0.00226   0.00000   0.00814   0.00815   2.11209
   A32        2.08949  -0.00114   0.00000  -0.00410  -0.00411   2.08539
   A33        2.08975  -0.00112   0.00000  -0.00404  -0.00404   2.08570
   A34        2.10429  -0.00011   0.00000  -0.00146  -0.00146   2.10284
   A35        2.08939   0.00018   0.00000   0.00144   0.00144   2.09083
   A36        2.08950  -0.00007   0.00000   0.00002   0.00002   2.08952
   A37        2.07473  -0.00122   0.00000  -0.00460  -0.00461   2.07012
   A38        2.09978   0.00056   0.00000   0.00199   0.00199   2.10177
   A39        2.10867   0.00067   0.00000   0.00262   0.00262   2.11129
   A40        1.89260   0.00070   0.00000   0.00121   0.00121   1.89381
   A41        2.28538  -0.00160   0.00000  -0.00647  -0.00647   2.27891
   A42        2.10521   0.00090   0.00000   0.00526   0.00526   2.11046
   A43        1.93147  -0.00018   0.00000  -0.00092  -0.00093   1.93054
   A44        1.93224  -0.00040   0.00000  -0.00269  -0.00269   1.92955
   A45        1.93912   0.00046   0.00000   0.00297   0.00297   1.94209
   A46        1.88235   0.00019   0.00000   0.00035   0.00034   1.88269
   A47        1.88862  -0.00002   0.00000   0.00073   0.00073   1.88934
   A48        1.88823  -0.00005   0.00000  -0.00042  -0.00042   1.88781
   A49        1.93184  -0.00042   0.00000  -0.00282  -0.00282   1.92903
   A50        1.93200  -0.00017   0.00000  -0.00090  -0.00090   1.93110
   A51        1.93946   0.00046   0.00000   0.00301   0.00301   1.94247
   A52        1.88163   0.00020   0.00000   0.00039   0.00039   1.88202
   A53        1.88885  -0.00003   0.00000  -0.00028  -0.00028   1.88857
   A54        1.88821  -0.00003   0.00000   0.00061   0.00061   1.88882
   A55        2.14977  -0.00755   0.00000  -0.02820  -0.02823   2.12153
   A56        2.12489  -0.00549   0.00000  -0.02044  -0.02047   2.10441
   A57        2.00850   0.01305   0.00000   0.04876   0.04872   2.05722
   A58        2.11574  -0.00500   0.00000  -0.02073  -0.02100   2.09474
   A59        2.19154  -0.00074   0.00000   0.00341   0.00369   2.19523
   A60        1.97563   0.00574   0.00000   0.01738   0.01737   1.99300
   A61        2.15866  -0.00794   0.00000  -0.02829  -0.02800   2.13066
   A62        2.07173   0.00553   0.00000   0.02288   0.02271   2.09444
   A63        2.05217   0.00240   0.00000   0.00508   0.00491   2.05708
   A64        2.11612  -0.00399   0.00000  -0.01658  -0.01686   2.09926
   A65        1.97581   0.00425   0.00000   0.01144   0.01142   1.98722
   A66        2.19099  -0.00026   0.00000   0.00519   0.00549   2.19648
   A67        2.15815  -0.00789   0.00000  -0.02770  -0.02744   2.13071
   A68        2.05245   0.00262   0.00000   0.00634   0.00621   2.05866
   A69        2.07199   0.00527   0.00000   0.02135   0.02122   2.09321
   A70        2.00920   0.01177   0.00000   0.04450   0.04440   2.05360
   A71        2.14825  -0.00616   0.00000  -0.02325  -0.02322   2.12503
   A72        2.12571  -0.00561   0.00000  -0.02119  -0.02116   2.10455
   A73        1.86476  -0.00270   0.00000  -0.01000  -0.01004   1.85471
   A74        1.86452  -0.00140   0.00000  -0.00559  -0.00572   1.85880
   A75        1.74406  -0.00590   0.00000  -0.01327  -0.01315   1.73091
   A76        2.13161  -0.00197   0.00000  -0.00768  -0.00769   2.12392
   A77        2.09682   0.00138   0.00000   0.00489   0.00488   2.10171
   A78        2.05438   0.00059   0.00000   0.00295   0.00295   2.05733
   A79        2.10775  -0.00076   0.00000  -0.00282  -0.00283   2.10493
   A80        2.08768  -0.00088   0.00000  -0.00569  -0.00570   2.08198
   A81        2.08773   0.00164   0.00000   0.00856   0.00855   2.09628
   A82        2.11464  -0.00065   0.00000  -0.00222  -0.00223   2.11242
   A83        2.08573   0.00014   0.00000   0.00005   0.00005   2.08578
   A84        2.08253   0.00050   0.00000   0.00213   0.00213   2.08466
   A85        2.12123  -0.00010   0.00000  -0.00067  -0.00068   2.12056
   A86        2.07908   0.00001   0.00000   0.00009   0.00009   2.07916
   A87        2.08285   0.00010   0.00000   0.00061   0.00061   2.08346
   A88        2.11454  -0.00035   0.00000  -0.00159  -0.00160   2.11294
   A89        2.08401   0.00025   0.00000   0.00121   0.00121   2.08522
   A90        2.08462   0.00011   0.00000   0.00040   0.00040   2.08502
   A91        2.05378   0.00127   0.00000   0.00433   0.00433   2.05811
   A92        2.11721  -0.00057   0.00000  -0.00191  -0.00191   2.11530
   A93        2.11157  -0.00070   0.00000  -0.00243  -0.00243   2.10914
   A94        1.93253   0.00006   0.00000   0.00010   0.00010   1.93262
   A95        1.91460   0.00005   0.00000   0.00008   0.00008   1.91468
   A96        1.96719  -0.00022   0.00000  -0.00132  -0.00132   1.96587
   A97        1.86344   0.00011   0.00000   0.00188   0.00188   1.86532
   A98        1.88473  -0.00001   0.00000  -0.00039  -0.00039   1.88434
   A99        1.89805   0.00001   0.00000  -0.00019  -0.00019   1.89786
   A100       1.89959   0.00007   0.00000   0.00012   0.00012   1.89971
   A101       1.90057   0.00008   0.00000   0.00027   0.00027   1.90084
   A102       1.92370  -0.00031   0.00000  -0.00146  -0.00146   1.92224
   A103       1.85817  -0.00002   0.00000   0.00042   0.00042   1.85859
   A104       1.99643   0.00011   0.00000   0.00041   0.00041   1.99685
   A105       1.88238   0.00008   0.00000   0.00031   0.00031   1.88269
   A106       1.91156  -0.00003   0.00000  -0.00029  -0.00029   1.91128
   A107       1.91493  -0.00017   0.00000  -0.00108  -0.00108   1.91384
   A108       1.84784   0.00007   0.00000   0.00018   0.00018   1.84802
    D1       -0.01143  -0.00014   0.00000  -0.00397  -0.00401  -0.01543
    D2        3.10331   0.00028   0.00000   0.00772   0.00763   3.11094
    D3        3.13347  -0.00062   0.00000  -0.01685  -0.01681   3.11667
    D4       -0.03498  -0.00021   0.00000  -0.00516  -0.00517  -0.04015
    D5        0.00611   0.00021   0.00000   0.00598   0.00595   0.01206
    D6       -3.13402   0.00005   0.00000   0.00148   0.00145  -3.13257
    D7       -3.13880   0.00069   0.00000   0.01886   0.01888  -3.11992
    D8        0.00425   0.00053   0.00000   0.01436   0.01438   0.01863
    D9        0.00879  -0.00008   0.00000  -0.00120  -0.00120   0.00759
   D10       -3.10170  -0.00007   0.00000  -0.00110  -0.00109  -3.10279
   D11       -3.10650  -0.00040   0.00000  -0.01235  -0.01242  -3.11892
   D12        0.06620  -0.00039   0.00000  -0.01224  -0.01232   0.05388
   D13        0.65161  -0.00382   0.00000  -0.13903  -0.13879   0.51282
   D14       -2.49924  -0.00322   0.00000  -0.12234  -0.12252  -2.62176
   D15       -2.51713  -0.00340   0.00000  -0.12721  -0.12703  -2.64415
   D16        0.61521  -0.00281   0.00000  -0.11052  -0.11076   0.50446
   D17       -0.00101   0.00017   0.00000   0.00419   0.00415   0.00314
   D18       -3.13095   0.00013   0.00000   0.00283   0.00280  -3.12815
   D19        3.10915   0.00015   0.00000   0.00399   0.00395   3.11310
   D20       -0.02079   0.00011   0.00000   0.00263   0.00260  -0.01819
   D21       -0.00447  -0.00008   0.00000  -0.00214  -0.00215  -0.00662
   D22       -3.13826  -0.00011   0.00000  -0.00304  -0.00305  -3.14130
   D23        3.12739  -0.00004   0.00000  -0.00101  -0.00103   3.12636
   D24       -0.00640  -0.00007   0.00000  -0.00191  -0.00193  -0.00832
   D25        3.13799   0.00007   0.00000   0.00258   0.00258   3.14056
   D26        1.07204   0.00014   0.00000   0.00483   0.00483   1.07687
   D27       -1.07755  -0.00005   0.00000  -0.00041  -0.00042  -1.07797
   D28        0.00715   0.00004   0.00000   0.00136   0.00136   0.00851
   D29       -2.05880   0.00010   0.00000   0.00361   0.00361  -2.05519
   D30        2.07480  -0.00009   0.00000  -0.00163  -0.00163   2.07316
   D31        0.00193  -0.00012   0.00000  -0.00295  -0.00296  -0.00102
   D32       -3.14114   0.00005   0.00000   0.00160   0.00159  -3.13954
   D33        3.13367  -0.00008   0.00000  -0.00176  -0.00177   3.13190
   D34       -0.00940   0.00009   0.00000   0.00279   0.00278  -0.00662
   D35        0.00269   0.00005   0.00000   0.00161   0.00161   0.00430
   D36       -3.13870   0.00004   0.00000   0.00112   0.00112  -3.13758
   D37       -3.12990  -0.00000   0.00000   0.00046   0.00048  -3.12942
   D38        0.01190  -0.00002   0.00000  -0.00002  -0.00001   0.01188
   D39        3.13718  -0.00003   0.00000  -0.00068  -0.00069   3.13649
   D40       -0.00545  -0.00002   0.00000  -0.00036  -0.00037  -0.00582
   D41       -1.07948  -0.00007   0.00000  -0.00258  -0.00258  -1.08206
   D42        2.06108  -0.00006   0.00000  -0.00226  -0.00226   2.05881
   D43        1.06915   0.00008   0.00000   0.00198   0.00198   1.07113
   D44       -2.07348   0.00009   0.00000   0.00230   0.00230  -2.07118
   D45        3.07561  -0.00045   0.00000  -0.00255  -0.00255   3.07306
   D46       -1.12143  -0.00059   0.00000  -0.00445  -0.00445  -1.12589
   D47        0.97711  -0.00061   0.00000  -0.00481  -0.00481   0.97229
   D48        1.12004   0.00064   0.00000   0.00537   0.00537   1.12541
   D49       -3.07701   0.00050   0.00000   0.00346   0.00347  -3.07354
   D50       -0.97847   0.00048   0.00000   0.00311   0.00311  -0.97536
   D51       -1.04315   0.00012   0.00000   0.00187   0.00187  -1.04128
   D52        1.04299  -0.00002   0.00000  -0.00003  -0.00003   1.04296
   D53        3.14153  -0.00004   0.00000  -0.00039  -0.00039   3.14113
   D54        1.12238   0.00061   0.00000   0.00455   0.00456   1.12694
   D55       -3.07548   0.00047   0.00000   0.00264   0.00264  -3.07283
   D56       -0.97690   0.00062   0.00000   0.00480   0.00480  -0.97209
   D57        3.07912  -0.00052   0.00000  -0.00391  -0.00391   3.07521
   D58       -1.11874  -0.00066   0.00000  -0.00582  -0.00582  -1.12456
   D59        0.97984  -0.00051   0.00000  -0.00366  -0.00366   0.97618
   D60       -1.04154   0.00001   0.00000  -0.00015  -0.00015  -1.04169
   D61        1.04379  -0.00012   0.00000  -0.00206  -0.00206   1.04172
   D62       -3.14082   0.00003   0.00000   0.00010   0.00010  -3.14072
   D63        3.14000   0.00000   0.00000   0.00005   0.00005   3.14005
   D64       -0.00095   0.00002   0.00000   0.00046   0.00046  -0.00049
   D65       -0.00047  -0.00001   0.00000  -0.00030  -0.00030  -0.00077
   D66       -3.14142   0.00000   0.00000   0.00011   0.00011  -3.14131
   D67        0.00205  -0.00003   0.00000  -0.00073  -0.00073   0.00132
   D68       -3.13972  -0.00001   0.00000  -0.00030  -0.00030  -3.14002
   D69       -3.14048  -0.00001   0.00000  -0.00044  -0.00044  -3.14092
   D70        0.00094  -0.00000   0.00000  -0.00001  -0.00001   0.00093
   D71       -0.00005   0.00001   0.00000   0.00024   0.00024   0.00019
   D72       -3.14132   0.00002   0.00000   0.00050   0.00050  -3.14082
   D73        3.14091  -0.00001   0.00000  -0.00017  -0.00017   3.14074
   D74       -0.00036   0.00000   0.00000   0.00009   0.00009  -0.00027
   D75        0.00011   0.00001   0.00000   0.00015   0.00015   0.00026
   D76       -3.14134   0.00001   0.00000   0.00028   0.00028  -3.14106
   D77        3.14138  -0.00000   0.00000  -0.00011  -0.00011   3.14127
   D78       -0.00007   0.00000   0.00000   0.00001   0.00001  -0.00005
   D79        0.00035  -0.00002   0.00000  -0.00047  -0.00046  -0.00011
   D80       -3.14137   0.00001   0.00000   0.00023   0.00023  -3.14114
   D81       -3.14139  -0.00002   0.00000  -0.00059  -0.00059   3.14120
   D82        0.00007   0.00000   0.00000   0.00011   0.00011   0.00018
   D83        3.14051   0.00003   0.00000   0.00093   0.00093   3.14144
   D84       -0.00087   0.00002   0.00000   0.00039   0.00039  -0.00047
   D85       -0.00096   0.00001   0.00000   0.00023   0.00023  -0.00072
   D86        3.14086  -0.00001   0.00000  -0.00031  -0.00031   3.14055
   D87        3.13153   0.00007   0.00000   0.00177   0.00173   3.13326
   D88        0.01701  -0.00011   0.00000  -0.00146  -0.00144   0.01557
   D89       -0.00138  -0.00041   0.00000  -0.01359  -0.01379  -0.01517
   D90       -3.11589  -0.00058   0.00000  -0.01682  -0.01696  -3.13286
   D91       -3.13181  -0.00029   0.00000  -0.00808  -0.00835  -3.14016
   D92        0.04861   0.00016   0.00000   0.00206   0.00187   0.05047
   D93        0.00123   0.00017   0.00000   0.00699   0.00697   0.00820
   D94       -3.10153   0.00062   0.00000   0.01713   0.01718  -3.08435
   D95       -0.00009   0.00019   0.00000   0.00599   0.00597   0.00588
   D96       -3.11811   0.00014   0.00000   0.00383   0.00384  -3.11427
   D97        3.11754   0.00028   0.00000   0.00873   0.00868   3.12621
   D98       -0.00048   0.00022   0.00000   0.00657   0.00654   0.00607
   D99        3.11909   0.00015   0.00000   0.00433   0.00442   3.12351
   D100       0.00269   0.00012   0.00000   0.00183   0.00192   0.00460
   D101       0.00050   0.00031   0.00000   0.00846   0.00834   0.00884
   D102      -3.10356   0.00033   0.00000   0.00828   0.00818  -3.09539
   D103       3.10367  -0.00006   0.00000  -0.00120  -0.00127   3.10240
   D104      -0.00039  -0.00005   0.00000  -0.00138  -0.00144  -0.00183
   D105       0.00174   0.00027   0.00000   0.00878   0.00882   0.01056
   D106      -3.13232   0.00001   0.00000  -0.00014  -0.00022  -3.13254
   D107       3.11670   0.00039   0.00000   0.01126   0.01125   3.12795
   D108      -0.01736   0.00013   0.00000   0.00234   0.00221  -0.01515
   D109      -0.00199  -0.00045   0.00000  -0.01139  -0.01139  -0.01338
   D110      -3.11881  -0.00045   0.00000  -0.01333  -0.01331  -3.13212
   D111      -0.00198  -0.00052   0.00000  -0.01598  -0.01609  -0.01807
   D112       3.13219  -0.00027   0.00000  -0.00719  -0.00717   3.12501
   D113       3.10170  -0.00059   0.00000  -0.01611  -0.01625   3.08544
   D114      -0.04733  -0.00034   0.00000  -0.00733  -0.00734  -0.05466
   D115      -0.64981   0.00288   0.00000   0.10588   0.10577  -0.54404
   D116       2.52179   0.00265   0.00000   0.09934   0.09924   2.62103
   D117       2.49981   0.00252   0.00000   0.09610   0.09619   2.59600
   D118      -0.61178   0.00230   0.00000   0.08955   0.08967  -0.52211
   D119      -0.00347  -0.00032   0.00000  -0.00756  -0.00755  -0.01102
   D120       0.00321   0.00045   0.00000   0.01124   0.01113   0.01434
   D121      -3.10157  -0.00014   0.00000  -0.00356  -0.00353  -3.10510
   D122       0.03202   0.00017   0.00000   0.00443   0.00443   0.03645
   D123       0.01071   0.00010   0.00000   0.00286   0.00287   0.01358
   D124      -3.13888   0.00041   0.00000   0.01086   0.01083  -3.12805
   D125       3.10514   0.00034   0.00000   0.01001   0.01004   3.11518
   D126      -0.06211   0.00026   0.00000   0.00799   0.00802  -0.05409
   D127      -0.00775   0.00016   0.00000   0.00394   0.00394  -0.00381
   D128       3.10818   0.00009   0.00000   0.00192   0.00192   3.11011
   D129      -0.00719  -0.00023   0.00000  -0.00633  -0.00632  -0.01351
   D130       3.12694  -0.00005   0.00000  -0.00132  -0.00130   3.12564
   D131      -3.14078  -0.00053   0.00000  -0.01426  -0.01428   3.12813
   D132      -0.00665  -0.00034   0.00000  -0.00925  -0.00926  -0.01591
   D133       0.00111  -0.00029   0.00000  -0.00749  -0.00747  -0.00636
   D134       3.13689  -0.00017   0.00000  -0.00444  -0.00442   3.13247
   D135      -3.11488  -0.00021   0.00000  -0.00544  -0.00543  -3.12030
   D136       0.02091  -0.00009   0.00000  -0.00239  -0.00238   0.01853
   D137       0.00029   0.00011   0.00000   0.00287   0.00288   0.00317
   D138      -3.10351   0.00013   0.00000   0.00320   0.00322  -3.10030
   D139      -3.13382  -0.00008   0.00000  -0.00216  -0.00216  -3.13597
   D140       0.04556  -0.00005   0.00000  -0.00182  -0.00182   0.04375
   D141       0.00272   0.00016   0.00000   0.00399   0.00401   0.00673
   D142       3.10666   0.00014   0.00000   0.00367   0.00368   3.11034
   D143      -3.13306   0.00004   0.00000   0.00093   0.00095  -3.13211
   D144      -0.02913   0.00002   0.00000   0.00061   0.00063  -0.02850
   D145      -2.61870  -0.00010   0.00000  -0.00153  -0.00153  -2.62023
   D146      -0.56643   0.00010   0.00000   0.00089   0.00088  -0.56555
   D147       1.55118   0.00001   0.00000  -0.00018  -0.00019   1.55099
   D148       0.56193  -0.00012   0.00000  -0.00133  -0.00133   0.56060
   D149       2.61420   0.00008   0.00000   0.00109   0.00109   2.61528
   D150      -1.55138  -0.00001   0.00000   0.00002   0.00002  -1.55136
   D151      -0.98157  -0.00003   0.00000  -0.00048  -0.00048  -0.98205
   D152       1.03739   0.00003   0.00000   0.00023   0.00023   1.03763
   D153       3.09904  -0.00000   0.00000  -0.00008  -0.00008   3.09895
   D154      -3.12190   0.00004   0.00000   0.00053   0.00053  -3.12137
   D155      -1.10294   0.00009   0.00000   0.00124   0.00124  -1.10170
   D156       0.95870   0.00006   0.00000   0.00093   0.00093   0.95963
   D157       1.14542  -0.00009   0.00000  -0.00138  -0.00138   1.14404
   D158      -3.11880  -0.00004   0.00000  -0.00067  -0.00067  -3.11947
   D159      -1.05716  -0.00007   0.00000  -0.00098  -0.00098  -1.05814
   D160       1.18941   0.00004   0.00000   0.00141   0.00141   1.19082
   D161      -3.07255   0.00000   0.00000   0.00086   0.00086  -3.07169
   D162      -0.95754   0.00010   0.00000   0.00209   0.00209  -0.95545
   D163       1.06369   0.00007   0.00000   0.00153   0.00153   1.06522
   D164      -3.02098   0.00000   0.00000   0.00109   0.00109  -3.01989
   D165      -0.99975  -0.00003   0.00000   0.00054   0.00054  -0.99921
         Item               Value     Threshold  Converged?
 Maximum Force            0.026825     0.000450     NO 
 RMS     Force            0.004068     0.000300     NO 
 Maximum Displacement     0.612043     0.001800     NO 
 RMS     Displacement     0.090429     0.001200     NO 
 Predicted change in Energy=-9.237538D-03
 Lowest energy point so far.  Saving SCF results.
 GradGradGradGradGradGradGradGradGradGradGradGradGradGradGradGradGradGrad

 Leave Link  103 at Thu Mar 14 09:24:13 2024, MaxMem= 32212254720 cpu:               5.7 elap:               0.2
 (Enter /home/<user>/g16/l202.exe)
 Stoichiometry    C29H25N3S
 Framework group  C1[X(C29H25N3S)]
 Deg. of freedom   168
 Full point group                 C1      NOp   1
 RotChk:  IX=0 Diff= 5.26D-02
 Largest Abelian subgroup         C1      NOp   1
 Largest concise Abelian subgroup C1      NOp   1
                         Standard orientation:                         
 ---------------------------------------------------------------------
 Center     Atomic      Atomic             Coordinates (Angstroms)
 Number     Number       Type             X           Y           Z
 ---------------------------------------------------------------------
      1          6           0       -2.384289    1.578387   -0.505850
      2          6           0       -1.757201    0.330196   -0.231558
      3          6           0       -2.568869   -0.800141    0.056382
      4          6           0       -3.942144   -0.679525    0.058189
      5          6           0       -4.550436    0.572405   -0.231104
      6          6           0       -3.762635    1.701418   -0.513920
      7          1           0       -1.762247    2.442080   -0.701627
      8          1           0       -2.095779   -1.746006    0.302022
      9          1           0       -4.218572    2.662655   -0.734263
     10          6           0       -4.994697   -1.746780    0.352907
     11          6           0       -6.276956   -0.935149    0.179386
     12          6           0       -7.593689   -1.351384    0.310660
     13          6           0       -8.624000   -0.423061    0.104799
     14          6           0       -8.339932    0.910589   -0.229837
     15          6           0       -7.023288    1.339303   -0.364740
     16          6           0       -5.990331    0.412015   -0.159368
     17          1           0       -7.831347   -2.379777    0.569940
     18          1           0       -9.657916   -0.740554    0.206336
     19          1           0       -9.153531    1.613273   -0.384399
     20          1           0       -6.804609    2.371564   -0.623287
     21          6           0       -4.861688   -2.290032    1.793946
     22          1           0       -5.664894   -3.002695    2.013276
     23          1           0       -3.906269   -2.810411    1.922168
     24          1           0       -4.910960   -1.480957    2.529493
     25          6           0       -4.920937   -2.910294   -0.661615
     26          1           0       -3.966709   -3.440547   -0.569263
     27          1           0       -5.725096   -3.632496   -0.480411
     28          1           0       -5.012316   -2.547200   -1.690322
     29          6           0       -0.304342    0.197952   -0.261810
     30          6           0        0.557412    1.302462    0.052927
     31          6           0        0.297336   -1.028708   -0.612763
     32          6           0        1.991663    1.131679    0.022577
     33          6           0        1.678114   -1.190080   -0.650061
     34          1           0       -0.320983   -1.872332   -0.909209
     35          6           0        2.563473   -0.140985   -0.329371
     36          1           0        2.069984   -2.150847   -0.971625
     37          7           0        0.156013    2.535966    0.415582
     38          7           0        2.679269    2.236254    0.370211
     39         16           0        1.546511    3.418059    0.691387
     40          6           0        4.012361   -0.353205   -0.359513
     41          6           0        4.907566    0.687138   -0.689868
     42          6           0        4.554473   -1.627965   -0.082347
     43          6           0        6.275019    0.449949   -0.753717
     44          1           0        4.517682    1.676689   -0.894209
     45          6           0        5.923956   -1.850964   -0.137806
     46          1           0        3.892453   -2.440179    0.203459
     47          6           0        6.813619   -0.817891   -0.478724
     48          1           0        6.941876    1.265601   -1.025275
     49          1           0        6.314797   -2.840783    0.088797
     50          6           0        8.304373   -1.055284   -0.498506
     51          1           0        8.528991   -2.088041   -0.789108
     52          1           0        8.773455   -0.403494   -1.248903
     53          6           0        8.964727   -0.791921    0.867753
     54          1           0        8.729674    0.239869    1.184719
     55          1           0        8.514296   -1.457220    1.614408
     56          7           0       10.398220   -1.094096    0.802243
     57          1           0       10.862649   -0.413403    0.201363
     58          1           0       10.814742   -0.981336    1.725190
 ---------------------------------------------------------------------
 Rotational constants (GHZ):           0.3729984           0.0398160           0.0368099
 Leave Link  202 at Thu Mar 14 09:24:13 2024, MaxMem= 32212254720 cpu:               0.1 elap:               0.0
 (Enter /home/<user>/g16/l301.exe)
 Standard basis: 6-31G(d) (6D, 7F)
 Ernie: Thresh=  0.10000D-02 Tol=  0.10000D-05 Strict=F.
 There are   549 symmetry adapted cartesian basis functions of A   symmetry.
 There are   549 symmetry adapted basis functions of A   symmetry.
   549 basis functions,  1048 primitive gaussians,   549 cartesian basis functions
   118 alpha electrons      118 beta electrons
       nuclear repulsion energy      3084.9812990466 Hartrees.
 IExCor=  402 DFT=T Ex+Corr=B3LYP ExCW=0 ScaHFX=  0.200000
 ScaDFX=  0.800000  0.720000  1.000000  0.810000 ScalE2=  1.000000  1.000000
 IRadAn=      5 IRanWt=     -1 IRanGd=            0 ICorTp=0 IEmpDi=  4
 NAtoms=   58 NActive=   58 NUniq=   58 SFac= 1.00D+00 NAtFMM=   60 NAOKFM=F Big=F
 Integral buffers will be    131072 words long.
 Regular integral format.
 Two-electron integral symmetry is turned on.
 Leave Link  301 at Thu Mar 14 09:24:14 2024, MaxMem= 32212254720 cpu:               1.0 elap:               0.0
 (Enter /home/<user>/g16/l302.exe)
 NPDir=0 NMtPBC=     1 NCelOv=     1 NCel=       1 NClECP=     1 NCelD=      1
         NCelK=      1 NCelE2=     1 NClLst=     1 CellRange=     0.0.
 One-electron integrals computed using PRISM.
 One-electron integral symmetry used in STVInt
 NBasis=   549 RedAO= T EigKep=  2.74D-04  NBF=   549
 NBsUse=   549 1.00D-06 EigRej= -1.00D+00 NBFU=   549
 Precomputing XC quadrature grid using
 IXCGrd= 4 IRadAn=           5 IRanWt=          -1 IRanGd=           0 AccXCQ= 0.00D+00.
 Generated NRdTot=       0 NPtTot=           0 NUsed=           0 NTot=          32
 NSgBfM=   512   512   512   512   512 MxSgAt=    58 MxSgA2=    58.
 Leave Link  302 at Thu Mar 14 09:24:14 2024, MaxMem= 32212254720 cpu:              18.0 elap:               0.6
 (Enter /home/<user>/g16/l303.exe)
 DipDrv:  MaxL=1.
 Leave Link  303 at Thu Mar 14 09:24:14 2024, MaxMem= 32212254720 cpu:               1.8 elap:               0.1
 (Enter /home/<user>/g16/l308.exe)
 Leave Link  308 at Thu Mar 14 09:24:14 2024, MaxMem= 32212254720 cpu:               2.1 elap:               0.1
 (Enter /home/<user>/g16/l401.exe)
 Initial guess from the checkpoint file:  "FBTP_S1opt.chk"
 B after Tr=    -0.000000   -0.000000    0.000000
         Rot=    0.999995   -0.003081    0.000085    0.000508 Ang=  -0.36 deg.
 Guess basis will be translated and rotated to current coordinates.
 JPrj=2 DoOrth=T DoCkMO=T.
 Generating alternative initial guess.
 ExpMin= 1.17D-01 ExpMax= 2.19D+04 ExpMxC= 3.30D+03 IAcc=3 IRadAn=         5 AccDes= 0.00D+00
 Harris functional with IExCor=  402 and IRadAn=       5 diagonalized for initial guess.
 HarFok:  IExCor=  402 AccDes= 0.00D+00 IRadAn=         5 IDoV= 1 UseB2=F ITyADJ=14
 ICtDFT=  3500011 ScaDFX=  1.000000  1.000000  1.000000  1.000000
 FoFCou: FMM=F IPFlag=           0 FMFlag=      100000 FMFlg1=           0
         NFxFlg=           0 DoJE=T BraDBF=F KetDBF=T FulRan=T
         wScrn=  0.000000 ICntrl=       500 IOpCl=  0 I1Cent=   200000004 NGrid=           0
         NMat0=    1 NMatS0=      1 NMatT0=    0 NMatD0=    1 NMtDS0=    0 NMtDT0=    0
 Petite list used in FoFCou.
 Harris En= -1682.58631548068    
 Leave Link  401 at Thu Mar 14 09:24:16 2024, MaxMem= 32212254720 cpu:              48.6 elap:               1.6
 (Enter /home/<user>/g16/l502.exe)
 Integral symmetry usage will be decided dynamically.
 Closed shell SCF:
 Using DIIS extrapolation, IDIIS=  1040.
 NGot= 32212254720 LenX= 32211628124 LenY= 32211326174
 Requested convergence on RMS density matrix=1.00D-08 within 128 cycles.
 Requested convergence on MAX density matrix=1.00D-06.
 Requested convergence on             energy=1.00D-06.
 No special actions if energy rises.
 Fock matrices will be formed incrementally for  20 cycles.
 Integral accuracy reduced to 1.0D-05 until final iterations.

 Cycle   1  Pass 0  IDiag  1:
 FoFJK:  IHMeth= 1 ICntrl=       0 DoSepK=F KAlg= 0 I1Cent=           0 FoldK=F
 IRaf= 550000000 NMat=       1 IRICut=       1 DoRegI=T DoRafI=F ISym2E= 0 IDoP0=0 IntGTp=1.
 FoFCou: FMM=F IPFlag=           0 FMFlag=      100000 FMFlg1=           0
         NFxFlg=           0 DoJE=F BraDBF=F KetDBF=F FulRan=T
         wScrn=  0.000000 ICntrl=         0 IOpCl=  0 I1Cent=           0 NGrid=           0
         NMat0=    1 NMatS0=      1 NMatT0=    0 NMatD0=    1 NMtDS0=    0 NMtDT0=    0
 Symmetry not used in FoFCou.
 E= -1682.55949912948    
 DIIS: error= 4.00D-03 at cycle   1 NSaved=   1.
 NSaved= 1 IEnMin= 1 EnMin= -1682.55949912948     IErMin= 1 ErrMin= 4.00D-03
 ErrMax= 4.00D-03  0.00D+00 EMaxC= 1.00D-01 BMatC= 1.68D-02 BMatP= 1.68D-02
 IDIUse=3 WtCom= 9.60D-01 WtEn= 4.00D-02
 Coeff-Com:  0.100D+01
 Coeff-En:   0.100D+01
 Coeff:      0.100D+01
 Gap=     1.964 Goal=   None    Shift=    0.000
 GapD=    1.964 DampG=2.000 DampE=1.000 DampFc=2.0000 IDamp=-1.
 RMSDP=5.06D-04 MaxDP=2.05D-02              OVMax= 3.45D-02

 Cycle   2  Pass 0  IDiag  1:
 RMSU=  5.06D-04    CP:  1.00D+00
 E= -1682.59688511990     Delta-E=       -0.037385990423 Rises=F Damp=F
 DIIS: error= 6.87D-04 at cycle   2 NSaved=   2.
 NSaved= 2 IEnMin= 2 EnMin= -1682.59688511990     IErMin= 2 ErrMin= 6.87D-04
 ErrMax= 6.87D-04  0.00D+00 EMaxC= 1.00D-01 BMatC= 5.71D-04 BMatP= 1.68D-02
 IDIUse=3 WtCom= 9.93D-01 WtEn= 6.87D-03
 Coeff-Com: -0.354D-01 0.104D+01
 Coeff-En:   0.000D+00 0.100D+01
 Coeff:     -0.352D-01 0.104D+01
 Gap=     0.095 Goal=   None    Shift=    0.000
 RMSDP=1.20D-04 MaxDP=6.89D-03 DE=-3.74D-02 OVMax= 9.20D-03

 Cycle   3  Pass 0  IDiag  1:
 RMSU=  1.16D-04    CP:  1.00D+00  1.06D+00
 E= -1682.59678649248     Delta-E=        0.000098627423 Rises=F Damp=F
 DIIS: error= 1.12D-03 at cycle   3 NSaved=   3.
 NSaved= 3 IEnMin= 2 EnMin= -1682.59688511990     IErMin= 2 ErrMin= 6.87D-04
 ErrMax= 1.12D-03  0.00D+00 EMaxC= 1.00D-01 BMatC= 1.02D-03 BMatP= 5.71D-04
 IDIUse=3 WtCom= 2.30D-01 WtEn= 7.70D-01
 Coeff-Com: -0.475D-01 0.623D+00 0.425D+00
 Coeff-En:   0.000D+00 0.535D+00 0.465D+00
 Coeff:     -0.109D-01 0.556D+00 0.455D+00
 Gap=     0.097 Goal=   None    Shift=    0.000
 RMSDP=8.68D-05 MaxDP=6.73D-03 DE= 9.86D-05 OVMax= 1.01D-02

 Cycle   4  Pass 0  IDiag  1:
 RMSU=  4.52D-05    CP:  1.00D+00  1.08D+00  3.65D-01
 E= -1682.59760526063     Delta-E=       -0.000818768147 Rises=F Damp=F
 DIIS: error= 3.72D-04 at cycle   4 NSaved=   4.
 NSaved= 4 IEnMin= 4 EnMin= -1682.59760526063     IErMin= 4 ErrMin= 3.72D-04
 ErrMax= 3.72D-04  0.00D+00 EMaxC= 1.00D-01 BMatC= 1.46D-04 BMatP= 5.71D-04
 IDIUse=3 WtCom= 9.96D-01 WtEn= 3.72D-03
 Coeff-Com: -0.208D-01 0.213D+00 0.300D+00 0.508D+00
 Coeff-En:   0.000D+00 0.000D+00 0.148D+00 0.852D+00
 Coeff:     -0.207D-01 0.212D+00 0.299D+00 0.510D+00
 Gap=     0.096 Goal=   None    Shift=    0.000
 RMSDP=3.20D-05 MaxDP=2.16D-03 DE=-8.19D-04 OVMax= 4.88D-03

 Cycle   5  Pass 0  IDiag  1:
 RMSU=  1.79D-05    CP:  1.00D+00  1.08D+00  5.11D-01  5.57D-01
 E= -1682.59774402077     Delta-E=       -0.000138760139 Rises=F Damp=F
 DIIS: error= 1.03D-04 at cycle   5 NSaved=   5.
 NSaved= 5 IEnMin= 5 EnMin= -1682.59774402077     IErMin= 5 ErrMin= 1.03D-04
 ErrMax= 1.03D-04  0.00D+00 EMaxC= 1.00D-01 BMatC= 1.07D-05 BMatP= 1.46D-04
 IDIUse=3 WtCom= 9.99D-01 WtEn= 1.03D-03
 Coeff-Com: -0.766D-02 0.622D-01 0.140D+00 0.319D+00 0.487D+00
 Coeff-En:   0.000D+00 0.000D+00 0.000D+00 0.117D-01 0.988D+00
 Coeff:     -0.765D-02 0.621D-01 0.140D+00 0.319D+00 0.487D+00
 Gap=     0.096 Goal=   None    Shift=    0.000
 RMSDP=1.05D-05 MaxDP=8.93D-04 DE=-1.39D-04 OVMax= 1.77D-03

 Cycle   6  Pass 0  IDiag  1:
 RMSU=  7.29D-06    CP:  1.00D+00  1.08D+00  5.11D-01  6.39D-01  6.36D-01
 E= -1682.59775379579     Delta-E=       -0.000009775024 Rises=F Damp=F
 DIIS: error= 6.51D-05 at cycle   6 NSaved=   6.
 NSaved= 6 IEnMin= 6 EnMin= -1682.59775379579     IErMin= 6 ErrMin= 6.51D-05
 ErrMax= 6.51D-05  0.00D+00 EMaxC= 1.00D-01 BMatC= 3.21D-06 BMatP= 1.07D-05
 IDIUse=1 WtCom= 1.00D+00 WtEn= 0.00D+00
 Coeff-Com: -0.170D-02 0.361D-02 0.472D-01 0.143D+00 0.370D+00 0.438D+00
 Coeff:     -0.170D-02 0.361D-02 0.472D-01 0.143D+00 0.370D+00 0.438D+00
 Gap=     0.096 Goal=   None    Shift=    0.000
 RMSDP=4.86D-06 MaxDP=4.38D-04 DE=-9.78D-06 OVMax= 8.61D-04

 Initial convergence to 1.0D-05 achieved.  Increase integral accuracy.
 Cycle   7  Pass 1  IDiag  1:
 E= -1682.59778765747     Delta-E=       -0.000033861675 Rises=F Damp=F
 DIIS: error= 7.02D-05 at cycle   1 NSaved=   1.
 NSaved= 1 IEnMin= 1 EnMin= -1682.59778765747     IErMin= 1 ErrMin= 7.02D-05
 ErrMax= 7.02D-05  0.00D+00 EMaxC= 1.00D-01 BMatC= 2.67D-06 BMatP= 2.67D-06
 IDIUse=1 WtCom= 1.00D+00 WtEn= 0.00D+00
 Coeff-Com:  0.100D+01
 Coeff:      0.100D+01
 Gap=     0.096 Goal=   None    Shift=    0.000
 RMSDP=4.86D-06 MaxDP=4.38D-04 DE=-3.39D-05 OVMax= 1.15D-03

 Cycle   8  Pass 1  IDiag  1:
 RMSU=  5.31D-05    CP:  1.00D+00
 E= -1682.59778408765     Delta-E=        0.000003569818 Rises=F Damp=F
 DIIS: error= 9.49D-05 at cycle   2 NSaved=   2.
 NSaved= 2 IEnMin= 1 EnMin= -1682.59778765747     IErMin= 1 ErrMin= 7.02D-05
 ErrMax= 9.49D-05  0.00D+00 EMaxC= 1.00D-01 BMatC= 5.77D-06 BMatP= 2.67D-06
 IDIUse=1 WtCom= 1.00D+00 WtEn= 0.00D+00
 Coeff-Com:  0.627D+00 0.373D+00
 Coeff:      0.627D+00 0.373D+00
 Gap=     0.096 Goal=   None    Shift=    0.000
 RMSDP=7.45D-06 MaxDP=6.49D-04 DE= 3.57D-06 OVMax= 1.34D-03

 Cycle   9  Pass 1  IDiag  1:
 RMSU=  7.44D-06    CP:  1.00D+00  9.92D-01
 E= -1682.59778826625     Delta-E=       -0.000004178602 Rises=F Damp=F
 DIIS: error= 5.47D-05 at cycle   3 NSaved=   3.
 NSaved= 3 IEnMin= 3 EnMin= -1682.59778826625     IErMin= 3 ErrMin= 5.47D-05
 ErrMax= 5.47D-05  0.00D+00 EMaxC= 1.00D-01 BMatC= 1.78D-06 BMatP= 2.67D-06
 IDIUse=1 WtCom= 1.00D+00 WtEn= 0.00D+00
 Coeff-Com:  0.450D-01 0.348D+00 0.607D+00
 Coeff:      0.450D-01 0.348D+00 0.607D+00
 Gap=     0.096 Goal=   None    Shift=    0.000
 RMSDP=3.04D-06 MaxDP=2.64D-04 DE=-4.18D-06 OVMax= 5.28D-04

 Cycle  10  Pass 1  IDiag  1:
 RMSU=  1.59D-06    CP:  1.00D+00  1.00D+00  6.60D-01
 E= -1682.59778982568     Delta-E=       -0.000001559430 Rises=F Damp=F
 DIIS: error= 1.32D-05 at cycle   4 NSaved=   4.
 NSaved= 4 IEnMin= 4 EnMin= -1682.59778982568     IErMin= 4 ErrMin= 1.32D-05
 ErrMax= 1.32D-05  0.00D+00 EMaxC= 1.00D-01 BMatC= 1.83D-07 BMatP= 1.78D-06
 IDIUse=1 WtCom= 1.00D+00 WtEn= 0.00D+00
 Coeff-Com: -0.170D-02 0.224D+00 0.424D+00 0.354D+00
 Coeff:     -0.170D-02 0.224D+00 0.424D+00 0.354D+00
 Gap=     0.096 Goal=   None    Shift=    0.000
 RMSDP=1.08D-06 MaxDP=1.06D-04 DE=-1.56D-06 OVMax= 2.23D-04

 Cycle  11  Pass 1  IDiag  1:
 RMSU=  2.52D-07    CP:  1.00D+00  1.00D+00  6.61D-01  3.43D-01
 E= -1682.59779004738     Delta-E=       -0.000000221702 Rises=F Damp=F
 DIIS: error= 1.47D-06 at cycle   5 NSaved=   5.
 NSaved= 5 IEnMin= 5 EnMin= -1682.59779004738     IErMin= 5 ErrMin= 1.47D-06
 ErrMax= 1.47D-06  0.00D+00 EMaxC= 1.00D-01 BMatC= 3.94D-09 BMatP= 1.83D-07
 IDIUse=1 WtCom= 1.00D+00 WtEn= 0.00D+00
 Coeff-Com: -0.249D-02 0.133D+00 0.254D+00 0.225D+00 0.391D+00
 Coeff:     -0.249D-02 0.133D+00 0.254D+00 0.225D+00 0.391D+00
 Gap=     0.096 Goal=   None    Shift=    0.000
 RMSDP=1.48D-07 MaxDP=7.77D-06 DE=-2.22D-07 OVMax= 1.79D-05

 Cycle  12  Pass 1  IDiag  1:
 RMSU=  7.51D-08    CP:  1.00D+00  1.00D+00  6.62D-01  3.65D-01  5.17D-01
 E= -1682.59779005143     Delta-E=       -0.000000004052 Rises=F Damp=F
 DIIS: error= 2.79D-07 at cycle   6 NSaved=   6.
 NSaved= 6 IEnMin= 6 EnMin= -1682.59779005143     IErMin= 6 ErrMin= 2.79D-07
 ErrMax= 2.79D-07  0.00D+00 EMaxC= 1.00D-01 BMatC= 8.62D-11 BMatP= 3.94D-09
 IDIUse=1 WtCom= 1.00D+00 WtEn= 0.00D+00
 Coeff-Com: -0.122D-02 0.579D-01 0.110D+00 0.988D-01 0.204D+00 0.530D+00
 Coeff:     -0.122D-02 0.579D-01 0.110D+00 0.988D-01 0.204D+00 0.530D+00
 Gap=     0.096 Goal=   None    Shift=    0.000
 RMSDP=2.71D-08 MaxDP=1.11D-06 DE=-4.05D-09 OVMax= 2.28D-06

 Cycle  13  Pass 1  IDiag  1:
 RMSU=  2.30D-08    CP:  1.00D+00  1.00D+00  6.62D-01  3.64D-01  5.36D-01
                    CP:  8.22D-01
 E= -1682.59779005142     Delta-E=        0.000000000014 Rises=F Damp=F
 DIIS: error= 1.20D-07 at cycle   7 NSaved=   7.
 NSaved= 7 IEnMin= 6 EnMin= -1682.59779005143     IErMin= 7 ErrMin= 1.20D-07
 ErrMax= 1.20D-07  0.00D+00 EMaxC= 1.00D-01 BMatC= 1.41D-11 BMatP= 8.62D-11
 IDIUse=1 WtCom= 1.00D+00 WtEn= 0.00D+00
 Coeff-Com: -0.458D-03 0.197D-01 0.376D-01 0.336D-01 0.780D-01 0.313D+00
 Coeff-Com:  0.518D+00
 Coeff:     -0.458D-03 0.197D-01 0.376D-01 0.336D-01 0.780D-01 0.313D+00
 Coeff:      0.518D+00
 Gap=     0.096 Goal=   None    Shift=    0.000
 RMSDP=1.07D-08 MaxDP=5.02D-07 DE= 1.36D-11 OVMax= 1.24D-06

 Cycle  14  Pass 1  IDiag  1:
 RMSU=  8.62D-09    CP:  1.00D+00  1.00D+00  6.62D-01  3.65D-01  5.36D-01
                    CP:  8.56D-01  7.49D-01
 E= -1682.59779005144     Delta-E=       -0.000000000022 Rises=F Damp=F
 DIIS: error= 5.51D-08 at cycle   8 NSaved=   8.
 NSaved= 8 IEnMin= 8 EnMin= -1682.59779005144     IErMin= 8 ErrMin= 5.51D-08
 ErrMax= 5.51D-08  0.00D+00 EMaxC= 1.00D-01 BMatC= 2.20D-12 BMatP= 1.41D-11
 IDIUse=1 WtCom= 1.00D+00 WtEn= 0.00D+00
 Coeff-Com: -0.171D-04-0.325D-03-0.705D-03-0.881D-03 0.346D-02 0.660D-01
 Coeff-Com:  0.303D+00 0.629D+00
 Coeff:     -0.171D-04-0.325D-03-0.705D-03-0.881D-03 0.346D-02 0.660D-01
 Coeff:      0.303D+00 0.629D+00
 Gap=     0.096 Goal=   None    Shift=    0.000
 RMSDP=5.04D-09 MaxDP=2.81D-07 DE=-2.18D-11 OVMax= 7.20D-07

 SCF Done:  E(RB3LYP) =  -1682.59779005     A.U. after   14 cycles
            NFock= 14  Conv=0.50D-08     -V/T= 2.0083
 KE= 1.668803920533D+03 PE=-1.009180412740D+04 EE= 3.655421117764D+03
 Leave Link  502 at Thu Mar 14 09:24:37 2024, MaxMem= 32212254720 cpu:             641.1 elap:              21.4
 (Enter /home/<user>/g16/l801.exe)
 DoSCS=F DFT=T ScalE2(SS,OS)=  1.000000  1.000000
 ExpMin= 1.17D-01 ExpMax= 2.19D+04 ExpMxC= 3.30D+03 IAcc=3 IRadAn=         5 AccDes= 0.00D+00
 HarFok:  IExCor=  205 AccDes= 0.00D+00 IRadAn=         5 IDoV=-2 UseB2=F ITyADJ=14
 ICtDFT= 12500011 ScaDFX=  1.000000  1.000000  1.000000  1.000000
 GSVD:  LWork=       -1665 too small for GESVD, short by        7400 words or        7400 for optimal perf.
 Largest valence mixing into a core orbital is  1.10D-04
 Largest core mixing into a valence orbital is  2.82D-05
 Range of M.O.s used for correlation:    38   549
 NBasis=   549 NAE=   118 NBE=   118 NFC=    37 NFV=     0
 NROrb=    512 NOA=    81 NOB=    81 NVA=   431 NVB=   431

 **** Warning!!: The smallest alpha delta epsilon is  0.96008873D-01

 Leave Link  801 at Thu Mar 14 09:24:38 2024, MaxMem= 32212254720 cpu:               2.7 elap:               0.1
 (Enter /home/<user>/g16/l914.exe)
 RHF ground state
 Two-electron integrals replicated using symmetry.
 MDV= 32212254720 DFT=T DoStab=F Mixed=T DoRPA=T DoScal=F NonHer=T
 Making orbital integer symmetry assigments:
 Orbital symmetries:
       Occupied  (A) (A) (A) (A) (A) (A) (A) (A) (A) (A) (A) (A)
                 (A) (A) (A) (A) (A) (A) (A) (A) (A) (A) (A) (A)
                 (A) (A) (A) (A) (A) (A) (A) (A) (A) (A) (A) (A)
                 (A) (A) (A) (A) (A) (A) (A) (A) (A) (A) (A) (A)
                 (A) (A) (A) (A) (A) (A) (A) (A) (A) (A) (A) (A)
                 (A) (A) (A) (A) (A) (A) (A) (A) (A) (A) (A) (A)
                 (A) (A) (A) (A) (A) (A) (A) (A) (A) (A) (A) (A)
                 (A) (A) (A) (A) (A) (A) (A) (A) (A) (A) (A) (A)
                 (A) (A) (A) (A) (A) (A) (A) (A) (A) (A) (A) (A)
                 (A) (A) (A) (A) (A) (A) (A) (A) (A) (A)
       Virtual   (A) (A) (A) (A) (A) (A) (A) (A) (A) (A) (A) (A)
                 (A) (A) (A) (A) (A) (A) (A) (A) (A) (A) (A) (A)
                 (A) (A) (A) (A) (A) (A) (A) (A) (A) (A) (A) (A)
                 (A) (A) (A) (A) (A) (A) (A) (A) (A) (A) (A) (A)
                 (A) (A) (A) (A) (A) (A) (A) (A) (A) (A) (A) (A)
                 (A) (A) (A) (A) (A) (A) (A) (A) (A) (A) (A) (A)
                 (A) (A) (A) (A) (A) (A) (A) (A) (A) (A) (A) (A)
                 (A) (A) (A) (A) (A) (A) (A) (A) (A) (A) (A) (A)
                 (A) (A) (A) (A) (A) (A) (A) (A) (A) (A) (A) (A)
                 (A) (A) (A) (A) (A) (A) (A) (A) (A) (A) (A) (A)
                 (A) (A) (A) (A) (A) (A) (A) (A) (A) (A) (A) (A)
                 (A) (A) (A) (A) (A) (A) (A) (A) (A) (A) (A) (A)
                 (A) (A) (A) (A) (A) (A) (A) (A) (A) (A) (A) (A)
                 (A) (A) (A) (A) (A) (A) (A) (A) (A) (A) (A) (A)
                 (A) (A) (A) (A) (A) (A) (A) (A) (A) (A) (A) (A)
                 (A) (A) (A) (A) (A) (A) (A) (A) (A) (A) (A) (A)
                 (A) (A) (A) (A) (A) (A) (A) (A) (A) (A) (A) (A)
                 (A) (A) (A) (A) (A) (A) (A) (A) (A) (A) (A) (A)
                 (A) (A) (A) (A) (A) (A) (A) (A) (A) (A) (A) (A)
                 (A) (A) (A) (A) (A) (A) (A) (A) (A) (A) (A) (A)
                 (A) (A) (A) (A) (A) (A) (A) (A) (A) (A) (A) (A)
                 (A) (A) (A) (A) (A) (A) (A) (A) (A) (A) (A) (A)
                 (A) (A) (A) (A) (A) (A) (A) (A) (A) (A) (A) (A)
                 (A) (A) (A) (A) (A) (A) (A) (A) (A) (A) (A) (A)
                 (A) (A) (A) (A) (A) (A) (A) (A) (A) (A) (A) (A)
                 (A) (A) (A) (A) (A) (A) (A) (A) (A) (A) (A) (A)
                 (A) (A) (A) (A) (A) (A) (A) (A) (A) (A) (A) (A)
                 (A) (A) (A) (A) (A) (A) (A) (A) (A) (A) (A) (A)
                 (A) (A) (A) (A) (A) (A) (A) (A) (A) (A) (A) (A)
                 (A) (A) (A) (A) (A) (A) (A) (A) (A) (A) (A) (A)
                 (A) (A) (A) (A) (A) (A) (A) (A) (A) (A) (A) (A)
                 (A) (A) (A) (A) (A) (A) (A) (A) (A) (A) (A) (A)
                 (A) (A) (A) (A) (A) (A) (A) (A) (A) (A) (A) (A)
                 (A) (A) (A) (A) (A) (A) (A) (A) (A) (A) (A) (A)
                 (A) (A) (A) (A) (A) (A) (A) (A) (A) (A) (A) (A)
                 (A) (A) (A) (A) (A) (A) (A) (A) (A) (A) (A)
 Generating guess from densities on rwf.
 Convergence on wavefunction:    0.000001000000000
 Davidson Disk Diagonalization:  ConvIn= 1.00D-06 SkipCon=T Conv= 1.00D-06.
 Max sub-space:  2000 roots to seek:     3 dimension of matrix:        69822
 Iteration     1 Dimension     6 NMult     0 NNew      6
 CISAX will form     6 AO SS matrices at one time.
 NMat=     6 NSing=     6 JSym2X= 0.
 FoFJK:  IHMeth= 1 ICntrl=       0 DoSepK=F KAlg= 0 I1Cent=           0 FoldK=F
 IRaf= 550000000 NMat=      12 IRICut=       1 DoRegI=T DoRafI=F ISym2E= 0 IDoP0=0 IntGTp=1.
 FoFCou: FMM=F IPFlag=           0 FMFlag=      100000 FMFlg1=           0
         NFxFlg=           0 DoJE=F BraDBF=F KetDBF=F FulRan=T
         wScrn=  0.000000 ICntrl=         0 IOpCl=  0 I1Cent=           0 NGrid=           0
         NMat0=   12 NMatS0=      6 NMatT0=    0 NMatD0=   12 NMtDS0=    0 NMtDT0=    0
 Symmetry not used in FoFCou.
 Excitation Energies [eV] at current iteration:
 Root      1 :     2.245720140117901
 Root      2 :     3.073952724594766
 Root      3 :     3.444760627150687
 Iteration     2 Dimension    12 NMult     6 NNew      6
 CISAX will form     6 AO SS matrices at one time.
 NMat=     6 NSing=     6 JSym2X= 0.
 Root      1 not converged, maximum delta is    0.012686665859243
 Root      2 not converged, maximum delta is    0.015298541356740
 Root      3 not converged, maximum delta is    0.015180255343546
 Excitation Energies [eV] at current iteration:
 Root      1 :     2.212900906185113   Change is   -0.032819233932787
 Root      2 :     3.043904724015376   Change is   -0.030048000579390
 Root      3 :     3.420712555760210   Change is   -0.024048071390476
 Iteration     3 Dimension    18 NMult    12 NNew      6
 CISAX will form     6 AO SS matrices at one time.
 NMat=     6 NSing=     6 JSym2X= 0.
 Root      1 not converged, maximum delta is    0.008352907513885
 Root      2 not converged, maximum delta is    0.004304985652784
 Root      3 not converged, maximum delta is    0.001569849469570
 Excitation Energies [eV] at current iteration:
 Root      1 :     2.211643886006398   Change is   -0.001257020178716
 Root      2 :     3.042988452541660   Change is   -0.000916271473716
 Root      3 :     3.420475062988963   Change is   -0.000237492771248
 Iteration     4 Dimension    24 NMult    18 NNew      6
 CISAX will form     6 AO SS matrices at one time.
 NMat=     6 NSing=     6 JSym2X= 0.
 Root      1 not converged, maximum delta is    0.001217571061122
 Root      2 not converged, maximum delta is    0.002332564455029
 Root      3 not converged, maximum delta is    0.003575146373359
 Excitation Energies [eV] at current iteration:
 Root      1 :     2.211452830110096   Change is   -0.000191055896302
 Root      2 :     3.042766569936221   Change is   -0.000221882605438
 Root      3 :     3.420401980407084   Change is   -0.000073082581879
 Iteration     5 Dimension    30 NMult    24 NNew      6
 CISAX will form     6 AO SS matrices at one time.
 NMat=     6 NSing=     6 JSym2X= 0.
 Root      1 not converged, maximum delta is    0.000308342138327
 Root      2 not converged, maximum delta is    0.000520773367298
 Root      3 not converged, maximum delta is    0.005341135003247
 Excitation Energies [eV] at current iteration:
 Root      1 :     2.211437032374951   Change is   -0.000015797735145
 Root      2 :     3.042731585256331   Change is   -0.000034984679890
 Root      3 :     3.420363150064579   Change is   -0.000038830342505
 Iteration     6 Dimension    36 NMult    30 NNew      6
 CISAX will form     6 AO SS matrices at one time.
 NMat=     6 NSing=     6 JSym2X= 0.
 Root      1 not converged, maximum delta is    0.000143784158110
 Root      2 not converged, maximum delta is    0.000434709837216
 Root      3 not converged, maximum delta is    0.002615263136424
 Excitation Energies [eV] at current iteration:
 Root      1 :     2.211435059248184   Change is   -0.000001973126767
 Root      2 :     3.042726209151105   Change is   -0.000005376105226
 Root      3 :     3.420351853497137   Change is   -0.000011296567442
 Iteration     7 Dimension    42 NMult    36 NNew      6
 CISAX will form     6 AO SS matrices at one time.
 NMat=     6 NSing=     6 JSym2X= 0.
 Root      1 not converged, maximum delta is    0.000046147374042
 Root      2 not converged, maximum delta is    0.000177169659454
 Root      3 not converged, maximum delta is    0.001925278195471
 Excitation Energies [eV] at current iteration:
 Root      1 :     2.211434798560462   Change is   -0.000000260687722
 Root      2 :     3.042725338713274   Change is   -0.000000870437832
 Root      3 :     3.420345190015941   Change is   -0.000006663481197
 Iteration     8 Dimension    48 NMult    42 NNew      6
 CISAX will form     6 AO SS matrices at one time.
 NMat=     6 NSing=     6 JSym2X= 0.
 Root      1 not converged, maximum delta is    0.000008935333012
 Root      2 not converged, maximum delta is    0.000055402944485
 Root      3 not converged, maximum delta is    0.001138991269384
 Excitation Energies [eV] at current iteration:
 Root      1 :     2.211434773275190   Change is   -0.000000025285272
 Root      2 :     3.042725219627570   Change is   -0.000000119085704
 Root      3 :     3.420343523869663   Change is   -0.000001666146278
 Iteration     9 Dimension    54 NMult    48 NNew      6
 CISAX will form     6 AO SS matrices at one time.
 NMat=     6 NSing=     6 JSym2X= 0.
 Root      1 not converged, maximum delta is    0.000003808949517
 Root      2 not converged, maximum delta is    0.000013049228873
 Root      3 not converged, maximum delta is    0.000435984046768
 Excitation Energies [eV] at current iteration:
 Root      1 :     2.211434769354205   Change is   -0.000000003920985
 Root      2 :     3.042725201769610   Change is   -0.000000017857960
 Root      3 :     3.420343100881166   Change is   -0.000000422988498
 Iteration    10 Dimension    60 NMult    54 NNew      6
 CISAX will form     6 AO SS matrices at one time.
 NMat=     6 NSing=     6 JSym2X= 0.
 Root      1 not converged, maximum delta is    0.000001092859010
 Root      2 not converged, maximum delta is    0.000003269217904
 Root      3 not converged, maximum delta is    0.000091918669514
 Excitation Energies [eV] at current iteration:
 Root      1 :     2.211434769056666   Change is   -0.000000000297539
 Root      2 :     3.042725200014349   Change is   -0.000000001755261
 Root      3 :     3.420343042470292   Change is   -0.000000058410873
 Iteration    11 Dimension    66 NMult    60 NNew      6
 CISAX will form     6 AO SS matrices at one time.
 NMat=     6 NSing=     6 JSym2X= 0.
 Root      1 has converged.
 Root      2 not converged, maximum delta is    0.000001463133560
 Root      3 not converged, maximum delta is    0.000025166756522
 Excitation Energies [eV] at current iteration:
 Root      1 :     2.211434769028191   Change is   -0.000000000028475
 Root      2 :     3.042725199811851   Change is   -0.000000000202498
 Root      3 :     3.420343032738812   Change is   -0.000000009731480
 Iteration    12 Dimension    70 NMult    66 NNew      4
 CISAX will form     4 AO SS matrices at one time.
 NMat=     4 NSing=     4 JSym2X= 0.
 Root      1 has converged.
 Root      2 has converged.
 Root      3 not converged, maximum delta is    0.000005035200602
 Excitation Energies [eV] at current iteration:
 Root      1 :     2.211434769027708   Change is   -0.000000000000483
 Root      2 :     3.042725199794885   Change is   -0.000000000016967
 Root      3 :     3.420343031728169   Change is   -0.000000001010643
 Iteration    13 Dimension    72 NMult    70 NNew      2
 CISAX will form     2 AO SS matrices at one time.
 NMat=     2 NSing=     2 JSym2X= 0.
 Root      1 has converged.
 Root      2 has converged.
 Root      3 not converged, maximum delta is    0.000001000449758
 Excitation Energies [eV] at current iteration:
 Root      1 :     2.211434769027671   Change is   -0.000000000000037
 Root      2 :     3.042725199794803   Change is   -0.000000000000081
 Root      3 :     3.420343031620902   Change is   -0.000000000107268
 Iteration    14 Dimension    74 NMult    72 NNew      2
 CISAX will form     2 AO SS matrices at one time.
 NMat=     2 NSing=     2 JSym2X= 0.
 Root      1 has converged.
 Root      2 has converged.
 Root      3 has converged.
 Excitation Energies [eV] at current iteration:
 Root      1 :     2.211434769027633   Change is   -0.000000000000037
 Root      2 :     3.042725199794614   Change is   -0.000000000000189
 Root      3 :     3.420343031609438   Change is   -0.000000000011464
 Convergence achieved on expansion vectors.
 ***********************************************************************
 Excited states from <AA,BB:AA,BB> singles matrix:
 ***********************************************************************
 
 1PDM for each excited state written to RWF  633
 Ground to excited state transition densities written to RWF  633
 Ground to excited state transition electric dipole moments (Au):
       state          X           Y           Z        Dip. S.      Osc.
         1        -2.5854      0.0781      0.0379      6.6917      0.3625
         2         0.2954     -0.2730     -0.0321      0.1628      0.0121
         3        -0.0005      0.0345      0.0032      0.0012      0.0001
 Ground to excited state transition velocity dipole moments (Au):
       state          X           Y           Z        Dip. S.      Osc.
         1         0.2121     -0.0058     -0.0030      0.0450      0.3693
         2        -0.0351      0.0340      0.0043      0.0024      0.0143
         3         0.0018     -0.0056     -0.0001      0.0000      0.0002
 Ground to excited state transition magnetic dipole moments (Au):
       state          X           Y           Z
         1        -0.0149     -0.1797      0.0197
         2        -0.0043      0.0443     -0.1168
         3        -0.0173     -0.0828     -0.1840
 Ground to excited state transition velocity quadrupole moments (Au):
       state          XX          YY          ZZ          XY          XZ          YZ
         1        -0.0290      0.0125      0.0047     -0.1040     -0.0463      0.0321
         2        -1.8843      0.1880      0.0059      0.1821      0.0386      0.0655
         3        -0.0041      0.0153     -0.0064     -0.0700      0.0009      0.0026
 <0|del|b> * <b|rxdel|0> + <0|del|b> * <b|delr+rdel|0>
 Rotatory Strengths (R) in cgs (10**-40 erg-esu-cm/Gauss)
       state          XX          YY          ZZ    R(velocity)    E-M Angle
         1         4.4990     14.2433    -37.5816     -6.2798       93.22
         2         1.4944    -10.8453     16.6649      2.4380       79.13
         3         1.4011     -0.0388      1.2002      0.8542       67.60
 1/2[<0|r|b>*<b|rxdel|0> + (<0|rxdel|b>*<b|r|0>)*]
 Rotatory Strengths (R) in cgs (10**-40 erg-esu-cm/Gauss)
       state          XX          YY          ZZ     R(length)
         1       -27.1769      9.9217     -0.5268     -5.9273
         2         0.9049      8.5561     -2.6504      2.2702
         3        -0.0058      2.0165      0.4150      0.8086
  1/2[<0|del|b>*<b|r|0> + (<0|r|b>*<b|del|0>)*] (Au)
       state          X           Y           Z        Dip. S.   Osc.(frdel)
         1        -0.5483     -0.0005     -0.0001      0.5489      0.3659
         2        -0.0104     -0.0093     -0.0001      0.0198      0.0132
         3        -0.0000     -0.0002     -0.0000      0.0002      0.0001

 Excitation energies and oscillator strengths:
 
 Excited State   1:      Singlet-A      2.2114 eV  560.65 nm  f=0.3625  <S**2>=0.000
     118 ->119         0.70235
 This state for optimization and/or second-order correction.
 Total Energy, E(TD-HF/TD-DFT) =  -1682.51652132    
 Copying the excited state density for this state as the 1-particle RhoCI density.
 
 Excited State   2:      Singlet-A      3.0427 eV  407.48 nm  f=0.0121  <S**2>=0.000
     117 ->119         0.69813
 
 Excited State   3:      Singlet-A      3.4203 eV  362.49 nm  f=0.0001  <S**2>=0.000
     113 ->119         0.12429
     114 ->119        -0.15872
     116 ->119         0.67218
 SavETr:  write IOETrn=   770 NScale= 10 NData=  16 NLR=1 NState=    3 LETran=      64.
 The selected state is a singlet.
 CISGrd: IGrad=2 NXY=2 DFT=T
 CISAX will form     1 AO SS matrices at one time.
 NMat=     1 NSing=     1 JSym2X= 0.
 Leave Link  914 at Thu Mar 14 09:27:21 2024, MaxMem= 32212254720 cpu:            4894.9 elap:             163.2
 (Enter /home/<user>/g16/l1002.exe)
 Minotr:  Closed shell wavefunction.
          Computing CIS/TDA/TD derivatives.
          Using Z-Vector for PSCF gradient.
          Skipping F1 and S1 gradient terms here.
          IDoAtm=11111111111111111111111111111111111111111111111111
          IDoAtm=11111111
          Frozen-core window.
          Direct CPHF calculation.
          Differentiating once with respect to electric field.
                with respect to dipole field.
          Differentiating once with respect to nuclear coordinates.
          Requested convergence is 1.0D-10 RMS, and 1.0D-09 maximum.
          NewPWx=F KeepS1=T KeepF1=T KeepIn=T MapXYZ=F SortEE=F KeepMc=T.
 Two-electron integral symmetry used by symmetrizing perturbed Fock matrices.
          MDV=   32212254720 using IRadAn=       5.
          Solving linear equations separately, MaxMat=     360.
          There are     1 degrees of freedom in the 1st order CPHF.  IDoFFX=0 NUNeed=     1.
 FoFJK:  IHMeth= 1 ICntrl=       0 DoSepK=F KAlg= 0 I1Cent=           0 FoldK=F
 IRaf= 580000000 NMat=       1 IRICut=       1 DoRegI=T DoRafI=F ISym2E=-1 IDoP0=0 IntGTp=1.
 FoFCou: FMM=F IPFlag=           0 FMFlag=      100000 FMFlg1=           0
         NFxFlg=           0 DoJE=F BraDBF=F KetDBF=F FulRan=T
         wScrn=  0.000000 ICntrl=         0 IOpCl=  0 I1Cent=           0 NGrid=           0
         NMat0=    1 NMatS0=      1 NMatT0=    0 NMatD0=    1 NMtDS0=    0 NMtDT0=    0
 Petite list used in FoFCou.
 LinEq1:  Iter=  0 NonCon=     1 RMS=6.26D-03 Max=6.73D-01 NDo=     1
 AX will form     1 AO Fock derivatives at one time.
 LinEq1:  Iter=  1 NonCon=     1 RMS=3.85D-03 Max=5.03D-01 NDo=     1
 LinEq1:  Iter=  2 NonCon=     1 RMS=3.12D-03 Max=3.91D-01 NDo=     1
 LinEq1:  Iter=  3 NonCon=     1 RMS=2.79D-03 Max=2.25D-01 NDo=     1
 LinEq1:  Iter=  4 NonCon=     1 RMS=2.52D-03 Max=1.92D-01 NDo=     1
 LinEq1:  Iter=  5 NonCon=     1 RMS=1.60D-03 Max=8.40D-02 NDo=     1
 LinEq1:  Iter=  6 NonCon=     1 RMS=9.98D-04 Max=3.95D-02 NDo=     1
 LinEq1:  Iter=  7 NonCon=     1 RMS=6.63D-04 Max=2.93D-02 NDo=     1
 LinEq1:  Iter=  8 NonCon=     1 RMS=4.53D-04 Max=2.29D-02 NDo=     1
 LinEq1:  Iter=  9 NonCon=     1 RMS=3.22D-04 Max=1.44D-02 NDo=     1
 LinEq1:  Iter= 10 NonCon=     1 RMS=2.15D-04 Max=1.25D-02 NDo=     1
 LinEq1:  Iter= 11 NonCon=     1 RMS=1.48D-04 Max=8.90D-03 NDo=     1
 LinEq1:  Iter= 12 NonCon=     1 RMS=9.20D-05 Max=4.63D-03 NDo=     1
 LinEq1:  Iter= 13 NonCon=     1 RMS=6.27D-05 Max=2.85D-03 NDo=     1
 LinEq1:  Iter= 14 NonCon=     1 RMS=4.45D-05 Max=2.02D-03 NDo=     1
 LinEq1:  Iter= 15 NonCon=     1 RMS=3.16D-05 Max=1.76D-03 NDo=     1
 LinEq1:  Iter= 16 NonCon=     1 RMS=1.64D-05 Max=9.65D-04 NDo=     1
 LinEq1:  Iter= 17 NonCon=     1 RMS=1.10D-05 Max=4.21D-04 NDo=     1
 LinEq1:  Iter= 18 NonCon=     1 RMS=5.98D-06 Max=3.82D-04 NDo=     1
 LinEq1:  Iter= 19 NonCon=     1 RMS=3.02D-06 Max=1.51D-04 NDo=     1
 LinEq1:  Iter= 20 NonCon=     1 RMS=1.62D-06 Max=7.45D-05 NDo=     1
 LinEq1:  Iter= 21 NonCon=     1 RMS=1.14D-06 Max=4.59D-05 NDo=     1
 LinEq1:  Iter= 22 NonCon=     1 RMS=6.26D-07 Max=3.28D-05 NDo=     1
 LinEq1:  Iter= 23 NonCon=     1 RMS=3.73D-07 Max=1.67D-05 NDo=     1
 LinEq1:  Iter= 24 NonCon=     1 RMS=1.82D-07 Max=8.72D-06 NDo=     1
 LinEq1:  Iter= 25 NonCon=     1 RMS=1.17D-07 Max=5.27D-06 NDo=     1
 LinEq1:  Iter= 26 NonCon=     1 RMS=5.86D-08 Max=2.41D-06 NDo=     1
 LinEq1:  Iter= 27 NonCon=     1 RMS=3.27D-08 Max=1.54D-06 NDo=     1
 LinEq1:  Iter= 28 NonCon=     1 RMS=1.75D-08 Max=5.97D-07 NDo=     1
 LinEq1:  Iter= 29 NonCon=     1 RMS=7.69D-09 Max=2.35D-07 NDo=     1
 LinEq1:  Iter= 30 NonCon=     1 RMS=4.26D-09 Max=1.45D-07 NDo=     1
 LinEq1:  Iter= 31 NonCon=     1 RMS=2.37D-09 Max=7.32D-08 NDo=     1
 LinEq1:  Iter= 32 NonCon=     1 RMS=1.22D-09 Max=4.17D-08 NDo=     1
 LinEq1:  Iter= 33 NonCon=     1 RMS=6.63D-10 Max=2.89D-08 NDo=     1
 LinEq1:  Iter= 34 NonCon=     1 RMS=3.90D-10 Max=1.41D-08 NDo=     1
 LinEq1:  Iter= 35 NonCon=     1 RMS=2.29D-10 Max=9.74D-09 NDo=     1
 LinEq1:  Iter= 36 NonCon=     1 RMS=1.05D-10 Max=3.94D-09 NDo=     1
 LinEq1:  Iter= 37 NonCon=     1 RMS=5.41D-11 Max=2.07D-09 NDo=     1
 LinEq1:  Iter= 38 NonCon=     0 RMS=2.33D-11 Max=7.49D-10 NDo=     1
 Linear equations converged to 1.000D-10 1.000D-09 after    38 iterations.
 End of Minotr F.D. properties file   721 does not exist.
 End of Minotr F.D. properties file   722 does not exist.
 End of Minotr F.D. properties file   788 does not exist.
 Leave Link 1002 at Thu Mar 14 09:28:55 2024, MaxMem= 32212254720 cpu:            2781.3 elap:              93.7
 (Enter /home/<user>/g16/l701.exe)
 ... and contract with generalized density number  6.
 Compute integral first derivatives.
 Leave Link  701 at Thu Mar 14 09:28:55 2024, MaxMem= 32212254720 cpu:               6.6 elap:               0.2
 (Enter /home/<user>/g16/l702.exe)
 L702 exits ... SP integral derivatives will be done elsewhere.
 Leave Link  702 at Thu Mar 14 09:28:55 2024, MaxMem= 32212254720 cpu:               0.9 elap:               0.0
 (Enter /home/<user>/g16/l703.exe)
 Integral derivatives from FoFJK, PRISM(SPDF).
 Compute integral first derivatives, UseDBF=F ICtDFT=           0.
 Calling FoFJK, ICntrl=  10005127 FMM=F ISym2X=0 I1Cent= 0 IOpClX= 0 NMat=1 NMatS=1 NMatT=0.
 FoFJK:  IHMeth= 1 ICntrl=10005127 DoSepK=F KAlg= 0 I1Cent=           0 FoldK=F
 IRaf=         0 NMat=       1 IRICut=       1 DoRegI=T DoRafI=F ISym2E= 0 IDoP0=0 IntGTp=1.
 FoFCou: FMM=F IPFlag=           0 FMFlag=      100000 FMFlg1=         800
         NFxFlg=           0 DoJE=F BraDBF=F KetDBF=F FulRan=T
         wScrn=  0.000000 ICntrl=  10005127 IOpCl=  0 I1Cent=           0 NGrid=           0
         NMat0=    1 NMatS0=      1 NMatT0=    0 NMatD0=    1 NMtDS0=    0 NMtDT0=    0
 Symmetry not used in FoFCou.
 Leave Link  703 at Thu Mar 14 09:29:03 2024, MaxMem= 32212254720 cpu:             222.5 elap:               7.4
 (Enter /home/<user>/g16/l716.exe)
 Dipole        =-2.42398995D+00-1.58175007D+00-2.72802925D-01
 ***** Axes restored to original set *****
 -------------------------------------------------------------------
 Center     Atomic                   Forces (Hartrees/Bohr)
 Number     Number              X              Y              Z
 -------------------------------------------------------------------
      1        6          -0.005105786    0.003164378   -0.000144590
      2        6           0.006489290   -0.002864049   -0.000662963
      3        6          -0.004168986   -0.000387963   -0.001665876
      4        6           0.003264346   -0.000273083    0.000269111
      5        6          -0.003361996   -0.000038686    0.000303698
      6        6           0.001495679   -0.001727749    0.000438786
      7        1           0.000082168   -0.001514839    0.000577850
      8        1          -0.000202382    0.000305972    0.000035674
      9        1          -0.000540222   -0.000365471   -0.000078431
     10        6          -0.000425272    0.001711531   -0.000489430
     11        6          -0.001280677   -0.000078958    0.000068335
     12        6          -0.000552620    0.000811302   -0.000218491
     13        6          -0.000184596   -0.000162723    0.000045294
     14        6           0.000192050   -0.000499518    0.000136721
     15        6          -0.000684242   -0.000375192    0.000110929
     16        6           0.002738043   -0.000395544    0.000060718
     17        1          -0.000298595   -0.000003046    0.000009400
     18        1          -0.000171862    0.000062249   -0.000013174
     19        1          -0.000343829   -0.000283804    0.000090738
     20        1           0.000424484   -0.000164584    0.000034623
     21        6          -0.000147027    0.000150231   -0.000018165
     22        1          -0.000008984   -0.000026120   -0.000040182
     23        1           0.000111244   -0.000047319   -0.000024019
     24        1           0.000010171   -0.000001705   -0.000127743
     25        6          -0.000164581    0.000121658   -0.000048145
     26        1           0.000113552   -0.000051383    0.000027258
     27        1           0.000001321   -0.000008458    0.000050533
     28        1           0.000017842    0.000056842    0.000120864
     29        6          -0.004280342    0.008134377    0.002354741
     30        6           0.006761961   -0.004550509   -0.003421768
     31        6           0.006566036   -0.005587548    0.000880490
     32        6          -0.007792538   -0.000503203   -0.002031934
     33        6          -0.007217452   -0.004277931    0.000704050
     34        1          -0.000575654    0.002043259    0.000012948
     35        6           0.005498911    0.005851157    0.001847449
     36        1           0.001305230    0.001743142   -0.000085857
     37        7          -0.010073820   -0.000903495    0.000120536
     38        7           0.010060796   -0.003950900   -0.000251684
     39       16           0.001955426    0.006951194    0.001871086
     40        6          -0.005561439   -0.000792329   -0.000308690
     41        6           0.004180989    0.001933513   -0.000023998
     42        6           0.002881712   -0.001831493   -0.001462992
     43        6          -0.000881219   -0.000632006    0.000272991
     44        1          -0.000020126   -0.001097606    0.000455373
     45        6          -0.001645989   -0.000214554    0.000425505
     46        1           0.000433292    0.000222439   -0.000011675
     47        6           0.000932021    0.000462077   -0.000067113
     48        1           0.000170438   -0.000254422   -0.000131243
     49        1           0.000252627    0.000202371    0.000017604
     50        6          -0.000437465   -0.000214810   -0.000571366
     51        1           0.000045409    0.000017089    0.000143515
     52        1          -0.000007318    0.000043104    0.000139675
     53        6           0.000183868    0.000143081    0.000461587
     54        1          -0.000013888   -0.000019301   -0.000100704
     55        1          -0.000000633   -0.000007423   -0.000033548
     56        7          -0.000059676   -0.000002018   -0.000126262
     57        1           0.000019832    0.000024507    0.000046948
     58        1           0.000020474   -0.000045730    0.000025013
 -------------------------------------------------------------------
 Cartesian Forces:  Max     0.010073820 RMS     0.002348060
 Leave Link  716 at Thu Mar 14 09:29:03 2024, MaxMem= 32212254720 cpu:               1.6 elap:               0.1
 (Enter /home/<user>/g16/l103.exe)

 GradGradGradGradGradGradGradGradGradGradGradGradGradGradGradGradGradGrad
 Berny optimization.
 Using GEDIIS/GDIIS optimizer.
 FormGI is forming the generalized inverse of G from B-inverse, IUseBI=4.
 Internal  Forces:  Max     0.008517612 RMS     0.001273639
 Search for a local minimum.
 Step number   2 out of a maximum of  346
 All quantities printed in internal units (Hartrees-Bohrs-Radians)
 RMS Force = .12736D-02 SwitMx=.10000D-02 MixMth= 1
 Mixed Optimization -- RFO/linear search
 Update second derivatives using D2CorX and points    1    2
 DE= -9.04D-03 DEPred=-9.24D-03 R= 9.78D-01
 TightC=F SS=  1.41D+00  RLast= 3.75D-01 DXNew= 5.0454D-01 1.1253D+00
 Trust test= 9.78D-01 RLast= 3.75D-01 DXMaxT set to 5.05D-01
 ITU=  1  0
 Use linear search instead of GDIIS.
     Eigenvalues ---    0.00230   0.00230   0.00250   0.00611   0.00755
     Eigenvalues ---    0.00810   0.01028   0.01118   0.01249   0.01449
     Eigenvalues ---    0.01469   0.01610   0.01629   0.01644   0.01647
     Eigenvalues ---    0.01666   0.01697   0.01715   0.01735   0.01754
     Eigenvalues ---    0.01886   0.01903   0.02006   0.02026   0.02039
     Eigenvalues ---    0.02072   0.02085   0.02088   0.02088   0.02094
     Eigenvalues ---    0.02112   0.02114   0.02119   0.02121   0.02122
     Eigenvalues ---    0.02134   0.02142   0.02145   0.02146   0.02154
     Eigenvalues ---    0.02159   0.02161   0.02187   0.02300   0.04049
     Eigenvalues ---    0.04277   0.04351   0.04483   0.05414   0.05418
     Eigenvalues ---    0.05431   0.05515   0.05515   0.05556   0.06038
     Eigenvalues ---    0.08044   0.08965   0.09275   0.11542   0.12607
     Eigenvalues ---    0.12822   0.15876   0.15982   0.15992   0.15994
     Eigenvalues ---    0.15999   0.16000   0.16000   0.16000   0.16000
     Eigenvalues ---    0.16000   0.16000   0.16000   0.16000   0.16000
     Eigenvalues ---    0.16000   0.16000   0.16000   0.16000   0.16000
     Eigenvalues ---    0.16000   0.16095   0.19000   0.21858   0.21914
     Eigenvalues ---    0.21954   0.22005   0.22120   0.22453   0.22514
     Eigenvalues ---    0.22626   0.22976   0.23716   0.24053   0.24529
     Eigenvalues ---    0.24671   0.24978   0.24980   0.24986   0.24994
     Eigenvalues ---    0.24997   0.24998   0.24998   0.25000   0.27719
     Eigenvalues ---    0.28052   0.28069   0.28501   0.28612   0.29002
     Eigenvalues ---    0.31179   0.33128   0.33780   0.33813   0.34027
     Eigenvalues ---    0.34091   0.34101   0.34104   0.34105   0.34131
     Eigenvalues ---    0.34276   0.34289   0.34510   0.34611   0.35033
     Eigenvalues ---    0.35049   0.35082   0.35113   0.35151   0.35158
     Eigenvalues ---    0.35163   0.35187   0.35190   0.35227   0.35284
     Eigenvalues ---    0.35494   0.35589   0.36141   0.36239   0.37007
     Eigenvalues ---    0.37994   0.38351   0.39179   0.40737   0.41564
     Eigenvalues ---    0.41675   0.41726   0.42032   0.42173   0.42679
     Eigenvalues ---    0.43606   0.44364   0.44523   0.44809   0.44947
     Eigenvalues ---    0.44986   0.45009   0.45797   0.45943   0.46082
     Eigenvalues ---    0.46383   0.46873   0.46977   0.47087   0.47570
     Eigenvalues ---    0.48308   0.54564   0.56417
 RFO step:  Lambda=-2.69311638D-03 EMin= 2.29999996D-03
 Quartic linear search produced a step of  0.10721.
 Iteration  1 RMS(Cart)=  0.09861275 RMS(Int)=  0.00103246
 Iteration  2 RMS(Cart)=  0.00490491 RMS(Int)=  0.00003908
 Iteration  3 RMS(Cart)=  0.00000883 RMS(Int)=  0.00003905
 Iteration  4 RMS(Cart)=  0.00000000 RMS(Int)=  0.00003905
 ITry= 1 IFail=0 DXMaxC= 4.17D-01 DCOld= 1.00D+10 DXMaxT= 5.05D-01 DXLimC= 3.00D+00 Rises=F
 Variable       Old X    -DE/DX   Delta X   Delta X   Delta X     New X
                                 (Linear)    (Quad)   (Total)
    R1        2.69009   0.00324   0.00290   0.00877   0.01169   2.70178
    R2        2.61510   0.00027  -0.00190   0.00064  -0.00125   2.61385
    R3        2.04513  -0.00127  -0.00020  -0.00390  -0.00411   2.04102
    R4        2.68539   0.00289   0.00196   0.00770   0.00968   2.69507
    R5        2.75745   0.00241  -0.00418   0.00728   0.00310   2.76055
    R6        2.60511  -0.00061  -0.00155  -0.00169  -0.00324   2.60187
    R7        2.05174  -0.00034  -0.00027  -0.00108  -0.00135   2.05039
    R8        2.68650  -0.00097   0.00260  -0.00266  -0.00008   2.68642
    R9        2.88687   0.00061  -0.00029   0.00139   0.00110   2.88797
   R10        2.65591  -0.00062   0.00189  -0.00166   0.00022   2.65613
   R11        2.74119  -0.00099  -0.00323  -0.00247  -0.00571   2.73548
   R12        2.05312  -0.00007  -0.00011  -0.00024  -0.00035   2.05277
   R13        2.88642   0.00028  -0.00030   0.00044   0.00015   2.88657
   R14        2.92108  -0.00023   0.00008  -0.00087  -0.00078   2.92030
   R15        2.92051  -0.00019   0.00006  -0.00072  -0.00066   2.91985
   R16        2.62139   0.00081  -0.00063   0.00174   0.00110   2.62250
   R17        2.68032  -0.00087   0.00173  -0.00177  -0.00004   2.68028
   R18        2.64946  -0.00065   0.00039  -0.00150  -0.00112   2.64835
   R19        2.05390   0.00007  -0.00016   0.00021   0.00005   2.05395
   R20        2.65323  -0.00072   0.00102  -0.00155  -0.00053   2.65270
   R21        2.05285   0.00014  -0.00009   0.00044   0.00035   2.05320
   R22        2.62906   0.00051  -0.00105   0.00119   0.00014   2.62920
   R23        2.05242   0.00006  -0.00014   0.00018   0.00004   2.05246
   R24        2.65171   0.00021   0.00131   0.00060   0.00191   2.65362
   R25        2.05297  -0.00008  -0.00014  -0.00026  -0.00040   2.05257
   R26        2.07107   0.00001  -0.00005   0.00004  -0.00001   2.07106
   R27        2.07014   0.00012  -0.00016   0.00036   0.00020   2.07035
   R28        2.06842  -0.00008  -0.00000  -0.00027  -0.00027   2.06815
   R29        2.07030   0.00013  -0.00016   0.00039   0.00023   2.07054
   R30        2.07102   0.00001  -0.00005   0.00004  -0.00001   2.07101
   R31        2.06873  -0.00010   0.00001  -0.00031  -0.00031   2.06842
   R32        2.71334   0.00138  -0.00089   0.00388   0.00300   2.71633
   R33        2.66571   0.00404   0.00582   0.00960   0.01543   2.68114
   R34        2.73009   0.00086  -0.00304   0.00167  -0.00134   2.72875
   R35        2.54530   0.00334   0.00176   0.00642   0.00819   2.55349
   R36        2.62800  -0.00380  -0.00616  -0.01033  -0.01649   2.61151
   R37        2.05442  -0.00128   0.00025  -0.00393  -0.00369   2.05073
   R38        2.71918  -0.00012  -0.00013  -0.00042  -0.00056   2.71861
   R39        2.54499   0.00234   0.00169   0.00428   0.00598   2.55097
   R40        2.66398   0.00289   0.00574   0.00681   0.01253   2.67651
   R41        2.05280  -0.00107   0.00007  -0.00328  -0.00321   2.04959
   R42        2.76780   0.00080  -0.00316   0.00231  -0.00085   2.76695
   R43        3.15513   0.00792   0.00562   0.02065   0.02626   3.18139
   R44        3.15248   0.00632   0.00533   0.01645   0.02176   3.17424
   R45        2.66769   0.00288   0.00117   0.00744   0.00862   2.67630
   R46        2.66961   0.00242   0.00126   0.00626   0.00753   2.67714
   R47        2.62547  -0.00027  -0.00061  -0.00061  -0.00122   2.62425
   R48        2.04665  -0.00109  -0.00010  -0.00333  -0.00343   2.04322
   R49        2.62413  -0.00107  -0.00064  -0.00260  -0.00324   2.62089
   R50        2.05246  -0.00043  -0.00007  -0.00134  -0.00141   2.05105
   R51        2.65446  -0.00058   0.00070  -0.00158  -0.00088   2.65358
   R52        2.05601  -0.00005  -0.00002  -0.00015  -0.00017   2.05584
   R53        2.65570  -0.00014   0.00082  -0.00058   0.00024   2.65594
   R54        2.05611  -0.00009   0.00002  -0.00027  -0.00025   2.05586
   R55        2.85286  -0.00024  -0.00041  -0.00085  -0.00126   2.85159
   R56        2.07138  -0.00004   0.00003  -0.00013  -0.00010   2.07128
   R57        2.07695  -0.00008   0.00000  -0.00025  -0.00025   2.07670
   R58        2.91048   0.00032   0.00024   0.00124   0.00148   2.91196
   R59        2.08754  -0.00004  -0.00008  -0.00014  -0.00022   2.08732
   R60        2.07268  -0.00002  -0.00002  -0.00006  -0.00008   2.07260
   R61        2.77121  -0.00001  -0.00004  -0.00004  -0.00008   2.77112
   R62        1.92724  -0.00000   0.00000  -0.00001  -0.00001   1.92723
   R63        1.92533   0.00002  -0.00000   0.00006   0.00006   1.92539
    A1        2.11512   0.00098  -0.00019   0.00545   0.00527   2.12039
    A2        2.07307  -0.00150  -0.00087  -0.00955  -0.01042   2.06265
    A3        2.09495   0.00052   0.00105   0.00408   0.00512   2.10007
    A4        2.07702  -0.00433   0.00073  -0.01789  -0.01715   2.05988
    A5        2.11073   0.00499  -0.00140   0.02109   0.01966   2.13038
    A6        2.09534  -0.00067   0.00068  -0.00336  -0.00271   2.09263
    A7        2.09400   0.00230  -0.00054   0.01075   0.01021   2.10420
    A8        2.08279  -0.00109  -0.00001  -0.00510  -0.00512   2.07767
    A9        2.10597  -0.00121   0.00054  -0.00592  -0.00539   2.10057
   A10        2.09789   0.00087  -0.00038   0.00310   0.00270   2.10060
   A11        2.24654   0.00043   0.00002   0.00419   0.00422   2.25077
   A12        1.93871  -0.00130   0.00036  -0.00727  -0.00691   1.93180
   A13        2.10427  -0.00148   0.00100  -0.00832  -0.00735   2.09691
   A14        1.89367   0.00089  -0.00018   0.00430   0.00413   1.89780
   A15        2.28522   0.00059  -0.00081   0.00404   0.00324   2.28846
   A16        2.07798   0.00165  -0.00064   0.00695   0.00629   2.08427
   A17        2.09188  -0.00018   0.00024   0.00086   0.00111   2.09299
   A18        2.11332  -0.00147   0.00040  -0.00781  -0.00740   2.10592
   A19        1.75713   0.00086  -0.00084   0.00669   0.00585   1.76298
   A20        1.94560  -0.00032   0.00018  -0.00143  -0.00126   1.94434
   A21        1.94597  -0.00028   0.00012  -0.00097  -0.00085   1.94512
   A22        1.94431  -0.00030   0.00012  -0.00135  -0.00123   1.94308
   A23        1.94501  -0.00032   0.00008  -0.00138  -0.00130   1.94371
   A24        1.92120   0.00036   0.00027  -0.00107  -0.00081   1.92039
   A25        2.24806   0.00065  -0.00007   0.00405   0.00398   2.25203
   A26        1.94141  -0.00108   0.00053  -0.00634  -0.00581   1.93559
   A27        2.09372   0.00043  -0.00046   0.00230   0.00184   2.09556
   A28        2.07713   0.00036  -0.00033   0.00134   0.00102   2.07815
   A29        2.11069   0.00012   0.00010   0.00134   0.00144   2.11213
   A30        2.09536  -0.00048   0.00022  -0.00268  -0.00246   2.09290
   A31        2.11209  -0.00053   0.00087  -0.00265  -0.00178   2.11032
   A32        2.08539   0.00038  -0.00044   0.00211   0.00167   2.08705
   A33        2.08570   0.00015  -0.00043   0.00054   0.00011   2.08581
   A34        2.10284   0.00020  -0.00016   0.00104   0.00089   2.10372
   A35        2.09083  -0.00056   0.00015  -0.00364  -0.00348   2.08734
   A36        2.08952   0.00036   0.00000   0.00259   0.00260   2.09212
   A37        2.07012   0.00051  -0.00049   0.00236   0.00186   2.07199
   A38        2.10177   0.00021   0.00021   0.00193   0.00214   2.10392
   A39        2.11129  -0.00072   0.00028  -0.00429  -0.00401   2.10728
   A40        1.89381   0.00062   0.00013   0.00262   0.00274   1.89655
   A41        2.27891   0.00034  -0.00069   0.00178   0.00109   2.28000
   A42        2.11046  -0.00096   0.00056  -0.00439  -0.00383   2.10663
   A43        1.93054  -0.00002  -0.00010  -0.00007  -0.00017   1.93038
   A44        1.92955  -0.00003  -0.00029  -0.00026  -0.00055   1.92900
   A45        1.94209  -0.00012   0.00032  -0.00083  -0.00051   1.94157
   A46        1.88269   0.00003   0.00004   0.00028   0.00032   1.88301
   A47        1.88934   0.00008   0.00008   0.00061   0.00069   1.89003
   A48        1.88781   0.00007  -0.00004   0.00033   0.00028   1.88810
   A49        1.92903  -0.00000  -0.00030  -0.00004  -0.00034   1.92869
   A50        1.93110  -0.00002  -0.00010  -0.00007  -0.00017   1.93093
   A51        1.94247  -0.00012   0.00032  -0.00080  -0.00048   1.94199
   A52        1.88202   0.00001   0.00004   0.00013   0.00017   1.88218
   A53        1.88857   0.00005  -0.00003   0.00026   0.00023   1.88879
   A54        1.88882   0.00008   0.00007   0.00058   0.00064   1.88946
   A55        2.12153   0.00852  -0.00303   0.03681   0.03373   2.15527
   A56        2.10441  -0.00580  -0.00219  -0.02523  -0.02748   2.07693
   A57        2.05722  -0.00271   0.00522  -0.01150  -0.00624   2.05098
   A58        2.09474   0.00074  -0.00225   0.00353   0.00121   2.09595
   A59        2.19523  -0.00166   0.00040  -0.00675  -0.00649   2.18874
   A60        1.99300   0.00091   0.00186   0.00273   0.00453   1.99754
   A61        2.13066   0.00178  -0.00300   0.00807   0.00508   2.13575
   A62        2.09444  -0.00255   0.00243  -0.01547  -0.01308   2.08137
   A63        2.05708   0.00076   0.00053   0.00687   0.00733   2.06442
   A64        2.09926   0.00096  -0.00181   0.00442   0.00256   2.10182
   A65        1.98722   0.00338   0.00122   0.01311   0.01433   2.00156
   A66        2.19648  -0.00434   0.00059  -0.01786  -0.01735   2.17913
   A67        2.13071   0.00071  -0.00294   0.00241  -0.00051   2.13020
   A68        2.05866   0.00151   0.00067   0.01124   0.01188   2.07054
   A69        2.09321  -0.00222   0.00227  -0.01393  -0.01168   2.08153
   A70        2.05360  -0.00147   0.00476  -0.00696  -0.00220   2.05140
   A71        2.12503   0.00511  -0.00249   0.02244   0.01993   2.14497
   A72        2.10455  -0.00364  -0.00227  -0.01547  -0.01775   2.08680
   A73        1.85471  -0.00241  -0.00108  -0.00953  -0.01057   1.84414
   A74        1.85880  -0.00301  -0.00061  -0.01353  -0.01412   1.84469
   A75        1.73091   0.00113  -0.00141   0.00715   0.00572   1.73662
   A76        2.12392   0.00297  -0.00082   0.01242   0.01159   2.13551
   A77        2.10171  -0.00038   0.00052  -0.00205  -0.00153   2.10017
   A78        2.05733  -0.00259   0.00032  -0.01047  -0.01015   2.04717
   A79        2.10493   0.00058  -0.00030   0.00334   0.00304   2.10797
   A80        2.08198  -0.00076  -0.00061  -0.00483  -0.00544   2.07653
   A81        2.09628   0.00018   0.00092   0.00149   0.00240   2.09869
   A82        2.11242   0.00124  -0.00024   0.00614   0.00589   2.11831
   A83        2.08578  -0.00041   0.00001  -0.00177  -0.00178   2.08401
   A84        2.08466  -0.00083   0.00023  -0.00460  -0.00439   2.08027
   A85        2.12056   0.00068  -0.00007   0.00269   0.00260   2.12316
   A86        2.07916  -0.00006   0.00001   0.00056   0.00057   2.07974
   A87        2.08346  -0.00062   0.00007  -0.00324  -0.00318   2.08029
   A88        2.11294   0.00037  -0.00017   0.00078   0.00060   2.11353
   A89        2.08522   0.00012   0.00013   0.00167   0.00181   2.08703
   A90        2.08502  -0.00049   0.00004  -0.00245  -0.00240   2.08262
   A91        2.05811  -0.00029   0.00046  -0.00251  -0.00207   2.05604
   A92        2.11530   0.00025  -0.00020   0.00170   0.00151   2.11681
   A93        2.10914   0.00005  -0.00026   0.00084   0.00059   2.10973
   A94        1.93262   0.00007   0.00001   0.00078   0.00079   1.93341
   A95        1.91468   0.00004   0.00001   0.00031   0.00032   1.91500
   A96        1.96587  -0.00002  -0.00014  -0.00030  -0.00044   1.96543
   A97        1.86532   0.00006   0.00020   0.00102   0.00122   1.86654
   A98        1.88434  -0.00009  -0.00004  -0.00092  -0.00097   1.88338
   A99        1.89786  -0.00006  -0.00002  -0.00086  -0.00088   1.89698
   A100       1.89971  -0.00002   0.00001  -0.00030  -0.00029   1.89942
   A101       1.90084  -0.00002   0.00003  -0.00038  -0.00035   1.90049
   A102       1.92224  -0.00007  -0.00016  -0.00046  -0.00062   1.92163
   A103       1.85859   0.00002   0.00005   0.00052   0.00056   1.85915
   A104       1.99685   0.00006   0.00004   0.00051   0.00056   1.99740
   A105       1.88269   0.00002   0.00003   0.00011   0.00014   1.88283
   A106       1.91128   0.00002  -0.00003   0.00016   0.00012   1.91140
   A107       1.91384   0.00003  -0.00012   0.00025   0.00013   1.91397
   A108       1.84802  -0.00002   0.00002  -0.00007  -0.00005   1.84797
    D1       -0.01543   0.00012  -0.00043   0.00674   0.00627  -0.00916
    D2        3.11094  -0.00009   0.00082  -0.00545  -0.00469   3.10625
    D3        3.11667   0.00008  -0.00180   0.00504   0.00322   3.11989
    D4       -0.04015  -0.00013  -0.00055  -0.00716  -0.00774  -0.04788
    D5        0.01206   0.00009   0.00064   0.00242   0.00302   0.01507
    D6       -3.13257   0.00006   0.00016   0.00210   0.00224  -3.13033
    D7       -3.11992   0.00014   0.00202   0.00422   0.00621  -3.11371
    D8        0.01863   0.00012   0.00154   0.00390   0.00544   0.02407
    D9        0.00759  -0.00023  -0.00013  -0.01243  -0.01251  -0.00492
   D10       -3.10279  -0.00003  -0.00012  -0.00251  -0.00255  -3.10534
   D11       -3.11892  -0.00008  -0.00133  -0.00057  -0.00201  -3.12092
   D12        0.05388   0.00013  -0.00132   0.00935   0.00796   0.06184
   D13        0.51282  -0.00082  -0.01488  -0.05550  -0.07028   0.44254
   D14       -2.62176  -0.00102  -0.01313  -0.06919  -0.08232  -2.70408
   D15       -2.64415  -0.00106  -0.01362  -0.06794  -0.08156  -2.72571
   D16        0.50446  -0.00127  -0.01187  -0.08163  -0.09360   0.41086
   D17        0.00314   0.00017   0.00045   0.00906   0.00954   0.01268
   D18       -3.12815   0.00015   0.00030   0.00719   0.00752  -3.12063
   D19        3.11310  -0.00003   0.00042  -0.00097  -0.00055   3.11256
   D20       -0.01819  -0.00006   0.00028  -0.00284  -0.00256  -0.02075
   D21       -0.00662  -0.00000  -0.00023   0.00010  -0.00011  -0.00673
   D22       -3.14130  -0.00004  -0.00033  -0.00252  -0.00283   3.13905
   D23        3.12636   0.00003  -0.00011   0.00171   0.00161   3.12798
   D24       -0.00832  -0.00002  -0.00021  -0.00090  -0.00111  -0.00943
   D25        3.14056   0.00004   0.00028   0.00232   0.00259  -3.14004
   D26        1.07687   0.00004   0.00052   0.00083   0.00134   1.07821
   D27       -1.07797   0.00002  -0.00004   0.00399   0.00394  -1.07403
   D28        0.00851   0.00001   0.00015   0.00055   0.00069   0.00919
   D29       -2.05519   0.00001   0.00039  -0.00095  -0.00056  -2.05575
   D30        2.07316  -0.00001  -0.00017   0.00221   0.00204   2.07520
   D31       -0.00102  -0.00012  -0.00032  -0.00583  -0.00613  -0.00715
   D32       -3.13954  -0.00010   0.00017  -0.00552  -0.00536   3.13828
   D33        3.13190  -0.00007  -0.00019  -0.00256  -0.00273   3.12917
   D34       -0.00662  -0.00005   0.00030  -0.00225  -0.00196  -0.00858
   D35        0.00430   0.00003   0.00017   0.00093   0.00110   0.00540
   D36       -3.13758   0.00002   0.00012   0.00114   0.00127  -3.13631
   D37       -3.12942  -0.00001   0.00005  -0.00199  -0.00196  -3.13138
   D38        0.01188  -0.00002  -0.00000  -0.00178  -0.00180   0.01009
   D39        3.13649  -0.00000  -0.00007  -0.00046  -0.00054   3.13595
   D40       -0.00582   0.00001  -0.00004   0.00001  -0.00003  -0.00585
   D41       -1.08206  -0.00002  -0.00028   0.00096   0.00068  -1.08137
   D42        2.05881  -0.00002  -0.00024   0.00143   0.00119   2.06000
   D43        1.07113  -0.00001   0.00021  -0.00242  -0.00221   1.06892
   D44       -2.07118  -0.00000   0.00025  -0.00195  -0.00170  -2.07288
   D45        3.07306   0.00035  -0.00027   0.00364   0.00336   3.07643
   D46       -1.12589   0.00035  -0.00048   0.00378   0.00330  -1.12259
   D47        0.97229   0.00034  -0.00052   0.00347   0.00295   0.97524
   D48        1.12541  -0.00035   0.00058  -0.00291  -0.00233   1.12307
   D49       -3.07354  -0.00035   0.00037  -0.00277  -0.00240  -3.07594
   D50       -0.97536  -0.00036   0.00033  -0.00308  -0.00275  -0.97811
   D51       -1.04128   0.00002   0.00020   0.00059   0.00079  -1.04049
   D52        1.04296   0.00002  -0.00000   0.00073   0.00072   1.04368
   D53        3.14113   0.00000  -0.00004   0.00042   0.00038   3.14151
   D54        1.12694  -0.00036   0.00049  -0.00412  -0.00363   1.12330
   D55       -3.07283  -0.00036   0.00028  -0.00404  -0.00375  -3.07659
   D56       -0.97209  -0.00035   0.00051  -0.00389  -0.00338  -0.97547
   D57        3.07521   0.00034  -0.00042   0.00268   0.00226   3.07747
   D58       -1.12456   0.00035  -0.00062   0.00277   0.00214  -1.12242
   D59        0.97618   0.00036  -0.00039   0.00291   0.00252   0.97870
   D60       -1.04169  -0.00001  -0.00002  -0.00081  -0.00082  -1.04251
   D61        1.04172  -0.00001  -0.00022  -0.00072  -0.00094   1.04078
   D62       -3.14072   0.00000   0.00001  -0.00058  -0.00057  -3.14129
   D63        3.14005   0.00001   0.00001   0.00071   0.00072   3.14076
   D64       -0.00049   0.00001   0.00005   0.00045   0.00050   0.00001
   D65       -0.00077   0.00001  -0.00003   0.00020   0.00017  -0.00060
   D66       -3.14131   0.00000   0.00001  -0.00005  -0.00004  -3.14135
   D67        0.00132  -0.00002  -0.00008  -0.00057  -0.00064   0.00067
   D68       -3.14002  -0.00001  -0.00003  -0.00076  -0.00079  -3.14081
   D69       -3.14092  -0.00001  -0.00005  -0.00014  -0.00019  -3.14111
   D70        0.00093  -0.00001  -0.00000  -0.00033  -0.00034   0.00059
   D71        0.00019  -0.00000   0.00003  -0.00000   0.00003   0.00022
   D72       -3.14082  -0.00000   0.00005  -0.00011  -0.00006  -3.14087
   D73        3.14074   0.00000  -0.00002   0.00026   0.00024   3.14098
   D74       -0.00027   0.00000   0.00001   0.00015   0.00016  -0.00011
   D75        0.00026  -0.00000   0.00002  -0.00009  -0.00007   0.00019
   D76       -3.14106   0.00000   0.00003  -0.00007  -0.00004  -3.14110
   D77        3.14127  -0.00000  -0.00001   0.00002   0.00001   3.14128
   D78       -0.00005   0.00000   0.00000   0.00004   0.00004  -0.00001
   D79       -0.00011   0.00000  -0.00005  -0.00003  -0.00008  -0.00020
   D80       -3.14114   0.00000   0.00003   0.00001   0.00003  -3.14110
   D81        3.14120  -0.00000  -0.00006  -0.00006  -0.00012   3.14108
   D82        0.00018   0.00000   0.00001  -0.00001  -0.00000   0.00018
   D83        3.14144   0.00001   0.00010   0.00000   0.00010   3.14154
   D84       -0.00047   0.00000   0.00004   0.00024   0.00029  -0.00018
   D85       -0.00072   0.00001   0.00003  -0.00004  -0.00001  -0.00074
   D86        3.14055   0.00000  -0.00003   0.00020   0.00017   3.14072
   D87        3.13326  -0.00028   0.00019  -0.01595  -0.01596   3.11730
   D88        0.01557   0.00020  -0.00015   0.01040   0.01007   0.02564
   D89       -0.01517  -0.00009  -0.00148  -0.00269  -0.00417  -0.01934
   D90       -3.13286   0.00038  -0.00182   0.02367   0.02186  -3.11100
   D91       -3.14016   0.00022  -0.00089   0.01001   0.00887  -3.13128
   D92        0.05047   0.00048   0.00020   0.02279   0.02274   0.07322
   D93        0.00820  -0.00002   0.00075  -0.00337  -0.00261   0.00559
   D94       -3.08435   0.00023   0.00184   0.00940   0.01126  -3.07310
   D95        0.00588   0.00013   0.00064   0.00694   0.00755   0.01343
   D96       -3.11427   0.00049   0.00041   0.02306   0.02366  -3.09060
   D97        3.12621  -0.00033   0.00093  -0.01663  -0.01590   3.11031
   D98        0.00607   0.00003   0.00070  -0.00051   0.00022   0.00628
   D99        3.12351  -0.00042   0.00047  -0.02173  -0.02130   3.10221
   D100       0.00460   0.00003   0.00021   0.00327   0.00348   0.00808
   D101       0.00884   0.00011   0.00089   0.00537   0.00622   0.01506
   D102      -3.09539   0.00035   0.00088   0.01413   0.01511  -3.08027
   D103       3.10240  -0.00022  -0.00014  -0.00775  -0.00808   3.09433
   D104      -0.00183   0.00001  -0.00015   0.00102   0.00082  -0.00101
   D105       0.01056  -0.00004   0.00095  -0.00502  -0.00406   0.00650
   D106      -3.13254   0.00009  -0.00002   0.00400   0.00404  -3.12849
   D107       3.12795  -0.00033   0.00121  -0.02275  -0.02146   3.10649
   D108      -0.01515  -0.00020   0.00024  -0.01373  -0.01335  -0.02850
   D109      -0.01338  -0.00005  -0.00122  -0.00246  -0.00371  -0.01709
   D110      -3.13212   0.00024  -0.00143   0.01436   0.01291  -3.11921
   D111      -0.01807  -0.00008  -0.00172  -0.00101  -0.00273  -0.02080
   D112       3.12501  -0.00022  -0.00077  -0.00995  -0.01059   3.11443
   D113       3.08544  -0.00025  -0.00174  -0.00941  -0.01119   3.07426
   D114      -0.05466  -0.00038  -0.00079  -0.01835  -0.01904  -0.07371
   D115      -0.54404   0.00094   0.01134   0.06782   0.07915  -0.46490
   D116       2.62103   0.00106   0.01064   0.07320   0.08385   2.70487
   D117       2.59600   0.00107   0.01031   0.07711   0.08742   2.68342
   D118      -0.52211   0.00119   0.00961   0.08249   0.09212  -0.42999
   D119      -0.01102  -0.00005  -0.00081  -0.00420  -0.00502  -0.01604
   D120       0.01434   0.00005   0.00119   0.00384   0.00503   0.01937
   D121      -3.10510   0.00005  -0.00038   0.00240   0.00204  -3.10307
   D122       0.03645   0.00006   0.00047   0.00258   0.00307   0.03951
   D123       0.01358  -0.00004   0.00031  -0.00275  -0.00243   0.01116
   D124      -3.12805  -0.00003   0.00116  -0.00256  -0.00140  -3.12945
   D125       3.11518   0.00014   0.00108   0.00423   0.00534   3.12052
   D126      -0.05409  -0.00007   0.00086  -0.00540  -0.00453  -0.05861
   D127      -0.00381   0.00019   0.00042   0.00911   0.00952   0.00571
   D128       3.11011  -0.00003   0.00021  -0.00052  -0.00034   3.10976
   D129      -0.01351  -0.00011  -0.00068  -0.00415  -0.00481  -0.01831
   D130       3.12564  -0.00009  -0.00014  -0.00356  -0.00369   3.12195
   D131       3.12813  -0.00012  -0.00153  -0.00433  -0.00585   3.12228
   D132      -0.01591  -0.00010  -0.00099  -0.00374  -0.00473  -0.02064
   D133      -0.00636  -0.00019  -0.00080  -0.00877  -0.00958  -0.01595
   D134       3.13247  -0.00016  -0.00047  -0.00739  -0.00787   3.12460
   D135      -3.12030   0.00002  -0.00058   0.00082   0.00022  -3.12008
   D136       0.01853   0.00005  -0.00025   0.00219   0.00193   0.02047
   D137       0.00317   0.00010   0.00031   0.00459   0.00490   0.00806
   D138      -3.10030   0.00009   0.00034   0.00364   0.00398  -3.09632
   D139      -3.13597   0.00007  -0.00023   0.00400   0.00377  -3.13220
   D140       0.04375   0.00006  -0.00019   0.00305   0.00286   0.04660
   D141       0.00673   0.00005   0.00043   0.00182   0.00224   0.00897
   D142       3.11034   0.00007   0.00039   0.00279   0.00317   3.11351
   D143      -3.13211   0.00002   0.00010   0.00044   0.00053  -3.13158
   D144      -0.02850   0.00004   0.00007   0.00140   0.00146  -0.02704
   D145      -2.62023  -0.00008  -0.00016  -0.00118  -0.00134  -2.62157
   D146      -0.56555   0.00007   0.00009   0.00074   0.00084  -0.56471
   D147       1.55099  -0.00000  -0.00002  -0.00034  -0.00035   1.55064
   D148       0.56060  -0.00008  -0.00014  -0.00208  -0.00223   0.55837
   D149       2.61528   0.00006   0.00012  -0.00017  -0.00005   2.61523
   D150      -1.55136  -0.00001   0.00000  -0.00124  -0.00124  -1.55261
   D151      -0.98205   0.00001  -0.00005  -0.00065  -0.00070  -0.98275
   D152       1.03763   0.00001   0.00003  -0.00041  -0.00038   1.03724
   D153       3.09895  -0.00000  -0.00001  -0.00077  -0.00078   3.09817
   D154      -3.12137  -0.00001   0.00006  -0.00079  -0.00073  -3.12210
   D155      -1.10170  -0.00000   0.00013  -0.00055  -0.00041  -1.10211
   D156       0.95963  -0.00002   0.00010  -0.00091  -0.00081   0.95882
   D157       1.14404  -0.00000  -0.00015  -0.00105  -0.00120   1.14284
   D158      -3.11947   0.00000  -0.00007  -0.00081  -0.00088  -3.12035
   D159      -1.05814  -0.00002  -0.00011  -0.00117  -0.00128  -1.05942
   D160       1.19082   0.00003   0.00015   0.00286   0.00301   1.19383
   D161      -3.07169   0.00003   0.00009   0.00300   0.00310  -3.06859
   D162      -0.95545   0.00007   0.00022   0.00324   0.00347  -0.95198
   D163       1.06522   0.00007   0.00016   0.00338   0.00355   1.06877
   D164      -3.01989  -0.00001   0.00012   0.00221   0.00233  -3.01756
   D165      -0.99921  -0.00001   0.00006   0.00235   0.00241  -0.99680
         Item               Value     Threshold  Converged?
 Maximum Force            0.008518     0.000450     NO 
 RMS     Force            0.001274     0.000300     NO 
 Maximum Displacement     0.417118     0.001800     NO 
 RMS     Displacement     0.099202     0.001200     NO 
 Predicted change in Energy=-1.551159D-03
 Lowest energy point so far.  Saving SCF results.
 GradGradGradGradGradGradGradGradGradGradGradGradGradGradGradGradGradGrad

 Leave Link  103 at Thu Mar 14 09:29:03 2024, MaxMem= 32212254720 cpu:               3.4 elap:               0.1
 (Enter /home/<user>/g16/l202.exe)
 Stoichiometry    C29H25N3S
 Framework group  C1[X(C29H25N3S)]
 Deg. of freedom   168
 Full point group                 C1      NOp   1
 RotChk:  IX=0 Diff= 4.67D-02
 Largest Abelian subgroup         C1      NOp   1
 Largest concise Abelian subgroup C1      NOp   1
                         Standard orientation:                         
 ---------------------------------------------------------------------
 Center     Atomic      Atomic             Coordinates (Angstroms)
 Number     Number       Type             X           Y           Z
 ---------------------------------------------------------------------
      1          6           0       -2.448926    1.658346   -0.423999
      2          6           0       -1.765383    0.421941   -0.204519
      3          6           0       -2.550583   -0.745572    0.028568
      4          6           0       -3.925396   -0.672724    0.045672
      5          6           0       -4.582053    0.566930   -0.184510
      6          6           0       -3.830245    1.730230   -0.423530
      7          1           0       -1.856616    2.547855   -0.580449
      8          1           0       -2.048786   -1.686078    0.230835
      9          1           0       -4.323363    2.681263   -0.603456
     10          6           0       -4.943467   -1.784010    0.298885
     11          6           0       -6.255598   -1.012997    0.168015
     12          6           0       -7.557861   -1.477559    0.287121
     13          6           0       -8.619483   -0.576938    0.126226
     14          6           0       -8.379889    0.777951   -0.151944
     15          6           0       -7.078685    1.255134   -0.274074
     16          6           0       -6.012347    0.355681   -0.113488
     17          1           0       -7.761982   -2.523118    0.502751
     18          1           0       -9.642330   -0.931594    0.218408
     19          1           0       -9.218697    1.457369   -0.272097
     20          1           0       -6.893083    2.303556   -0.488862
     21          6           0       -4.782901   -2.384218    1.713839
     22          1           0       -5.560137   -3.132687    1.905732
     23          1           0       -3.809392   -2.876713    1.813959
     24          1           0       -4.854475   -1.609604    2.483641
     25          6           0       -4.837843   -2.900006   -0.764497
     26          1           0       -3.865425   -3.400773   -0.700061
     27          1           0       -5.615838   -3.656138   -0.609396
     28          1           0       -4.948620   -2.496458   -1.775904
     29          6           0       -0.308458    0.323451   -0.245334
     30          6           0        0.569051    1.430531    0.020248
     31          6           0        0.288057   -0.925722   -0.556345
     32          6           0        2.000519    1.243361   -0.011064
     33          6           0        1.658161   -1.100343   -0.602308
     34          1           0       -0.346445   -1.764284   -0.824455
     35          6           0        2.560201   -0.044569   -0.323539
     36          1           0        2.049200   -2.066341   -0.902784
     37          7           0        0.175318    2.676662    0.363757
     38          7           0        2.719442    2.338522    0.314574
     39         16           0        1.593527    3.548195    0.615435
     40          6           0        4.001823   -0.298845   -0.354743
     41          6           0        4.945569    0.720914   -0.628908
     42          6           0        4.502429   -1.606619   -0.140016
     43          6           0        6.302686    0.434019   -0.695192
     44          1           0        4.594207    1.731331   -0.785904
     45          6           0        5.861957   -1.876398   -0.189314
     46          1           0        3.812094   -2.408378    0.102158
     47          6           0        6.793276   -0.862916   -0.473603
     48          1           0        7.002959    1.234007   -0.925783
     49          1           0        6.215666   -2.888420   -0.004221
     50          6           0        8.273799   -1.154188   -0.490554
     51          1           0        8.464310   -2.180652   -0.824407
     52          1           0        8.774903   -0.486675   -1.205394
     53          6           0        8.928390   -0.976729    0.893108
     54          1           0        8.728145    0.048029    1.253426
     55          1           0        8.445179   -1.657460    1.604462
     56          7           0       10.350156   -1.329702    0.827019
     57          1           0       10.846727   -0.639471    0.263915
     58          1           0       10.760153   -1.276880    1.758262
 ---------------------------------------------------------------------
 Rotational constants (GHZ):           0.3556887           0.0399919           0.0367083
 Leave Link  202 at Thu Mar 14 09:29:03 2024, MaxMem= 32212254720 cpu:               0.1 elap:               0.0
 (Enter /home/<user>/g16/l301.exe)
 Standard basis: 6-31G(d) (6D, 7F)
 Ernie: Thresh=  0.10000D-02 Tol=  0.10000D-05 Strict=F.
 There are   549 symmetry adapted cartesian basis functions of A   symmetry.
 There are   549 symmetry adapted basis functions of A   symmetry.
   549 basis functions,  1048 primitive gaussians,   549 cartesian basis functions
   118 alpha electrons      118 beta electrons
       nuclear repulsion energy      3080.0509832996 Hartrees.
 IExCor=  402 DFT=T Ex+Corr=B3LYP ExCW=0 ScaHFX=  0.200000
 ScaDFX=  0.800000  0.720000  1.000000  0.810000 ScalE2=  1.000000  1.000000
 IRadAn=      5 IRanWt=     -1 IRanGd=            0 ICorTp=0 IEmpDi=  4
 NAtoms=   58 NActive=   58 NUniq=   58 SFac= 1.00D+00 NAtFMM=   60 NAOKFM=F Big=F
 Integral buffers will be    131072 words long.
 Regular integral format.
 Two-electron integral symmetry is turned on.
 Leave Link  301 at Thu Mar 14 09:29:03 2024, MaxMem= 32212254720 cpu:               1.0 elap:               0.0
 (Enter /home/<user>/g16/l302.exe)
 NPDir=0 NMtPBC=     1 NCelOv=     1 NCel=       1 NClECP=     1 NCelD=      1
         NCelK=      1 NCelE2=     1 NClLst=     1 CellRange=     0.0.
 One-electron integrals computed using PRISM.
 One-electron integral symmetry used in STVInt
 NBasis=   549 RedAO= T EigKep=  2.74D-04  NBF=   549
 NBsUse=   549 1.00D-06 EigRej= -1.00D+00 NBFU=   549
 Precomputing XC quadrature grid using
 IXCGrd= 4 IRadAn=           5 IRanWt=          -1 IRanGd=           0 AccXCQ= 0.00D+00.
 Generated NRdTot=       0 NPtTot=           0 NUsed=           0 NTot=          32
 NSgBfM=   512   512   512   512   512 MxSgAt=    58 MxSgA2=    58.
 Leave Link  302 at Thu Mar 14 09:29:04 2024, MaxMem= 32212254720 cpu:              17.6 elap:               0.6
 (Enter /home/<user>/g16/l303.exe)
 DipDrv:  MaxL=1.
 Leave Link  303 at Thu Mar 14 09:29:04 2024, MaxMem= 32212254720 cpu:               1.7 elap:               0.1
 (Enter /home/<user>/g16/l308.exe)
 Leave Link  308 at Thu Mar 14 09:29:04 2024, MaxMem= 32212254720 cpu:               1.9 elap:               0.1
 (Enter /home/<user>/g16/l401.exe)
 Initial guess from the checkpoint file:  "FBTP_S1opt.chk"
 B after Tr=     0.000000   -0.000000    0.000000
         Rot=    0.999981   -0.006147   -0.000267   -0.000146 Ang=  -0.71 deg.
 Guess basis will be translated and rotated to current coordinates.
 JPrj=2 DoOrth=T DoCkMO=T.
 Generating alternative initial guess.
 ExpMin= 1.17D-01 ExpMax= 2.19D+04 ExpMxC= 3.30D+03 IAcc=3 IRadAn=         5 AccDes= 0.00D+00
 Harris functional with IExCor=  402 and IRadAn=       5 diagonalized for initial guess.
 HarFok:  IExCor=  402 AccDes= 0.00D+00 IRadAn=         5 IDoV= 1 UseB2=F ITyADJ=14
 ICtDFT=  3500011 ScaDFX=  1.000000  1.000000  1.000000  1.000000
 FoFCou: FMM=F IPFlag=           0 FMFlag=      100000 FMFlg1=           0
         NFxFlg=           0 DoJE=T BraDBF=F KetDBF=T FulRan=T
         wScrn=  0.000000 ICntrl=       500 IOpCl=  0 I1Cent=   200000004 NGrid=           0
         NMat0=    1 NMatS0=      1 NMatT0=    0 NMatD0=    1 NMtDS0=    0 NMtDT0=    0
 Petite list used in FoFCou.
 Harris En= -1682.58297294324    
 Leave Link  401 at Thu Mar 14 09:29:05 2024, MaxMem= 32212254720 cpu:              49.7 elap:               1.7
 (Enter /home/<user>/g16/l502.exe)
 Integral symmetry usage will be decided dynamically.
 Closed shell SCF:
 Using DIIS extrapolation, IDIIS=  1040.
 NGot= 32212254720 LenX= 32211628124 LenY= 32211326174
 Requested convergence on RMS density matrix=1.00D-08 within 128 cycles.
 Requested convergence on MAX density matrix=1.00D-06.
 Requested convergence on             energy=1.00D-06.
 No special actions if energy rises.
 Fock matrices will be formed incrementally for  20 cycles.
 Integral accuracy reduced to 1.0D-05 until final iterations.

 Cycle   1  Pass 0  IDiag  1:
 FoFJK:  IHMeth= 1 ICntrl=       0 DoSepK=F KAlg= 0 I1Cent=           0 FoldK=F
 IRaf= 550000000 NMat=       1 IRICut=       1 DoRegI=T DoRafI=F ISym2E= 0 IDoP0=0 IntGTp=1.
 FoFCou: FMM=F IPFlag=           0 FMFlag=      100000 FMFlg1=           0
         NFxFlg=           0 DoJE=F BraDBF=F KetDBF=F FulRan=T
         wScrn=  0.000000 ICntrl=         0 IOpCl=  0 I1Cent=           0 NGrid=           0
         NMat0=    1 NMatS0=      1 NMatT0=    0 NMatD0=    1 NMtDS0=    0 NMtDT0=    0
 Symmetry not used in FoFCou.
 E= -1682.57359853464    
 DIIS: error= 3.29D-03 at cycle   1 NSaved=   1.
 NSaved= 1 IEnMin= 1 EnMin= -1682.57359853464     IErMin= 1 ErrMin= 3.29D-03
 ErrMax= 3.29D-03  0.00D+00 EMaxC= 1.00D-01 BMatC= 1.09D-02 BMatP= 1.09D-02
 IDIUse=3 WtCom= 9.67D-01 WtEn= 3.29D-02
 Coeff-Com:  0.100D+01
 Coeff-En:   0.100D+01
 Coeff:      0.100D+01
 Gap=     1.963 Goal=   None    Shift=    0.000
 GapD=    1.963 DampG=2.000 DampE=1.000 DampFc=2.0000 IDamp=-1.
 RMSDP=3.61D-04 MaxDP=9.45D-03              OVMax= 2.05D-02

 Cycle   2  Pass 0  IDiag  1:
 RMSU=  3.61D-04    CP:  1.00D+00
 E= -1682.59492621316     Delta-E=       -0.021327678516 Rises=F Damp=F
 DIIS: error= 3.50D-04 at cycle   2 NSaved=   2.
 NSaved= 2 IEnMin= 2 EnMin= -1682.59492621316     IErMin= 2 ErrMin= 3.50D-04
 ErrMax= 3.50D-04  0.00D+00 EMaxC= 1.00D-01 BMatC= 1.81D-04 BMatP= 1.09D-02
 IDIUse=3 WtCom= 9.97D-01 WtEn= 3.50D-03
 Coeff-Com: -0.636D-01 0.106D+01
 Coeff-En:   0.000D+00 0.100D+01
 Coeff:     -0.634D-01 0.106D+01
 Gap=     0.091 Goal=   None    Shift=    0.000
 RMSDP=6.59D-05 MaxDP=4.65D-03 DE=-2.13D-02 OVMax= 5.86D-03

 Cycle   3  Pass 0  IDiag  1:
 RMSU=  6.13D-05    CP:  1.00D+00  1.07D+00
 E= -1682.59494731845     Delta-E=       -0.000021105287 Rises=F Damp=F
 DIIS: error= 6.66D-04 at cycle   3 NSaved=   3.
 NSaved= 3 IEnMin= 3 EnMin= -1682.59494731845     IErMin= 2 ErrMin= 3.50D-04
 ErrMax= 6.66D-04  0.00D+00 EMaxC= 1.00D-01 BMatC= 3.13D-04 BMatP= 1.81D-04
 IDIUse=3 WtCom= 2.79D-01 WtEn= 7.21D-01
 Coeff-Com: -0.491D-01 0.653D+00 0.397D+00
 Coeff-En:   0.000D+00 0.474D+00 0.526D+00
 Coeff:     -0.137D-01 0.524D+00 0.490D+00
 Gap=     0.092 Goal=   None    Shift=    0.000
 RMSDP=5.46D-05 MaxDP=5.71D-03 DE=-2.11D-05 OVMax= 6.56D-03

 Cycle   4  Pass 0  IDiag  1:
 RMSU=  3.24D-05    CP:  1.00D+00  1.08D+00  2.88D-01
 E= -1682.59512424459     Delta-E=       -0.000176926140 Rises=F Damp=F
 DIIS: error= 4.40D-04 at cycle   4 NSaved=   4.
 NSaved= 4 IEnMin= 4 EnMin= -1682.59512424459     IErMin= 2 ErrMin= 3.50D-04
 ErrMax= 4.40D-04  0.00D+00 EMaxC= 1.00D-01 BMatC= 1.24D-04 BMatP= 1.81D-04
 IDIUse=3 WtCom= 9.96D-01 WtEn= 4.40D-03
 Coeff-Com: -0.256D-01 0.312D+00 0.364D+00 0.350D+00
 Coeff-En:   0.000D+00 0.000D+00 0.328D+00 0.672D+00
 Coeff:     -0.255D-01 0.310D+00 0.364D+00 0.351D+00
 Gap=     0.092 Goal=   None    Shift=    0.000
 RMSDP=2.67D-05 MaxDP=2.73D-03 DE=-1.77D-04 OVMax= 4.53D-03

 Cycle   5  Pass 0  IDiag  1:
 RMSU=  1.34D-05    CP:  1.00D+00  1.08D+00  5.29D-01  4.51D-01
 E= -1682.59523410860     Delta-E=       -0.000109864015 Rises=F Damp=F
 DIIS: error= 1.36D-04 at cycle   5 NSaved=   5.
 NSaved= 5 IEnMin= 5 EnMin= -1682.59523410860     IErMin= 5 ErrMin= 1.36D-04
 ErrMax= 1.36D-04  0.00D+00 EMaxC= 1.00D-01 BMatC= 1.33D-05 BMatP= 1.24D-04
 IDIUse=3 WtCom= 9.99D-01 WtEn= 1.36D-03
 Coeff-Com: -0.769D-02 0.789D-01 0.198D+00 0.299D+00 0.431D+00
 Coeff-En:   0.000D+00 0.000D+00 0.000D+00 0.928D-01 0.907D+00
 Coeff:     -0.768D-02 0.788D-01 0.198D+00 0.299D+00 0.432D+00
 Gap=     0.091 Goal=   None    Shift=    0.000
 RMSDP=8.51D-06 MaxDP=8.71D-04 DE=-1.10D-04 OVMax= 1.55D-03

 Initial convergence to 1.0D-05 achieved.  Increase integral accuracy.
 Cycle   6  Pass 1  IDiag  1:
 E= -1682.59528302947     Delta-E=       -0.000048920874 Rises=F Damp=F
 DIIS: error= 8.50D-05 at cycle   1 NSaved=   1.
 NSaved= 1 IEnMin= 1 EnMin= -1682.59528302947     IErMin= 1 ErrMin= 8.50D-05
 ErrMax= 8.50D-05  0.00D+00 EMaxC= 1.00D-01 BMatC= 2.97D-06 BMatP= 2.97D-06
 IDIUse=1 WtCom= 1.00D+00 WtEn= 0.00D+00
 Coeff-Com:  0.100D+01
 Coeff:      0.100D+01
 Gap=     0.092 Goal=   None    Shift=    0.000
 RMSDP=8.51D-06 MaxDP=8.71D-04 DE=-4.89D-05 OVMax= 7.36D-04

 Cycle   7  Pass 1  IDiag  1:
 RMSU=  6.07D-05    CP:  1.00D+00
 E= -1682.59528226570     Delta-E=        0.000000763772 Rises=F Damp=F
 DIIS: error= 5.82D-05 at cycle   2 NSaved=   2.
 NSaved= 2 IEnMin= 1 EnMin= -1682.59528302947     IErMin= 2 ErrMin= 5.82D-05
 ErrMax= 5.82D-05  0.00D+00 EMaxC= 1.00D-01 BMatC= 3.34D-06 BMatP= 2.97D-06
 IDIUse=1 WtCom= 1.00D+00 WtEn= 0.00D+00
 Coeff-Com:  0.520D+00 0.480D+00
 Coeff:      0.520D+00 0.480D+00
 Gap=     0.091 Goal=   None    Shift=    0.000
 RMSDP=6.79D-06 MaxDP=6.35D-04 DE= 7.64D-07 OVMax= 1.14D-03

 Cycle   8  Pass 1  IDiag  1:
 RMSU=  6.79D-06    CP:  1.00D+00  9.94D-01
 E= -1682.59528312858     Delta-E=       -0.000000862873 Rises=F Damp=F
 DIIS: error= 6.41D-05 at cycle   3 NSaved=   3.
 NSaved= 3 IEnMin= 3 EnMin= -1682.59528312858     IErMin= 2 ErrMin= 5.82D-05
 ErrMax= 6.41D-05  0.00D+00 EMaxC= 1.00D-01 BMatC= 2.52D-06 BMatP= 2.97D-06
 IDIUse=1 WtCom= 1.00D+00 WtEn= 0.00D+00
 Coeff-Com:  0.803D-01 0.442D+00 0.477D+00
 Coeff:      0.803D-01 0.442D+00 0.477D+00
 Gap=     0.091 Goal=   None    Shift=    0.000
 RMSDP=3.85D-06 MaxDP=3.45D-04 DE=-8.63D-07 OVMax= 7.46D-04

 Cycle   9  Pass 1  IDiag  1:
 RMSU=  2.05D-06    CP:  1.00D+00  1.00D+00  5.25D-01
 E= -1682.59528529603     Delta-E=       -0.000002167458 Rises=F Damp=F
 DIIS: error= 2.21D-05 at cycle   4 NSaved=   4.
 NSaved= 4 IEnMin= 4 EnMin= -1682.59528529603     IErMin= 4 ErrMin= 2.21D-05
 ErrMax= 2.21D-05  0.00D+00 EMaxC= 1.00D-01 BMatC= 3.73D-07 BMatP= 2.52D-06
 IDIUse=1 WtCom= 1.00D+00 WtEn= 0.00D+00
 Coeff-Com:  0.436D-02 0.281D+00 0.359D+00 0.355D+00
 Coeff:      0.436D-02 0.281D+00 0.359D+00 0.355D+00
 Gap=     0.092 Goal=   None    Shift=    0.000
 RMSDP=1.36D-06 MaxDP=1.20D-04 DE=-2.17D-06 OVMax= 2.04D-04

 Cycle  10  Pass 1  IDiag  1:
 RMSU=  4.50D-07    CP:  1.00D+00  1.00D+00  5.58D-01  3.84D-01
 E= -1682.59528566667     Delta-E=       -0.000000370634 Rises=F Damp=F
 DIIS: error= 3.26D-06 at cycle   5 NSaved=   5.
 NSaved= 5 IEnMin= 5 EnMin= -1682.59528566667     IErMin= 5 ErrMin= 3.26D-06
 ErrMax= 3.26D-06  0.00D+00 EMaxC= 1.00D-01 BMatC= 8.67D-09 BMatP= 3.73D-07
 IDIUse=1 WtCom= 1.00D+00 WtEn= 0.00D+00
 Coeff-Com: -0.182D-02 0.145D+00 0.191D+00 0.214D+00 0.452D+00
 Coeff:     -0.182D-02 0.145D+00 0.191D+00 0.214D+00 0.452D+00
 Gap=     0.091 Goal=   None    Shift=    0.000
 RMSDP=2.56D-07 MaxDP=1.19D-05 DE=-3.71D-07 OVMax= 3.01D-05

 Cycle  11  Pass 1  IDiag  1:
 RMSU=  1.16D-07    CP:  1.00D+00  1.00D+00  5.57D-01  4.00D-01  4.99D-01
 E= -1682.59528567552     Delta-E=       -0.000000008851 Rises=F Damp=F
 DIIS: error= 9.56D-07 at cycle   6 NSaved=   6.
 NSaved= 6 IEnMin= 6 EnMin= -1682.59528567552     IErMin= 6 ErrMin= 9.56D-07
 ErrMax= 9.56D-07  0.00D+00 EMaxC= 1.00D-01 BMatC= 7.32D-10 BMatP= 8.67D-09
 IDIUse=1 WtCom= 1.00D+00 WtEn= 0.00D+00
 Coeff-Com: -0.145D-02 0.820D-01 0.108D+00 0.123D+00 0.300D+00 0.388D+00
 Coeff:     -0.145D-02 0.820D-01 0.108D+00 0.123D+00 0.300D+00 0.388D+00
 Gap=     0.091 Goal=   None    Shift=    0.000
 RMSDP=6.57D-08 MaxDP=2.66D-06 DE=-8.85D-09 OVMax= 7.02D-06

 Cycle  12  Pass 1  IDiag  1:
 RMSU=  3.94D-08    CP:  1.00D+00  1.00D+00  5.57D-01  3.96D-01  5.24D-01
                    CP:  5.65D-01
 E= -1682.59528567623     Delta-E=       -0.000000000711 Rises=F Damp=F
 DIIS: error= 1.23D-07 at cycle   7 NSaved=   7.
 NSaved= 7 IEnMin= 7 EnMin= -1682.59528567623     IErMin= 7 ErrMin= 1.23D-07
 ErrMax= 1.23D-07  0.00D+00 EMaxC= 1.00D-01 BMatC= 1.94D-11 BMatP= 7.32D-10
 IDIUse=1 WtCom= 1.00D+00 WtEn= 0.00D+00
 Coeff-Com: -0.598D-03 0.306D-01 0.404D-01 0.461D-01 0.118D+00 0.189D+00
 Coeff-Com:  0.576D+00
 Coeff:     -0.598D-03 0.306D-01 0.404D-01 0.461D-01 0.118D+00 0.189D+00
 Coeff:      0.576D+00
 Gap=     0.091 Goal=   None    Shift=    0.000
 RMSDP=1.45D-08 MaxDP=1.37D-06 DE=-7.11D-10 OVMax= 2.75D-06

 Cycle  13  Pass 1  IDiag  1:
 RMSU=  1.23D-08    CP:  1.00D+00  1.00D+00  5.57D-01  3.95D-01  5.23D-01
                    CP:  6.04D-01  8.46D-01
 E= -1682.59528567632     Delta-E=       -0.000000000092 Rises=F Damp=F
 DIIS: error= 8.07D-08 at cycle   8 NSaved=   8.
 NSaved= 8 IEnMin= 8 EnMin= -1682.59528567632     IErMin= 8 ErrMin= 8.07D-08
 ErrMax= 8.07D-08  0.00D+00 EMaxC= 1.00D-01 BMatC= 5.20D-12 BMatP= 1.94D-11
 IDIUse=1 WtCom= 1.00D+00 WtEn= 0.00D+00
 Coeff-Com: -0.258D-04-0.449D-03-0.561D-03-0.759D-03 0.177D-02 0.199D-01
 Coeff-Com:  0.351D+00 0.629D+00
 Coeff:     -0.258D-04-0.449D-03-0.561D-03-0.759D-03 0.177D-02 0.199D-01
 Coeff:      0.351D+00 0.629D+00
 Gap=     0.091 Goal=   None    Shift=    0.000
 RMSDP=7.03D-09 MaxDP=4.59D-07 DE=-9.19D-11 OVMax= 1.08D-06

 SCF Done:  E(RB3LYP) =  -1682.59528568     A.U. after   13 cycles
            NFock= 13  Conv=0.70D-08     -V/T= 2.0083
 KE= 1.668729158150D+03 PE=-1.008180299918D+04 EE= 3.650427572054D+03
 Leave Link  502 at Thu Mar 14 09:29:26 2024, MaxMem= 32212254720 cpu:             614.9 elap:              20.5
 (Enter /home/<user>/g16/l801.exe)
 DoSCS=F DFT=T ScalE2(SS,OS)=  1.000000  1.000000
 ExpMin= 1.17D-01 ExpMax= 2.19D+04 ExpMxC= 3.30D+03 IAcc=3 IRadAn=         5 AccDes= 0.00D+00
 HarFok:  IExCor=  205 AccDes= 0.00D+00 IRadAn=         5 IDoV=-2 UseB2=F ITyADJ=14
 ICtDFT= 12500011 ScaDFX=  1.000000  1.000000  1.000000  1.000000
 GSVD:  LWork=       -1665 too small for GESVD, short by        7400 words or        7400 for optimal perf.
 Largest valence mixing into a core orbital is  1.10D-04
 Largest core mixing into a valence orbital is  2.81D-05
 Range of M.O.s used for correlation:    38   549
 NBasis=   549 NAE=   118 NBE=   118 NFC=    37 NFV=     0
 NROrb=    512 NOA=    81 NOB=    81 NVA=   431 NVB=   431

 **** Warning!!: The smallest alpha delta epsilon is  0.91496752D-01

 Leave Link  801 at Thu Mar 14 09:29:26 2024, MaxMem= 32212254720 cpu:               2.6 elap:               0.1
 (Enter /home/<user>/g16/l914.exe)
 RHF ground state
 Two-electron integrals replicated using symmetry.
 MDV= 32212254720 DFT=T DoStab=F Mixed=T DoRPA=T DoScal=F NonHer=T
 Making orbital integer symmetry assigments:
 Orbital symmetries:
       Occupied  (A) (A) (A) (A) (A) (A) (A) (A) (A) (A) (A) (A)
                 (A) (A) (A) (A) (A) (A) (A) (A) (A) (A) (A) (A)
                 (A) (A) (A) (A) (A) (A) (A) (A) (A) (A) (A) (A)
                 (A) (A) (A) (A) (A) (A) (A) (A) (A) (A) (A) (A)
                 (A) (A) (A) (A) (A) (A) (A) (A) (A) (A) (A) (A)
                 (A) (A) (A) (A) (A) (A) (A) (A) (A) (A) (A) (A)
                 (A) (A) (A) (A) (A) (A) (A) (A) (A) (A) (A) (A)
                 (A) (A) (A) (A) (A) (A) (A) (A) (A) (A) (A) (A)
                 (A) (A) (A) (A) (A) (A) (A) (A) (A) (A) (A) (A)
                 (A) (A) (A) (A) (A) (A) (A) (A) (A) (A)
       Virtual   (A) (A) (A) (A) (A) (A) (A) (A) (A) (A) (A) (A)
                 (A) (A) (A) (A) (A) (A) (A) (A) (A) (A) (A) (A)
                 (A) (A) (A) (A) (A) (A) (A) (A) (A) (A) (A) (A)
                 (A) (A) (A) (A) (A) (A) (A) (A) (A) (A) (A) (A)
                 (A) (A) (A) (A) (A) (A) (A) (A) (A) (A) (A) (A)
                 (A) (A) (A) (A) (A) (A) (A) (A) (A) (A) (A) (A)
                 (A) (A) (A) (A) (A) (A) (A) (A) (A) (A) (A) (A)
                 (A) (A) (A) (A) (A) (A) (A) (A) (A) (A) (A) (A)
                 (A) (A) (A) (A) (A) (A) (A) (A) (A) (A) (A) (A)
                 (A) (A) (A) (A) (A) (A) (A) (A) (A) (A) (A) (A)
                 (A) (A) (A) (A) (A) (A) (A) (A) (A) (A) (A) (A)
                 (A) (A) (A) (A) (A) (A) (A) (A) (A) (A) (A) (A)
                 (A) (A) (A) (A) (A) (A) (A) (A) (A) (A) (A) (A)
                 (A) (A) (A) (A) (A) (A) (A) (A) (A) (A) (A) (A)
                 (A) (A) (A) (A) (A) (A) (A) (A) (A) (A) (A) (A)
                 (A) (A) (A) (A) (A) (A) (A) (A) (A) (A) (A) (A)
                 (A) (A) (A) (A) (A) (A) (A) (A) (A) (A) (A) (A)
                 (A) (A) (A) (A) (A) (A) (A) (A) (A) (A) (A) (A)
                 (A) (A) (A) (A) (A) (A) (A) (A) (A) (A) (A) (A)
                 (A) (A) (A) (A) (A) (A) (A) (A) (A) (A) (A) (A)
                 (A) (A) (A) (A) (A) (A) (A) (A) (A) (A) (A) (A)
                 (A) (A) (A) (A) (A) (A) (A) (A) (A) (A) (A) (A)
                 (A) (A) (A) (A) (A) (A) (A) (A) (A) (A) (A) (A)
                 (A) (A) (A) (A) (A) (A) (A) (A) (A) (A) (A) (A)
                 (A) (A) (A) (A) (A) (A) (A) (A) (A) (A) (A) (A)
                 (A) (A) (A) (A) (A) (A) (A) (A) (A) (A) (A) (A)
                 (A) (A) (A) (A) (A) (A) (A) (A) (A) (A) (A) (A)
                 (A) (A) (A) (A) (A) (A) (A) (A) (A) (A) (A) (A)
                 (A) (A) (A) (A) (A) (A) (A) (A) (A) (A) (A) (A)
                 (A) (A) (A) (A) (A) (A) (A) (A) (A) (A) (A) (A)
                 (A) (A) (A) (A) (A) (A) (A) (A) (A) (A) (A) (A)
                 (A) (A) (A) (A) (A) (A) (A) (A) (A) (A) (A) (A)
                 (A) (A) (A) (A) (A) (A) (A) (A) (A) (A) (A) (A)
                 (A) (A) (A) (A) (A) (A) (A) (A) (A) (A) (A) (A)
                 (A) (A) (A) (A) (A) (A) (A) (A) (A) (A) (A) (A)
                 (A) (A) (A) (A) (A) (A) (A) (A) (A) (A) (A)
 Generating guess from densities on rwf.
 Convergence on wavefunction:    0.000001000000000
 Davidson Disk Diagonalization:  ConvIn= 1.00D-06 SkipCon=T Conv= 1.00D-06.
 Max sub-space:  2000 roots to seek:     3 dimension of matrix:        69822
 Iteration     1 Dimension     6 NMult     0 NNew      6
 CISAX will form     6 AO SS matrices at one time.
 NMat=     6 NSing=     6 JSym2X= 0.
 FoFJK:  IHMeth= 1 ICntrl=       0 DoSepK=F KAlg= 0 I1Cent=           0 FoldK=F
 IRaf= 550000000 NMat=      12 IRICut=       1 DoRegI=T DoRafI=F ISym2E= 0 IDoP0=0 IntGTp=1.
 FoFCou: FMM=F IPFlag=           0 FMFlag=      100000 FMFlg1=           0
         NFxFlg=           0 DoJE=F BraDBF=F KetDBF=F FulRan=T
         wScrn=  0.000000 ICntrl=         0 IOpCl=  0 I1Cent=           0 NGrid=           0
         NMat0=   12 NMatS0=      6 NMatT0=    0 NMatD0=   12 NMtDS0=    0 NMtDT0=    0
 Symmetry not used in FoFCou.
 Excitation Energies [eV] at current iteration:
 Root      1 :     2.115879311302757
 Root      2 :     2.997838175291642
 Root      3 :     3.368062355480843
 Iteration     2 Dimension    12 NMult     6 NNew      6
 CISAX will form     6 AO SS matrices at one time.
 NMat=     6 NSing=     6 JSym2X= 0.
 Root      1 not converged, maximum delta is    0.009487020353436
 Root      2 not converged, maximum delta is    0.009960971245495
 Root      3 not converged, maximum delta is    0.015073368180543
 Excitation Energies [eV] at current iteration:
 Root      1 :     2.104251310648304   Change is   -0.011628000654453
 Root      2 :     2.983585843458887   Change is   -0.014252331832754
 Root      3 :     3.348037742615489   Change is   -0.020024612865353
 Iteration     3 Dimension    18 NMult    12 NNew      6
 CISAX will form     6 AO SS matrices at one time.
 NMat=     6 NSing=     6 JSym2X= 0.
 Root      1 not converged, maximum delta is    0.002268138833811
 Root      2 not converged, maximum delta is    0.002340714026559
 Root      3 not converged, maximum delta is    0.003643215727806
 Excitation Energies [eV] at current iteration:
 Root      1 :     2.104005952312638   Change is   -0.000245358335665
 Root      2 :     2.983349539735136   Change is   -0.000236303723752
 Root      3 :     3.347867691492106   Change is   -0.000170051123383
 Iteration     4 Dimension    24 NMult    18 NNew      6
 CISAX will form     6 AO SS matrices at one time.
 NMat=     6 NSing=     6 JSym2X= 0.
 Root      1 not converged, maximum delta is    0.000398681488695
 Root      2 not converged, maximum delta is    0.000719995125675
 Root      3 not converged, maximum delta is    0.003911141401540
 Excitation Energies [eV] at current iteration:
 Root      1 :     2.103986302937382   Change is   -0.000019649375256
 Root      2 :     2.983325692097457   Change is   -0.000023847637679
 Root      3 :     3.347816022229305   Change is   -0.000051669262802
 Iteration     5 Dimension    30 NMult    24 NNew      6
 CISAX will form     6 AO SS matrices at one time.
 NMat=     6 NSing=     6 JSym2X= 0.
 Root      1 not converged, maximum delta is    0.000271571945982
 Root      2 not converged, maximum delta is    0.000353850575639
 Root      3 not converged, maximum delta is    0.004214254242093
 Excitation Energies [eV] at current iteration:
 Root      1 :     2.103983410557569   Change is   -0.000002892379813
 Root      2 :     2.983320469772942   Change is   -0.000005222324515
 Root      3 :     3.347789894316850   Change is   -0.000026127912454
 Iteration     6 Dimension    36 NMult    30 NNew      6
 CISAX will form     6 AO SS matrices at one time.
 NMat=     6 NSing=     6 JSym2X= 0.
 Root      1 not converged, maximum delta is    0.000068195667840
 Root      2 not converged, maximum delta is    0.000156171601826
 Root      3 not converged, maximum delta is    0.003741718330386
 Excitation Energies [eV] at current iteration:
 Root      1 :     2.103983051999012   Change is   -0.000000358558557
 Root      2 :     2.983319546087602   Change is   -0.000000923685340
 Root      3 :     3.347776890395778   Change is   -0.000013003921073
 Iteration     7 Dimension    42 NMult    36 NNew      6
 CISAX will form     6 AO SS matrices at one time.
 NMat=     6 NSing=     6 JSym2X= 0.
 Root      1 not converged, maximum delta is    0.000012835405829
 Root      2 not converged, maximum delta is    0.000026765585872
 Root      3 not converged, maximum delta is    0.001188039398896
 Excitation Energies [eV] at current iteration:
 Root      1 :     2.103983013752477   Change is   -0.000000038246535
 Root      2 :     2.983319434505978   Change is   -0.000000111581624
 Root      3 :     3.347773320788309   Change is   -0.000003569607468
 Iteration     8 Dimension    48 NMult    42 NNew      6
 CISAX will form     6 AO SS matrices at one time.
 NMat=     6 NSing=     6 JSym2X= 0.
 Root      1 not converged, maximum delta is    0.000003081425107
 Root      2 not converged, maximum delta is    0.000009232510910
 Root      3 not converged, maximum delta is    0.000440226912034
 Excitation Energies [eV] at current iteration:
 Root      1 :     2.103983009991180   Change is   -0.000000003761297
 Root      2 :     2.983319420415857   Change is   -0.000000014090122
 Root      3 :     3.347772424982807   Change is   -0.000000895805503
 Iteration     9 Dimension    54 NMult    48 NNew      6
 CISAX will form     6 AO SS matrices at one time.
 NMat=     6 NSing=     6 JSym2X= 0.
 Root      1 has converged.
 Root      2 not converged, maximum delta is    0.000001888936188
 Root      3 not converged, maximum delta is    0.000253530526486
 Excitation Energies [eV] at current iteration:
 Root      1 :     2.103983009707241   Change is   -0.000000000283939
 Root      2 :     2.983319418935618   Change is   -0.000000001480238
 Root      3 :     3.347772175501559   Change is   -0.000000249481248
 Iteration    10 Dimension    58 NMult    54 NNew      4
 CISAX will form     4 AO SS matrices at one time.
 NMat=     4 NSing=     4 JSym2X= 0.
 Root      1 has converged.
 Root      2 not converged, maximum delta is    0.000001034669887
 Root      3 not converged, maximum delta is    0.000139814629021
 Excitation Energies [eV] at current iteration:
 Root      1 :     2.103983009703529   Change is   -0.000000000003712
 Root      2 :     2.983319418752456   Change is   -0.000000000183163
 Root      3 :     3.347772112511680   Change is   -0.000000062989879
 Iteration    11 Dimension    62 NMult    58 NNew      4
 CISAX will form     4 AO SS matrices at one time.
 NMat=     4 NSing=     4 JSym2X= 0.
 Root      1 has converged.
 Root      2 has converged.
 Root      3 not converged, maximum delta is    0.000028934938047
 Excitation Energies [eV] at current iteration:
 Root      1 :     2.103983009701302   Change is   -0.000000000002227
 Root      2 :     2.983319418732588   Change is   -0.000000000019868
 Root      3 :     3.347772103016360   Change is   -0.000000009495320
 Iteration    12 Dimension    64 NMult    62 NNew      2
 CISAX will form     2 AO SS matrices at one time.
 NMat=     2 NSing=     2 JSym2X= 0.
 Root      1 has converged.
 Root      2 has converged.
 Root      3 not converged, maximum delta is    0.000005547071749
 Excitation Energies [eV] at current iteration:
 Root      1 :     2.103983009700286   Change is   -0.000000000001016
 Root      2 :     2.983319418732230   Change is   -0.000000000000358
 Root      3 :     3.347772101696113   Change is   -0.000000001320247
 Iteration    13 Dimension    66 NMult    64 NNew      2
 CISAX will form     2 AO SS matrices at one time.
 NMat=     2 NSing=     2 JSym2X= 0.
 Root      1 has converged.
 Root      2 has converged.
 Root      3 not converged, maximum delta is    0.000001718293455
 Excitation Energies [eV] at current iteration:
 Root      1 :     2.103983009699505   Change is   -0.000000000000781
 Root      2 :     2.983319418732175   Change is   -0.000000000000055
 Root      3 :     3.347772101558969   Change is   -0.000000000137145
 Iteration    14 Dimension    68 NMult    66 NNew      2
 CISAX will form     2 AO SS matrices at one time.
 NMat=     2 NSing=     2 JSym2X= 0.
 Root      1 has converged.
 Root      2 has converged.
 Root      3 has converged.
 Excitation Energies [eV] at current iteration:
 Root      1 :     2.103983009699622   Change is    0.000000000000117
 Root      2 :     2.983319418732092   Change is   -0.000000000000083
 Root      3 :     3.347772101540846   Change is   -0.000000000018122
 Convergence achieved on expansion vectors.
 ***********************************************************************
 Excited states from <AA,BB:AA,BB> singles matrix:
 ***********************************************************************
 
 1PDM for each excited state written to RWF  633
 Ground to excited state transition densities written to RWF  633
 Ground to excited state transition electric dipole moments (Au):
       state          X           Y           Z        Dip. S.      Osc.
         1        -2.6416      0.0813      0.0457      6.9865      0.3601
         2         0.2094     -0.3120     -0.0270      0.1419      0.0104
         3         0.0411      0.0341      0.0041      0.0029      0.0002
 Ground to excited state transition velocity dipole moments (Au):
       state          X           Y           Z        Dip. S.      Osc.
         1         0.2071     -0.0059     -0.0036      0.0429      0.3702
         2        -0.0250      0.0380      0.0037      0.0021      0.0126
         3        -0.0034     -0.0054     -0.0002      0.0000      0.0002
 Ground to excited state transition magnetic dipole moments (Au):
       state          X           Y           Z
         1        -0.0143     -0.1664     -0.0544
         2         0.0039      0.0357     -0.1047
         3        -0.0145     -0.0423     -0.1718
 Ground to excited state transition velocity quadrupole moments (Au):
       state          XX          YY          ZZ          XY          XZ          YZ
         1         0.0086      0.0100      0.0047     -0.1214     -0.0419      0.0261
         2        -1.8945      0.2004      0.0036      0.1863      0.0399      0.0604
         3        -0.0101      0.0173     -0.0067     -0.0530     -0.0099      0.0045
 <0|del|b> * <b|rxdel|0> + <0|del|b> * <b|delr+rdel|0>
 Rotatory Strengths (R) in cgs (10**-40 erg-esu-cm/Gauss)
       state          XX          YY          ZZ    R(velocity)    E-M Angle
         1         6.2614     10.0011    -32.6619     -5.4665       92.82
         2         0.4637     -8.6530     13.8193      1.8767       80.04
         3         0.6612      0.1808      1.0038      0.6152       73.67
 1/2[<0|r|b>*<b|rxdel|0> + (<0|rxdel|b>*<b|r|0>)*]
 Rotatory Strengths (R) in cgs (10**-40 erg-esu-cm/Gauss)
       state          XX          YY          ZZ     R(length)
         1       -26.7672      9.5651      1.7581     -5.1480
         2        -0.5720      7.8858     -2.0002      1.7712
         3         0.4217      1.0206      0.5004      0.6476
  1/2[<0|del|b>*<b|r|0> + (<0|r|b>*<b|del|0>)*] (Au)
       state          X           Y           Z        Dip. S.   Osc.(frdel)
         1        -0.5471     -0.0005     -0.0002      0.5477      0.3651
         2        -0.0052     -0.0118     -0.0001      0.0172      0.0114
         3        -0.0001     -0.0002     -0.0000      0.0003      0.0002

 Excitation energies and oscillator strengths:
 
 Excited State   1:      Singlet-A      2.1040 eV  589.28 nm  f=0.3601  <S**2>=0.000
     118 ->119         0.70214
 This state for optimization and/or second-order correction.
 Total Energy, E(TD-HF/TD-DFT) =  -1682.51796572    
 Copying the excited state density for this state as the 1-particle RhoCI density.
 
 Excited State   2:      Singlet-A      2.9833 eV  415.59 nm  f=0.0104  <S**2>=0.000
     117 ->119        -0.69795
 
 Excited State   3:      Singlet-A      3.3478 eV  370.35 nm  f=0.0002  <S**2>=0.000
     113 ->119         0.12815
     114 ->119        -0.13277
     116 ->119         0.67960
 SavETr:  write IOETrn=   770 NScale= 10 NData=  16 NLR=1 NState=    3 LETran=      64.
 The selected state is a singlet.
 CISGrd: IGrad=2 NXY=2 DFT=T
 CISAX will form     1 AO SS matrices at one time.
 NMat=     1 NSing=     1 JSym2X= 0.
 Leave Link  914 at Thu Mar 14 09:32:14 2024, MaxMem= 32212254720 cpu:            5035.1 elap:             167.9
 (Enter /home/<user>/g16/l1002.exe)
 Minotr:  Closed shell wavefunction.
          Computing CIS/TDA/TD derivatives.
          Using Z-Vector for PSCF gradient.
          Skipping F1 and S1 gradient terms here.
          IDoAtm=11111111111111111111111111111111111111111111111111
          IDoAtm=11111111
          Frozen-core window.
          Direct CPHF calculation.
          Differentiating once with respect to electric field.
                with respect to dipole field.
          Differentiating once with respect to nuclear coordinates.
          Requested convergence is 1.0D-10 RMS, and 1.0D-09 maximum.
          NewPWx=F KeepS1=T KeepF1=T KeepIn=T MapXYZ=F SortEE=F KeepMc=T.
 Two-electron integral symmetry used by symmetrizing perturbed Fock matrices.
          MDV=   32212254720 using IRadAn=       5.
          Solving linear equations separately, MaxMat=     360.
          There are     1 degrees of freedom in the 1st order CPHF.  IDoFFX=0 NUNeed=     1.
 FoFJK:  IHMeth= 1 ICntrl=       0 DoSepK=F KAlg= 0 I1Cent=           0 FoldK=F
 IRaf= 580000000 NMat=       1 IRICut=       1 DoRegI=T DoRafI=F ISym2E=-1 IDoP0=0 IntGTp=1.
 FoFCou: FMM=F IPFlag=           0 FMFlag=      100000 FMFlg1=           0
         NFxFlg=           0 DoJE=F BraDBF=F KetDBF=F FulRan=T
         wScrn=  0.000000 ICntrl=         0 IOpCl=  0 I1Cent=           0 NGrid=           0
         NMat0=    1 NMatS0=      1 NMatT0=    0 NMatD0=    1 NMtDS0=    0 NMtDT0=    0
 Petite list used in FoFCou.
 LinEq1:  Iter=  0 NonCon=     1 RMS=6.35D-03 Max=7.02D-01 NDo=     1
 AX will form     1 AO Fock derivatives at one time.
 LinEq1:  Iter=  1 NonCon=     1 RMS=3.87D-03 Max=5.20D-01 NDo=     1
 LinEq1:  Iter=  2 NonCon=     1 RMS=3.16D-03 Max=3.98D-01 NDo=     1
 LinEq1:  Iter=  3 NonCon=     1 RMS=2.92D-03 Max=2.38D-01 NDo=     1
 LinEq1:  Iter=  4 NonCon=     1 RMS=2.65D-03 Max=2.04D-01 NDo=     1
 LinEq1:  Iter=  5 NonCon=     1 RMS=1.71D-03 Max=9.35D-02 NDo=     1
 LinEq1:  Iter=  6 NonCon=     1 RMS=1.11D-03 Max=4.70D-02 NDo=     1
 LinEq1:  Iter=  7 NonCon=     1 RMS=7.58D-04 Max=3.06D-02 NDo=     1
 LinEq1:  Iter=  8 NonCon=     1 RMS=5.47D-04 Max=3.16D-02 NDo=     1
 LinEq1:  Iter=  9 NonCon=     1 RMS=4.05D-04 Max=1.91D-02 NDo=     1
 LinEq1:  Iter= 10 NonCon=     1 RMS=2.62D-04 Max=1.31D-02 NDo=     1
 LinEq1:  Iter= 11 NonCon=     1 RMS=1.70D-04 Max=7.54D-03 NDo=     1
 LinEq1:  Iter= 12 NonCon=     1 RMS=1.11D-04 Max=5.98D-03 NDo=     1
 LinEq1:  Iter= 13 NonCon=     1 RMS=8.10D-05 Max=4.02D-03 NDo=     1
 LinEq1:  Iter= 14 NonCon=     1 RMS=5.39D-05 Max=2.08D-03 NDo=     1
 LinEq1:  Iter= 15 NonCon=     1 RMS=3.71D-05 Max=2.30D-03 NDo=     1
 LinEq1:  Iter= 16 NonCon=     1 RMS=1.84D-05 Max=1.20D-03 NDo=     1
 LinEq1:  Iter= 17 NonCon=     1 RMS=1.21D-05 Max=4.95D-04 NDo=     1
 LinEq1:  Iter= 18 NonCon=     1 RMS=6.79D-06 Max=4.27D-04 NDo=     1
 LinEq1:  Iter= 19 NonCon=     1 RMS=3.60D-06 Max=1.88D-04 NDo=     1
 LinEq1:  Iter= 20 NonCon=     1 RMS=1.96D-06 Max=9.16D-05 NDo=     1
 LinEq1:  Iter= 21 NonCon=     1 RMS=1.40D-06 Max=5.48D-05 NDo=     1
 LinEq1:  Iter= 22 NonCon=     1 RMS=7.54D-07 Max=3.54D-05 NDo=     1
 LinEq1:  Iter= 23 NonCon=     1 RMS=4.50D-07 Max=1.97D-05 NDo=     1
 LinEq1:  Iter= 24 NonCon=     1 RMS=2.35D-07 Max=1.02D-05 NDo=     1
 LinEq1:  Iter= 25 NonCon=     1 RMS=1.52D-07 Max=5.96D-06 NDo=     1
 LinEq1:  Iter= 26 NonCon=     1 RMS=7.15D-08 Max=3.03D-06 NDo=     1
 LinEq1:  Iter= 27 NonCon=     1 RMS=4.01D-08 Max=1.81D-06 NDo=     1
 LinEq1:  Iter= 28 NonCon=     1 RMS=2.08D-08 Max=6.54D-07 NDo=     1
 LinEq1:  Iter= 29 NonCon=     1 RMS=9.04D-09 Max=3.13D-07 NDo=     1
 LinEq1:  Iter= 30 NonCon=     1 RMS=5.20D-09 Max=1.81D-07 NDo=     1
 LinEq1:  Iter= 31 NonCon=     1 RMS=2.91D-09 Max=1.13D-07 NDo=     1
 LinEq1:  Iter= 32 NonCon=     1 RMS=1.56D-09 Max=5.56D-08 NDo=     1
 LinEq1:  Iter= 33 NonCon=     1 RMS=9.09D-10 Max=3.80D-08 NDo=     1
 LinEq1:  Iter= 34 NonCon=     1 RMS=4.97D-10 Max=1.53D-08 NDo=     1
 LinEq1:  Iter= 35 NonCon=     1 RMS=2.81D-10 Max=1.24D-08 NDo=     1
 LinEq1:  Iter= 36 NonCon=     1 RMS=1.28D-10 Max=4.16D-09 NDo=     1
 LinEq1:  Iter= 37 NonCon=     1 RMS=6.57D-11 Max=2.25D-09 NDo=     1
 LinEq1:  Iter= 38 NonCon=     0 RMS=2.64D-11 Max=6.31D-10 NDo=     1
 Linear equations converged to 1.000D-10 1.000D-09 after    38 iterations.
 End of Minotr F.D. properties file   721 does not exist.
 End of Minotr F.D. properties file   722 does not exist.
 End of Minotr F.D. properties file   788 does not exist.
 Leave Link 1002 at Thu Mar 14 09:33:50 2024, MaxMem= 32212254720 cpu:            2855.1 elap:              96.1
 (Enter /home/<user>/g16/l701.exe)
 ... and contract with generalized density number  6.
 Compute integral first derivatives.
 Leave Link  701 at Thu Mar 14 09:33:51 2024, MaxMem= 32212254720 cpu:               6.6 elap:               0.2
 (Enter /home/<user>/g16/l702.exe)
 L702 exits ... SP integral derivatives will be done elsewhere.
 Leave Link  702 at Thu Mar 14 09:33:51 2024, MaxMem= 32212254720 cpu:               0.9 elap:               0.0
 (Enter /home/<user>/g16/l703.exe)
 Integral derivatives from FoFJK, PRISM(SPDF).
 Compute integral first derivatives, UseDBF=F ICtDFT=           0.
 Calling FoFJK, ICntrl=  10005127 FMM=F ISym2X=0 I1Cent= 0 IOpClX= 0 NMat=1 NMatS=1 NMatT=0.
 FoFJK:  IHMeth= 1 ICntrl=10005127 DoSepK=F KAlg= 0 I1Cent=           0 FoldK=F
 IRaf=         0 NMat=       1 IRICut=       1 DoRegI=T DoRafI=F ISym2E= 0 IDoP0=0 IntGTp=1.
 FoFCou: FMM=F IPFlag=           0 FMFlag=      100000 FMFlg1=         800
         NFxFlg=           0 DoJE=F BraDBF=F KetDBF=F FulRan=T
         wScrn=  0.000000 ICntrl=  10005127 IOpCl=  0 I1Cent=           0 NGrid=           0
         NMat0=    1 NMatS0=      1 NMatT0=    0 NMatD0=    1 NMtDS0=    0 NMtDT0=    0
 Symmetry not used in FoFCou.
 Leave Link  703 at Thu Mar 14 09:33:59 2024, MaxMem= 32212254720 cpu:             235.9 elap:               7.9
 (Enter /home/<user>/g16/l716.exe)
 Dipole        =-2.12751105D+00-1.72105006D+00-1.94623478D-01
 ***** Axes restored to original set *****
 -------------------------------------------------------------------
 Center     Atomic                   Forces (Hartrees/Bohr)
 Number     Number              X              Y              Z
 -------------------------------------------------------------------
      1        6           0.000371994   -0.001096951    0.001668504
      2        6           0.001747735    0.000007049   -0.001661750
      3        6          -0.001099063    0.000391690   -0.000061613
      4        6           0.000257049    0.001249107   -0.000229830
      5        6           0.001044625   -0.000123428   -0.000263218
      6        6           0.000014710   -0.001243812    0.000490225
      7        1           0.000981196    0.000744048   -0.000017040
      8        1          -0.001211972    0.000063060    0.000571463
      9        1          -0.000009785    0.000210592   -0.000035806
     10        6          -0.000092644    0.000016425   -0.000122101
     11        6           0.000262195    0.000928811   -0.000260565
     12        6          -0.000289180    0.000321099   -0.000065621
     13        6           0.000149716    0.000220480   -0.000066928
     14        6          -0.000161648   -0.000569756    0.000157545
     15        6           0.000501558   -0.000596274    0.000179205
     16        6          -0.001392762   -0.000405882    0.000149787
     17        1          -0.000000992   -0.000111224    0.000029804
     18        1           0.000004703    0.000007947   -0.000006417
     19        1          -0.000084896    0.000040725   -0.000014408
     20        1           0.000060474    0.000132209   -0.000040255
     21        6          -0.000022231   -0.000074986    0.000026521
     22        1          -0.000002447   -0.000015133    0.000052963
     23        1           0.000063497   -0.000058528    0.000074977
     24        1          -0.000011060    0.000030697   -0.000000522
     25        6          -0.000043166   -0.000078273    0.000028646
     26        1           0.000062319   -0.000092437   -0.000038545
     27        1           0.000009908   -0.000046345   -0.000030632
     28        1          -0.000001440    0.000024888   -0.000000527
     29        6          -0.003907956    0.001663198    0.001220616
     30        6           0.002603655   -0.001814297   -0.000571509
     31        6           0.000946518   -0.000149345    0.000029675
     32        6          -0.002890244   -0.001241908   -0.000600007
     33        6          -0.000445184    0.000039580    0.000586287
     34        1           0.000709876    0.000783884   -0.000507849
     35        6           0.003842658    0.000094639    0.000726109
     36        1          -0.000275748    0.000664405   -0.000377419
     37        7          -0.002488793   -0.001210966   -0.000936898
     38        7           0.000489637   -0.001472083   -0.000644180
     39       16           0.000145554    0.003291523    0.000636343
     40        6          -0.002140802    0.000151300   -0.001039146
     41        6           0.001312772   -0.000211169    0.000628515
     42        6           0.001228622   -0.000466039   -0.000087359
     43        6          -0.000464436   -0.000309354    0.000267978
     44        1          -0.000243810    0.000165597    0.000016746
     45        6          -0.000855067   -0.000038159    0.000021350
     46        1           0.000970569   -0.000073072    0.000342433
     47        6           0.000616213    0.000154362   -0.000164353
     48        1          -0.000030344    0.000063592   -0.000034521
     49        1          -0.000066036    0.000002854   -0.000041912
     50        6          -0.000190830   -0.000075539   -0.000240815
     51        1          -0.000006366    0.000039234    0.000059429
     52        1          -0.000014613    0.000011149    0.000044160
     53        6           0.000156370    0.000003035    0.000245437
     54        1           0.000000498    0.000022869   -0.000050023
     55        1           0.000010180    0.000010758    0.000005466
     56        7          -0.000130464    0.000086015   -0.000084656
     57        1           0.000020354    0.000000359    0.000035274
     58        1          -0.000011179   -0.000062216    0.000000967
 -------------------------------------------------------------------
 Cartesian Forces:  Max     0.003907956 RMS     0.000823392
 Leave Link  716 at Thu Mar 14 09:33:59 2024, MaxMem= 32212254720 cpu:               1.7 elap:               0.1
 (Enter /home/<user>/g16/l103.exe)

 GradGradGradGradGradGradGradGradGradGradGradGradGradGradGradGradGradGrad
 Berny optimization.
 Using GEDIIS/GDIIS optimizer.
 FormGI is forming the generalized inverse of G from B-inverse, IUseBI=4.
 GSVD:  received Info=                   1 from GESDD.
 Internal  Forces:  Max     0.005642254 RMS     0.000726227
 Search for a local minimum.
 Step number   3 out of a maximum of  346
 All quantities printed in internal units (Hartrees-Bohrs-Radians)
 RMS Force = .72623D-03 SwitMx=.10000D-02 MixMth= 2
 Mixed Optimization -- En-DIIS/RFO-DIIS
 Update second derivatives using D2CorX and points    2    3
 DE= -1.44D-03 DEPred=-1.55D-03 R= 9.31D-01
 TightC=F SS=  1.41D+00  RLast= 2.67D-01 DXNew= 8.4853D-01 7.9982D-01
 Trust test= 9.31D-01 RLast= 2.67D-01 DXMaxT set to 8.00D-01
 ITU=  1  1  0
 Use linear search instead of GDIIS.
     Eigenvalues ---    0.00230   0.00230   0.00250   0.00611   0.00754
     Eigenvalues ---    0.00809   0.00961   0.01037   0.01250   0.01451
     Eigenvalues ---    0.01468   0.01607   0.01625   0.01639   0.01643
     Eigenvalues ---    0.01686   0.01708   0.01732   0.01750   0.01795
     Eigenvalues ---    0.01886   0.01907   0.02014   0.02032   0.02036
     Eigenvalues ---    0.02072   0.02085   0.02088   0.02093   0.02094
     Eigenvalues ---    0.02107   0.02112   0.02117   0.02119   0.02124
     Eigenvalues ---    0.02134   0.02141   0.02145   0.02148   0.02155
     Eigenvalues ---    0.02160   0.02161   0.02172   0.02302   0.04055
     Eigenvalues ---    0.04281   0.04380   0.04482   0.05418   0.05422
     Eigenvalues ---    0.05436   0.05519   0.05519   0.05560   0.05999
     Eigenvalues ---    0.08027   0.08956   0.09264   0.11589   0.12602
     Eigenvalues ---    0.12817   0.15326   0.15971   0.15988   0.15998
     Eigenvalues ---    0.15999   0.16000   0.16000   0.16000   0.16000
     Eigenvalues ---    0.16000   0.16000   0.16000   0.16000   0.16000
     Eigenvalues ---    0.16000   0.16000   0.16000   0.16000   0.16000
     Eigenvalues ---    0.16018   0.16159   0.18901   0.20786   0.21877
     Eigenvalues ---    0.21955   0.22003   0.22010   0.22451   0.22472
     Eigenvalues ---    0.22623   0.22990   0.23754   0.24221   0.24537
     Eigenvalues ---    0.24687   0.24948   0.24981   0.24985   0.24990
     Eigenvalues ---    0.24996   0.24997   0.24999   0.25439   0.28048
     Eigenvalues ---    0.28065   0.28435   0.28604   0.29006   0.30757
     Eigenvalues ---    0.31222   0.33128   0.33783   0.33856   0.34027
     Eigenvalues ---    0.34091   0.34101   0.34104   0.34105   0.34131
     Eigenvalues ---    0.34276   0.34289   0.34569   0.34737   0.35033
     Eigenvalues ---    0.35049   0.35084   0.35115   0.35152   0.35158
     Eigenvalues ---    0.35174   0.35187   0.35190   0.35228   0.35285
     Eigenvalues ---    0.35493   0.35584   0.36140   0.36643   0.37447
     Eigenvalues ---    0.38090   0.38955   0.40347   0.41337   0.41591
     Eigenvalues ---    0.41687   0.41742   0.42052   0.42421   0.43189
     Eigenvalues ---    0.44060   0.44364   0.44523   0.44692   0.44948
     Eigenvalues ---    0.44998   0.45222   0.45801   0.45960   0.46084
     Eigenvalues ---    0.46257   0.46869   0.47017   0.47102   0.47576
     Eigenvalues ---    0.49081   0.54621   0.56313
 RFO step:  Lambda=-9.82233016D-04 EMin= 2.29999868D-03
 Quartic linear search produced a step of -0.01742.
 Iteration  1 RMS(Cart)=  0.05508151 RMS(Int)=  0.00052609
 Iteration  2 RMS(Cart)=  0.00108597 RMS(Int)=  0.00003812
 Iteration  3 RMS(Cart)=  0.00000066 RMS(Int)=  0.00003812
 ITry= 1 IFail=0 DXMaxC= 3.50D-01 DCOld= 1.00D+10 DXMaxT= 8.00D-01 DXLimC= 3.00D+00 Rises=F
 Variable       Old X    -DE/DX   Delta X   Delta X   Delta X     New X
                                 (Linear)    (Quad)   (Total)
    R1        2.70178  -0.00141  -0.00020   0.00008  -0.00011   2.70167
    R2        2.61385  -0.00005   0.00002   0.00003   0.00005   2.61390
    R3        2.04102   0.00114   0.00007   0.00171   0.00179   2.04281
    R4        2.69507   0.00098  -0.00017   0.00502   0.00486   2.69993
    R5        2.76055  -0.00110  -0.00005  -0.00051  -0.00057   2.75999
    R6        2.60187  -0.00028   0.00006  -0.00110  -0.00104   2.60082
    R7        2.05039  -0.00048   0.00002  -0.00170  -0.00168   2.04871
    R8        2.68642  -0.00108   0.00000  -0.00333  -0.00334   2.68308
    R9        2.88797   0.00023  -0.00002   0.00122   0.00120   2.88917
   R10        2.65613  -0.00089  -0.00000  -0.00253  -0.00254   2.65359
   R11        2.73548   0.00090   0.00010   0.00152   0.00162   2.73710
   R12        2.05277   0.00019   0.00001   0.00045   0.00045   2.05322
   R13        2.88657   0.00007  -0.00000   0.00040   0.00040   2.88697
   R14        2.92030   0.00019   0.00001   0.00033   0.00034   2.92064
   R15        2.91985   0.00018   0.00001   0.00035   0.00036   2.92021
   R16        2.62250   0.00016  -0.00002   0.00094   0.00092   2.62341
   R17        2.68028  -0.00085   0.00000  -0.00251  -0.00250   2.67778
   R18        2.64835  -0.00031   0.00002  -0.00115  -0.00113   2.64722
   R19        2.05395   0.00011  -0.00000   0.00039   0.00038   2.05433
   R20        2.65270  -0.00053   0.00001  -0.00162  -0.00161   2.65109
   R21        2.05320  -0.00001  -0.00001   0.00013   0.00013   2.05333
   R22        2.62920   0.00023  -0.00000   0.00091   0.00090   2.63010
   R23        2.05246   0.00009  -0.00000   0.00032   0.00032   2.05278
   R24        2.65362  -0.00057  -0.00003  -0.00100  -0.00103   2.65259
   R25        2.05257   0.00015   0.00001   0.00031   0.00032   2.05289
   R26        2.07106   0.00002   0.00000   0.00008   0.00008   2.07114
   R27        2.07035   0.00009  -0.00000   0.00039   0.00038   2.07073
   R28        2.06815   0.00002   0.00000  -0.00003  -0.00002   2.06812
   R29        2.07054   0.00009  -0.00000   0.00040   0.00040   2.07094
   R30        2.07101   0.00002   0.00000   0.00007   0.00007   2.07108
   R31        2.06842   0.00001   0.00001  -0.00009  -0.00008   2.06834
   R32        2.71633  -0.00203  -0.00005  -0.00384  -0.00390   2.71244
   R33        2.68114   0.00086  -0.00027   0.00525   0.00498   2.68612
   R34        2.72875  -0.00132   0.00002  -0.00366  -0.00364   2.72511
   R35        2.55349   0.00033  -0.00014   0.00272   0.00258   2.55607
   R36        2.61151   0.00146   0.00029  -0.00010   0.00019   2.61170
   R37        2.05073  -0.00094   0.00006  -0.00397  -0.00390   2.04683
   R38        2.71861   0.00030   0.00001   0.00049   0.00051   2.71912
   R39        2.55097   0.00029  -0.00010   0.00195   0.00184   2.55281
   R40        2.67651   0.00080  -0.00022   0.00428   0.00407   2.68058
   R41        2.04959  -0.00062   0.00006  -0.00287  -0.00282   2.04677
   R42        2.76695   0.00025   0.00001   0.00150   0.00152   2.76847
   R43        3.18139   0.00146  -0.00046   0.01089   0.01043   3.19182
   R44        3.17424   0.00209  -0.00038   0.01084   0.01046   3.18470
   R45        2.67630   0.00042  -0.00015   0.00364   0.00349   2.67979
   R46        2.67714   0.00133  -0.00013   0.00522   0.00509   2.68223
   R47        2.62425  -0.00033   0.00002  -0.00094  -0.00092   2.62333
   R48        2.04322   0.00023   0.00006  -0.00057  -0.00051   2.04271
   R49        2.62089  -0.00060   0.00006  -0.00214  -0.00208   2.61880
   R50        2.05105  -0.00047   0.00002  -0.00176  -0.00174   2.04931
   R51        2.65358  -0.00035   0.00002  -0.00138  -0.00137   2.65221
   R52        2.05584   0.00004   0.00000   0.00004   0.00005   2.05589
   R53        2.65594   0.00000  -0.00000  -0.00024  -0.00025   2.65568
   R54        2.05586  -0.00003   0.00000  -0.00019  -0.00019   2.05567
   R55        2.85159  -0.00017   0.00002  -0.00083  -0.00081   2.85078
   R56        2.07128  -0.00005   0.00000  -0.00019  -0.00019   2.07109
   R57        2.07670  -0.00003   0.00000  -0.00018  -0.00017   2.07653
   R58        2.91196   0.00016  -0.00003   0.00100   0.00097   2.91293
   R59        2.08732   0.00001   0.00000  -0.00003  -0.00002   2.08730
   R60        2.07260  -0.00001   0.00000  -0.00004  -0.00004   2.07256
   R61        2.77112  -0.00012   0.00000  -0.00034  -0.00034   2.77079
   R62        1.92723  -0.00001   0.00000  -0.00003  -0.00003   1.92720
   R63        1.92539  -0.00001  -0.00000  -0.00000  -0.00000   1.92539
    A1        2.12039   0.00054  -0.00009   0.00402   0.00393   2.12432
    A2        2.06265  -0.00070   0.00018  -0.00704  -0.00686   2.05580
    A3        2.10007   0.00016  -0.00009   0.00303   0.00294   2.10301
    A4        2.05988  -0.00088   0.00030  -0.00948  -0.00930   2.05058
    A5        2.13038  -0.00421  -0.00034  -0.00857  -0.00905   2.12133
    A6        2.09263   0.00510   0.00005   0.01873   0.01864   2.11127
    A7        2.10420   0.00003  -0.00018   0.00416   0.00398   2.10818
    A8        2.07767   0.00113   0.00009   0.00490   0.00498   2.08265
    A9        2.10057  -0.00117   0.00009  -0.00930  -0.00922   2.09135
   A10        2.10060   0.00047  -0.00005   0.00301   0.00294   2.10354
   A11        2.25077  -0.00040  -0.00007   0.00002  -0.00004   2.25073
   A12        1.93180  -0.00007   0.00012  -0.00304  -0.00292   1.92888
   A13        2.09691  -0.00052   0.00013  -0.00526  -0.00516   2.09175
   A14        1.89780   0.00015  -0.00007   0.00213   0.00206   1.89986
   A15        2.28846   0.00037  -0.00006   0.00310   0.00305   2.29151
   A16        2.08427   0.00036  -0.00011   0.00351   0.00339   2.08765
   A17        2.09299  -0.00027  -0.00002  -0.00076  -0.00077   2.09222
   A18        2.10592  -0.00009   0.00013  -0.00276  -0.00262   2.10330
   A19        1.76298   0.00002  -0.00010   0.00259   0.00248   1.76547
   A20        1.94434  -0.00000   0.00002  -0.00049  -0.00046   1.94388
   A21        1.94512   0.00000   0.00001  -0.00021  -0.00019   1.94492
   A22        1.94308  -0.00001   0.00002  -0.00064  -0.00062   1.94246
   A23        1.94371  -0.00000   0.00002  -0.00047  -0.00044   1.94326
   A24        1.92039  -0.00001   0.00001  -0.00059  -0.00058   1.91982
   A25        2.25203  -0.00012  -0.00007   0.00105   0.00099   2.25302
   A26        1.93559   0.00005   0.00010  -0.00207  -0.00197   1.93362
   A27        2.09556   0.00007  -0.00003   0.00102   0.00099   2.09654
   A28        2.07815   0.00006  -0.00002   0.00079   0.00078   2.07893
   A29        2.11213  -0.00005  -0.00003   0.00019   0.00017   2.11230
   A30        2.09290  -0.00001   0.00004  -0.00099  -0.00094   2.09196
   A31        2.11032  -0.00017   0.00003  -0.00155  -0.00151   2.10880
   A32        2.08705   0.00009  -0.00003   0.00110   0.00107   2.08812
   A33        2.08581   0.00008  -0.00000   0.00045   0.00045   2.08626
   A34        2.10372  -0.00003  -0.00002   0.00034   0.00032   2.10405
   A35        2.08734  -0.00001   0.00006  -0.00140  -0.00134   2.08600
   A36        2.09212   0.00003  -0.00005   0.00107   0.00102   2.09314
   A37        2.07199   0.00011  -0.00003   0.00127   0.00123   2.07322
   A38        2.10392  -0.00002  -0.00004   0.00070   0.00066   2.10458
   A39        2.10728  -0.00009   0.00007  -0.00196  -0.00189   2.10539
   A40        1.89655  -0.00015  -0.00005   0.00037   0.00032   1.89687
   A41        2.28000   0.00020  -0.00002   0.00150   0.00149   2.28149
   A42        2.10663  -0.00005   0.00007  -0.00187  -0.00180   2.10483
   A43        1.93038   0.00006   0.00000   0.00035   0.00035   1.93072
   A44        1.92900   0.00010   0.00001   0.00059   0.00060   1.92960
   A45        1.94157  -0.00006   0.00001  -0.00077  -0.00076   1.94081
   A46        1.88301  -0.00006  -0.00001  -0.00010  -0.00011   1.88290
   A47        1.89003  -0.00002  -0.00001  -0.00005  -0.00006   1.88997
   A48        1.88810  -0.00002  -0.00000  -0.00001  -0.00002   1.88808
   A49        1.92869   0.00010   0.00001   0.00064   0.00064   1.92933
   A50        1.93093   0.00007   0.00000   0.00040   0.00040   1.93134
   A51        1.94199  -0.00007   0.00001  -0.00076  -0.00075   1.94124
   A52        1.88218  -0.00007  -0.00000  -0.00024  -0.00024   1.88194
   A53        1.88879  -0.00002  -0.00000  -0.00010  -0.00010   1.88870
   A54        1.88946  -0.00001  -0.00001   0.00005   0.00004   1.88950
   A55        2.15527  -0.00366  -0.00059  -0.00067  -0.00135   2.15391
   A56        2.07693   0.00564   0.00048   0.01317   0.01355   2.09048
   A57        2.05098  -0.00198   0.00011  -0.01238  -0.01239   2.03858
   A58        2.09595   0.00188  -0.00002   0.00795   0.00790   2.10385
   A59        2.18874  -0.00295   0.00011  -0.01241  -0.01230   2.17643
   A60        1.99754   0.00108  -0.00008   0.00485   0.00476   2.00230
   A61        2.13575   0.00050  -0.00009   0.00522   0.00509   2.14084
   A62        2.08137  -0.00008   0.00023  -0.00588  -0.00567   2.07570
   A63        2.06442  -0.00043  -0.00013  -0.00003  -0.00018   2.06424
   A64        2.10182   0.00134  -0.00004   0.00634   0.00628   2.10811
   A65        2.00156  -0.00083  -0.00025   0.00104   0.00078   2.00234
   A66        2.17913  -0.00051   0.00030  -0.00720  -0.00689   2.17224
   A67        2.13020   0.00085   0.00001   0.00507   0.00503   2.13523
   A68        2.07054  -0.00047  -0.00021   0.00138   0.00113   2.07167
   A69        2.08153  -0.00039   0.00020  -0.00714  -0.00698   2.07455
   A70        2.05140  -0.00260   0.00004  -0.01255  -0.01257   2.03883
   A71        2.14497   0.00058  -0.00035   0.01031   0.00991   2.15487
   A72        2.08680   0.00202   0.00031   0.00235   0.00260   2.08940
   A73        1.84414   0.00018   0.00018  -0.00300  -0.00282   1.84132
   A74        1.84469   0.00110   0.00025  -0.00058  -0.00034   1.84435
   A75        1.73662  -0.00154  -0.00010  -0.00223  -0.00233   1.73429
   A76        2.13551  -0.00077  -0.00020   0.00149   0.00126   2.13677
   A77        2.10017   0.00201   0.00003   0.00708   0.00708   2.10725
   A78        2.04717  -0.00123   0.00018  -0.00826  -0.00810   2.03907
   A79        2.10797   0.00060  -0.00005   0.00371   0.00366   2.11163
   A80        2.07653  -0.00049   0.00009  -0.00411  -0.00402   2.07252
   A81        2.09869  -0.00011  -0.00004   0.00039   0.00035   2.09904
   A82        2.11831   0.00042  -0.00010   0.00407   0.00396   2.12227
   A83        2.08401   0.00064   0.00003   0.00347   0.00349   2.08750
   A84        2.08027  -0.00106   0.00008  -0.00778  -0.00771   2.07256
   A85        2.12316   0.00028  -0.00005   0.00179   0.00174   2.12490
   A86        2.07974  -0.00021  -0.00001  -0.00064  -0.00064   2.07909
   A87        2.08029  -0.00007   0.00006  -0.00115  -0.00110   2.07919
   A88        2.11353   0.00030  -0.00001   0.00138   0.00137   2.11490
   A89        2.08703  -0.00020  -0.00003  -0.00030  -0.00033   2.08670
   A90        2.08262  -0.00009   0.00004  -0.00109  -0.00104   2.08158
   A91        2.05604  -0.00036   0.00004  -0.00272  -0.00270   2.05334
   A92        2.11681   0.00020  -0.00003   0.00152   0.00150   2.11830
   A93        2.10973   0.00016  -0.00001   0.00108   0.00107   2.11080
   A94        1.93341   0.00001  -0.00001   0.00031   0.00030   1.93371
   A95        1.91500   0.00001  -0.00001   0.00023   0.00022   1.91522
   A96        1.96543  -0.00001   0.00001  -0.00022  -0.00021   1.96522
   A97        1.86654   0.00002  -0.00002   0.00073   0.00071   1.86725
   A98        1.88338  -0.00002   0.00002  -0.00057  -0.00055   1.88282
   A99        1.89698  -0.00002   0.00002  -0.00046  -0.00044   1.89654
   A100       1.89942   0.00001   0.00001  -0.00012  -0.00011   1.89931
   A101       1.90049   0.00002   0.00001  -0.00014  -0.00014   1.90035
   A102       1.92163  -0.00007   0.00001  -0.00056  -0.00055   1.92107
   A103       1.85915   0.00000  -0.00001   0.00043   0.00042   1.85957
   A104       1.99740   0.00004  -0.00001   0.00039   0.00038   1.99778
   A105       1.88283   0.00001  -0.00000   0.00002   0.00002   1.88285
   A106       1.91140   0.00004  -0.00000   0.00040   0.00040   1.91180
   A107       1.91397   0.00001  -0.00000   0.00026   0.00026   1.91423
   A108       1.84797  -0.00001   0.00000   0.00013   0.00013   1.84810
    D1       -0.00916  -0.00041  -0.00011  -0.01922  -0.01924  -0.02841
    D2        3.10625   0.00029   0.00008   0.01083   0.01066   3.11692
    D3        3.11989  -0.00040  -0.00006  -0.01797  -0.01790   3.10199
    D4       -0.04788   0.00031   0.00013   0.01208   0.01200  -0.03588
    D5        0.01507   0.00013  -0.00005   0.00693   0.00687   0.02194
    D6       -3.13033   0.00009  -0.00004   0.00577   0.00575  -3.12458
    D7       -3.11371   0.00012  -0.00011   0.00572   0.00556  -3.10815
    D8        0.02407   0.00009  -0.00009   0.00456   0.00444   0.02851
    D9       -0.00492   0.00045   0.00022   0.01883   0.01901   0.01409
   D10       -3.10534   0.00054   0.00004   0.02576   0.02583  -3.07951
   D11       -3.12092  -0.00010   0.00003  -0.01013  -0.01028  -3.13121
   D12        0.06184  -0.00000  -0.00014  -0.00320  -0.00347   0.05837
   D13        0.44254  -0.00117   0.00122  -0.09789  -0.09681   0.34572
   D14       -2.70408  -0.00059   0.00143  -0.07048  -0.06903  -2.77311
   D15       -2.72571  -0.00054   0.00142  -0.06771  -0.06630  -2.79201
   D16        0.41086   0.00004   0.00163  -0.04030  -0.03852   0.37234
   D17        0.01268  -0.00019  -0.00017  -0.00638  -0.00661   0.00607
   D18       -3.12063  -0.00018  -0.00013  -0.00489  -0.00507  -3.12570
   D19        3.11256  -0.00023   0.00001  -0.01306  -0.01312   3.09944
   D20       -0.02075  -0.00022   0.00004  -0.01158  -0.01158  -0.03233
   D21       -0.00673  -0.00012   0.00000  -0.00645  -0.00643  -0.01316
   D22        3.13905   0.00000   0.00005  -0.00053  -0.00047   3.13858
   D23        3.12798  -0.00013  -0.00003  -0.00767  -0.00770   3.12027
   D24       -0.00943  -0.00001   0.00002  -0.00176  -0.00175  -0.01117
   D25       -3.14004   0.00001  -0.00005   0.00066   0.00061  -3.13943
   D26        1.07821   0.00000  -0.00002   0.00019   0.00016   1.07837
   D27       -1.07403   0.00001  -0.00007   0.00146   0.00138  -1.07265
   D28        0.00919   0.00001  -0.00001   0.00201   0.00201   0.01120
   D29       -2.05575   0.00001   0.00001   0.00154   0.00156  -2.05419
   D30        2.07520   0.00002  -0.00004   0.00281   0.00278   2.07798
   D31       -0.00715   0.00015   0.00011   0.00619   0.00632  -0.00083
   D32        3.13828   0.00018   0.00009   0.00735   0.00745  -3.13746
   D33        3.12917  -0.00000   0.00005  -0.00126  -0.00119   3.12798
   D34       -0.00858   0.00003   0.00003  -0.00010  -0.00007  -0.00865
   D35        0.00540  -0.00000  -0.00002   0.00070   0.00068   0.00609
   D36       -3.13631  -0.00003  -0.00002  -0.00019  -0.00022  -3.13653
   D37       -3.13138   0.00014   0.00003   0.00752   0.00759  -3.12379
   D38        0.01009   0.00011   0.00003   0.00663   0.00669   0.01677
   D39        3.13595   0.00000   0.00001  -0.00061  -0.00061   3.13535
   D40       -0.00585  -0.00001   0.00000  -0.00159  -0.00160  -0.00745
   D41       -1.08137   0.00001  -0.00001  -0.00004  -0.00005  -1.08142
   D42        2.06000  -0.00001  -0.00002  -0.00101  -0.00104   2.05897
   D43        1.06892  -0.00001   0.00004  -0.00160  -0.00156   1.06737
   D44       -2.07288  -0.00003   0.00003  -0.00258  -0.00255  -2.07543
   D45        3.07643  -0.00001  -0.00006   0.00054   0.00048   3.07691
   D46       -1.12259   0.00002  -0.00006   0.00101   0.00096  -1.12163
   D47        0.97524   0.00001  -0.00005   0.00088   0.00083   0.97607
   D48        1.12307  -0.00003   0.00004  -0.00196  -0.00192   1.12115
   D49       -3.07594  -0.00001   0.00004  -0.00149  -0.00145  -3.07739
   D50       -0.97811  -0.00001   0.00005  -0.00163  -0.00158  -0.97969
   D51       -1.04049  -0.00001  -0.00001  -0.00049  -0.00051  -1.04100
   D52        1.04368   0.00001  -0.00001  -0.00002  -0.00003   1.04365
   D53        3.14151   0.00001  -0.00001  -0.00015  -0.00016   3.14135
   D54        1.12330  -0.00002   0.00006  -0.00170  -0.00164   1.12167
   D55       -3.07659  -0.00000   0.00007  -0.00133  -0.00126  -3.07785
   D56       -0.97547  -0.00001   0.00006  -0.00151  -0.00145  -0.97691
   D57        3.07747   0.00001  -0.00004   0.00107   0.00103   3.07850
   D58       -1.12242   0.00003  -0.00004   0.00144   0.00140  -1.12102
   D59        0.97870   0.00001  -0.00004   0.00126   0.00122   0.97992
   D60       -1.04251  -0.00001   0.00001  -0.00051  -0.00049  -1.04301
   D61        1.04078   0.00001   0.00002  -0.00013  -0.00012   1.04066
   D62       -3.14129  -0.00001   0.00001  -0.00031  -0.00030  -3.14159
   D63        3.14076  -0.00002  -0.00001  -0.00084  -0.00086   3.13991
   D64        0.00001  -0.00002  -0.00001  -0.00091  -0.00092  -0.00091
   D65       -0.00060   0.00000  -0.00000   0.00022   0.00022  -0.00038
   D66       -3.14135   0.00000   0.00000   0.00015   0.00015  -3.14120
   D67        0.00067   0.00001   0.00001   0.00065   0.00067   0.00134
   D68       -3.14081   0.00003   0.00001   0.00144   0.00146  -3.13935
   D69       -3.14111  -0.00000   0.00000  -0.00022  -0.00022  -3.14133
   D70        0.00059   0.00002   0.00001   0.00056   0.00057   0.00116
   D71        0.00022  -0.00001  -0.00000  -0.00059  -0.00059  -0.00037
   D72       -3.14087  -0.00001   0.00000  -0.00029  -0.00029  -3.14116
   D73        3.14098  -0.00001  -0.00000  -0.00052  -0.00052   3.14045
   D74       -0.00011  -0.00000  -0.00000  -0.00022  -0.00023  -0.00034
   D75        0.00019   0.00000   0.00000   0.00017   0.00017   0.00036
   D76       -3.14110   0.00001   0.00000   0.00023   0.00023  -3.14087
   D77        3.14128  -0.00000  -0.00000  -0.00013  -0.00013   3.14115
   D78       -0.00001  -0.00000  -0.00000  -0.00007  -0.00007  -0.00008
   D79       -0.00020   0.00001   0.00000   0.00061   0.00061   0.00041
   D80       -3.14110   0.00000  -0.00000   0.00002   0.00002  -3.14108
   D81        3.14108   0.00001   0.00000   0.00055   0.00055  -3.14155
   D82        0.00018  -0.00000   0.00000  -0.00004  -0.00004   0.00014
   D83        3.14154   0.00000  -0.00000   0.00001   0.00001   3.14156
   D84       -0.00018  -0.00002  -0.00000  -0.00097  -0.00098  -0.00117
   D85       -0.00074   0.00002   0.00000   0.00060   0.00060  -0.00014
   D86        3.14072  -0.00001  -0.00000  -0.00039  -0.00039   3.14033
   D87        3.11730   0.00023   0.00028   0.00727   0.00739   3.12469
   D88        0.02564  -0.00016  -0.00018  -0.00285  -0.00313   0.02251
   D89       -0.01934  -0.00037   0.00007  -0.01982  -0.01970  -0.03904
   D90       -3.11100  -0.00075  -0.00038  -0.02995  -0.03022  -3.14122
   D91       -3.13128  -0.00009  -0.00015  -0.00337  -0.00357  -3.13486
   D92        0.07322   0.00014  -0.00040   0.00980   0.00935   0.08257
   D93        0.00559   0.00045   0.00005   0.02243   0.02244   0.02802
   D94       -3.07310   0.00068  -0.00020   0.03560   0.03536  -3.03774
   D95        0.01343   0.00001  -0.00013   0.00158   0.00143   0.01486
   D96       -3.09060  -0.00015  -0.00041  -0.00322  -0.00368  -3.09428
   D97        3.11031   0.00024   0.00028   0.01015   0.01047   3.12078
   D98        0.00628   0.00008  -0.00000   0.00535   0.00536   0.01164
   D99        3.10221   0.00027   0.00037   0.00274   0.00304   3.10524
   D100       0.00808  -0.00013  -0.00006  -0.00700  -0.00706   0.00102
   D101       0.01506  -0.00015  -0.00011  -0.00590  -0.00606   0.00899
   D102      -3.08027   0.00020  -0.00026   0.01192   0.01166  -3.06861
   D103       3.09433  -0.00037   0.00014  -0.01916  -0.01910   3.07523
   D104      -0.00101  -0.00002  -0.00001  -0.00134  -0.00137  -0.00238
   D105       0.00650   0.00031   0.00007   0.01494   0.01502   0.02152
   D106      -3.12849  -0.00010  -0.00007  -0.00534  -0.00539  -3.13389
   D107       3.10649   0.00048   0.00037   0.02048   0.02086   3.12735
   D108      -0.02850   0.00007   0.00023   0.00020   0.00045  -0.02805
   D109      -0.01709   0.00002   0.00006  -0.00063  -0.00058  -0.01767
   D110      -3.11921  -0.00020  -0.00022  -0.00602  -0.00623  -3.12544
   D111      -0.02080  -0.00022   0.00005  -0.01304  -0.01296  -0.03375
   D112       3.11443   0.00017   0.00018   0.00657   0.00668   3.12111
   D113       3.07426  -0.00057   0.00019  -0.03075  -0.03050   3.04375
   D114      -0.07371  -0.00018   0.00033  -0.01114  -0.01087  -0.08457
   D115      -0.46490   0.00056  -0.00138   0.05954   0.05827  -0.40663
   D116       2.70487   0.00029  -0.00146   0.04615   0.04474   2.74961
   D117       2.68342   0.00015  -0.00152   0.03892   0.03735   2.72077
   D118      -0.42999  -0.00012  -0.00160   0.02553   0.02382  -0.40617
   D119      -0.01604   0.00014   0.00009   0.00596   0.00601  -0.01003
   D120       0.01937  -0.00009  -0.00009  -0.00310  -0.00317   0.01620
   D121      -3.10307  -0.00013  -0.00004  -0.00494  -0.00495  -3.10801
   D122       0.03951  -0.00015  -0.00005  -0.00631  -0.00634   0.03318
   D123       0.01116   0.00018   0.00004   0.00830   0.00831   0.01947
   D124      -3.12945   0.00016   0.00002   0.00693   0.00693  -3.12252
   D125       3.12052   0.00004  -0.00009   0.00519   0.00511   3.12562
   D126      -0.05861  -0.00007   0.00008  -0.00246  -0.00240  -0.06101
   D127       0.00571  -0.00021  -0.00017  -0.00768  -0.00782  -0.00211
   D128       3.10976  -0.00032   0.00001  -0.01533  -0.01533   3.09443
   D129      -0.01831  -0.00005   0.00008  -0.00344  -0.00336  -0.02167
   D130       3.12195  -0.00006   0.00006  -0.00390  -0.00384   3.11811
   D131       3.12228  -0.00002   0.00010  -0.00206  -0.00196   3.12033
   D132      -0.02064  -0.00004   0.00008  -0.00251  -0.00243  -0.02307
   D133      -0.01595   0.00011   0.00017   0.00207   0.00225  -0.01369
   D134       3.12460   0.00006   0.00014  -0.00005   0.00010   3.12470
   D135      -3.12008   0.00018  -0.00000   0.00948   0.00947  -3.11061
   D136       0.02047   0.00013  -0.00003   0.00735   0.00731   0.02778
   D137       0.00806  -0.00007  -0.00009  -0.00241  -0.00250   0.00556
   D138      -3.09632  -0.00001  -0.00007   0.00132   0.00125  -3.09507
   D139      -3.13220  -0.00006  -0.00007  -0.00195  -0.00202  -3.13422
   D140       0.04660  -0.00000  -0.00005   0.00178   0.00173   0.04833
   D141       0.00897   0.00003  -0.00004   0.00305   0.00301   0.01198
   D142       3.11351  -0.00002  -0.00006  -0.00065  -0.00071   3.11280
   D143      -3.13158   0.00008  -0.00001   0.00517   0.00516  -3.12642
   D144      -0.02704   0.00003  -0.00003   0.00146   0.00144  -0.02560
   D145      -2.62157  -0.00006   0.00002  -0.00380  -0.00378  -2.62535
   D146      -0.56471  -0.00002  -0.00001  -0.00257  -0.00259  -0.56730
   D147       1.55064  -0.00004   0.00001  -0.00314  -0.00314   1.54750
   D148       0.55837   0.00000   0.00004   0.00013   0.00017   0.55855
   D149       2.61523   0.00005   0.00000   0.00136   0.00137   2.61660
   D150      -1.55261   0.00003   0.00002   0.00079   0.00081  -1.55179
   D151      -0.98275  -0.00001   0.00001  -0.00187  -0.00186  -0.98461
   D152       1.03724   0.00000   0.00001  -0.00151  -0.00150   1.03574
   D153       3.09817  -0.00001   0.00001  -0.00190  -0.00188   3.09629
   D154      -3.12210  -0.00001   0.00001  -0.00173  -0.00172  -3.12382
   D155      -1.10211   0.00001   0.00001  -0.00137  -0.00136  -1.10347
   D156       0.95882  -0.00001   0.00001  -0.00175  -0.00174   0.95708
   D157       1.14284  -0.00001   0.00002  -0.00205  -0.00203   1.14081
   D158      -3.12035   0.00000   0.00002  -0.00169  -0.00167  -3.12202
   D159      -1.05942  -0.00001   0.00002  -0.00207  -0.00205  -1.06147
   D160       1.19383   0.00002  -0.00005   0.00372   0.00367   1.19750
   D161      -3.06859   0.00004  -0.00005   0.00425   0.00419  -3.06440
   D162      -0.95198   0.00003  -0.00006   0.00403   0.00397  -0.94801
   D163       1.06877   0.00006  -0.00006   0.00456   0.00450   1.07327
   D164      -3.01756   0.00000  -0.00004   0.00324   0.00320  -3.01436
   D165      -0.99680   0.00002  -0.00004   0.00377   0.00373  -0.99308
         Item               Value     Threshold  Converged?
 Maximum Force            0.005642     0.000450     NO 
 RMS     Force            0.000726     0.000300     NO 
 Maximum Displacement     0.350378     0.001800     NO 
 RMS     Displacement     0.054921     0.001200     NO 
 Predicted change in Energy=-5.103829D-04
 Lowest energy point so far.  Saving SCF results.
 GradGradGradGradGradGradGradGradGradGradGradGradGradGradGradGradGradGrad

 Leave Link  103 at Thu Mar 14 09:33:59 2024, MaxMem= 32212254720 cpu:               4.3 elap:               0.2
 (Enter /home/<user>/g16/l202.exe)
 Stoichiometry    C29H25N3S
 Framework group  C1[X(C29H25N3S)]
 Deg. of freedom   168
 Full point group                 C1      NOp   1
 RotChk:  IX=0 Diff= 2.75D-02
 Largest Abelian subgroup         C1      NOp   1
 Largest concise Abelian subgroup C1      NOp   1
                         Standard orientation:                         
 ---------------------------------------------------------------------
 Center     Atomic      Atomic             Coordinates (Angstroms)
 Number     Number       Type             X           Y           Z
 ---------------------------------------------------------------------
      1          6           0       -2.432036    1.631294   -0.332957
      2          6           0       -1.763380    0.376691   -0.181947
      3          6           0       -2.574122   -0.783366    0.013676
      4          6           0       -3.946889   -0.687706    0.037113
      5          6           0       -4.585399    0.567949   -0.140469
      6          6           0       -3.812037    1.725252   -0.325935
      7          1           0       -1.822458    2.517142   -0.443694
      8          1           0       -2.097259   -1.740978    0.189517
      9          1           0       -4.289351    2.692200   -0.459007
     10          6           0       -4.983878   -1.790882    0.249569
     11          6           0       -6.284989   -0.996225    0.151855
     12          6           0       -7.594617   -1.444982    0.255436
     13          6           0       -8.642555   -0.523419    0.133292
     14          6           0       -8.381375    0.836689   -0.090330
     15          6           0       -7.072412    1.297737   -0.195837
     16          6           0       -6.019688    0.377139   -0.074915
     17          1           0       -7.814937   -2.495178    0.429638
     18          1           0       -9.670843   -0.865261    0.213349
     19          1           0       -9.210194    1.532995   -0.181035
     20          1           0       -6.869589    2.350913   -0.368524
     21          6           0       -4.830559   -2.447925    1.640065
     22          1           0       -5.619609   -3.190438    1.805273
     23          1           0       -3.864921   -2.959770    1.719423
     24          1           0       -4.888268   -1.701994    2.438797
     25          6           0       -4.897945   -2.867238   -0.855893
     26          1           0       -3.933405   -3.385752   -0.813610
     27          1           0       -5.687545   -3.616489   -0.728219
     28          1           0       -5.004258   -2.423044   -1.850559
     29          6           0       -0.306721    0.277737   -0.220353
     30          6           0        0.567448    1.394104    0.002837
     31          6           0        0.308531   -0.968705   -0.517554
     32          6           0        1.998834    1.221856   -0.029160
     33          6           0        1.680229   -1.131609   -0.561937
     34          1           0       -0.317104   -1.810619   -0.787633
     35          6           0        2.579723   -0.065809   -0.302845
     36          1           0        2.080456   -2.092324   -0.861877
     37          7           0        0.155014    2.648473    0.296121
     38          7           0        2.708493    2.336271    0.252556
     39         16           0        1.567466    3.548400    0.515108
     40          6           0        4.023910   -0.309066   -0.340368
     41          6           0        4.962800    0.723863   -0.590386
     42          6           0        4.545129   -1.614216   -0.141522
     43          6           0        6.322555    0.452650   -0.658456
     44          1           0        4.600954    1.733042   -0.728559
     45          6           0        5.906614   -1.867795   -0.191825
     46          1           0        3.871122   -2.429740    0.096527
     47          6           0        6.828413   -0.841219   -0.458984
     48          1           0        7.014234    1.264319   -0.873779
     49          1           0        6.271076   -2.878042   -0.018875
     50          6           0        8.311690   -1.115774   -0.476072
     51          1           0        8.514725   -2.135005   -0.824068
     52          1           0        8.807542   -0.431874   -1.178843
     53          6           0        8.960480   -0.951811    0.912553
     54          1           0        8.749383    0.065807    1.286615
     55          1           0        8.481676   -1.647397    1.612391
     56          7           0       10.385459   -1.290576    0.845305
     57          1           0       10.877977   -0.586110    0.296480
     58          1           0       10.791864   -1.251262    1.778786
 ---------------------------------------------------------------------
 Rotational constants (GHZ):           0.3597754           0.0397442           0.0364773
 Leave Link  202 at Thu Mar 14 09:33:59 2024, MaxMem= 32212254720 cpu:               0.1 elap:               0.0
 (Enter /home/<user>/g16/l301.exe)
 Standard basis: 6-31G(d) (6D, 7F)
 Ernie: Thresh=  0.10000D-02 Tol=  0.10000D-05 Strict=F.
 There are   549 symmetry adapted cartesian basis functions of A   symmetry.
 There are   549 symmetry adapted basis functions of A   symmetry.
   549 basis functions,  1048 primitive gaussians,   549 cartesian basis functions
   118 alpha electrons      118 beta electrons
       nuclear repulsion energy      3077.5824250379 Hartrees.
 IExCor=  402 DFT=T Ex+Corr=B3LYP ExCW=0 ScaHFX=  0.200000
 ScaDFX=  0.800000  0.720000  1.000000  0.810000 ScalE2=  1.000000  1.000000
 IRadAn=      5 IRanWt=     -1 IRanGd=            0 ICorTp=0 IEmpDi=  4
 NAtoms=   58 NActive=   58 NUniq=   58 SFac= 1.00D+00 NAtFMM=   60 NAOKFM=F Big=F
 Integral buffers will be    131072 words long.
 Regular integral format.
 Two-electron integral symmetry is turned on.
 Leave Link  301 at Thu Mar 14 09:33:59 2024, MaxMem= 32212254720 cpu:               1.0 elap:               0.0
 (Enter /home/<user>/g16/l302.exe)
 NPDir=0 NMtPBC=     1 NCelOv=     1 NCel=       1 NClECP=     1 NCelD=      1
         NCelK=      1 NCelE2=     1 NClLst=     1 CellRange=     0.0.
 One-electron integrals computed using PRISM.
 One-electron integral symmetry used in STVInt
 NBasis=   549 RedAO= T EigKep=  2.69D-04  NBF=   549
 NBsUse=   549 1.00D-06 EigRej= -1.00D+00 NBFU=   549
 Precomputing XC quadrature grid using
 IXCGrd= 4 IRadAn=           5 IRanWt=          -1 IRanGd=           0 AccXCQ= 0.00D+00.
 Generated NRdTot=       0 NPtTot=           0 NUsed=           0 NTot=          32
 NSgBfM=   512   512   512   512   512 MxSgAt=    58 MxSgA2=    58.
 Leave Link  302 at Thu Mar 14 09:34:00 2024, MaxMem= 32212254720 cpu:              14.1 elap:               0.5
 (Enter /home/<user>/g16/l303.exe)
 DipDrv:  MaxL=1.
 Leave Link  303 at Thu Mar 14 09:34:00 2024, MaxMem= 32212254720 cpu:               1.8 elap:               0.1
 (Enter /home/<user>/g16/l308.exe)
 Leave Link  308 at Thu Mar 14 09:34:00 2024, MaxMem= 32212254720 cpu:               2.1 elap:               0.1
 (Enter /home/<user>/g16/l401.exe)
 Initial guess from the checkpoint file:  "FBTP_S1opt.chk"
 B after Tr=     0.000000    0.000000    0.000000
         Rot=    0.999999   -0.001193    0.000176    0.000012 Ang=  -0.14 deg.
 Guess basis will be translated and rotated to current coordinates.
 JPrj=2 DoOrth=T DoCkMO=T.
 Generating alternative initial guess.
 ExpMin= 1.17D-01 ExpMax= 2.19D+04 ExpMxC= 3.30D+03 IAcc=3 IRadAn=         5 AccDes= 0.00D+00
 Harris functional with IExCor=  402 and IRadAn=       5 diagonalized for initial guess.
 HarFok:  IExCor=  402 AccDes= 0.00D+00 IRadAn=         5 IDoV= 1 UseB2=F ITyADJ=14
 ICtDFT=  3500011 ScaDFX=  1.000000  1.000000  1.000000  1.000000
 FoFCou: FMM=F IPFlag=           0 FMFlag=      100000 FMFlg1=           0
         NFxFlg=           0 DoJE=T BraDBF=F KetDBF=T FulRan=T
         wScrn=  0.000000 ICntrl=       500 IOpCl=  0 I1Cent=   200000004 NGrid=           0
         NMat0=    1 NMatS0=      1 NMatT0=    0 NMatD0=    1 NMtDS0=    0 NMtDT0=    0
 Petite list used in FoFCou.
 Harris En= -1682.58222518300    
 Leave Link  401 at Thu Mar 14 09:34:01 2024, MaxMem= 32212254720 cpu:              49.9 elap:               1.7
 (Enter /home/<user>/g16/l502.exe)
 Integral symmetry usage will be decided dynamically.
 Closed shell SCF:
 Using DIIS extrapolation, IDIIS=  1040.
 NGot= 32212254720 LenX= 32211628124 LenY= 32211326174
 Requested convergence on RMS density matrix=1.00D-08 within 128 cycles.
 Requested convergence on MAX density matrix=1.00D-06.
 Requested convergence on             energy=1.00D-06.
 No special actions if energy rises.
 Fock matrices will be formed incrementally for  20 cycles.
 Integral accuracy reduced to 1.0D-05 until final iterations.

 Cycle   1  Pass 0  IDiag  1:
 FoFJK:  IHMeth= 1 ICntrl=       0 DoSepK=F KAlg= 0 I1Cent=           0 FoldK=F
 IRaf= 550000000 NMat=       1 IRICut=       1 DoRegI=T DoRafI=F ISym2E= 0 IDoP0=0 IntGTp=1.
 FoFCou: FMM=F IPFlag=           0 FMFlag=      100000 FMFlg1=           0
         NFxFlg=           0 DoJE=F BraDBF=F KetDBF=F FulRan=T
         wScrn=  0.000000 ICntrl=         0 IOpCl=  0 I1Cent=           0 NGrid=           0
         NMat0=    1 NMatS0=      1 NMatT0=    0 NMatD0=    1 NMtDS0=    0 NMtDT0=    0
 Symmetry not used in FoFCou.
 E= -1682.58214852309    
 DIIS: error= 2.44D-03 at cycle   1 NSaved=   1.
 NSaved= 1 IEnMin= 1 EnMin= -1682.58214852309     IErMin= 1 ErrMin= 2.44D-03
 ErrMax= 2.44D-03  0.00D+00 EMaxC= 1.00D-01 BMatC= 5.37D-03 BMatP= 5.37D-03
 IDIUse=3 WtCom= 9.76D-01 WtEn= 2.44D-02
 Coeff-Com:  0.100D+01
 Coeff-En:   0.100D+01
 Coeff:      0.100D+01
 Gap=     1.961 Goal=   None    Shift=    0.000
 GapD=    1.961 DampG=2.000 DampE=1.000 DampFc=2.0000 IDamp=-1.
 RMSDP=2.80D-04 MaxDP=9.54D-03              OVMax= 1.89D-02

 Cycle   2  Pass 0  IDiag  1:
 RMSU=  2.80D-04    CP:  1.00D+00
 E= -1682.59382964022     Delta-E=       -0.011681117126 Rises=F Damp=F
 DIIS: error= 2.68D-04 at cycle   2 NSaved=   2.
 NSaved= 2 IEnMin= 2 EnMin= -1682.59382964022     IErMin= 2 ErrMin= 2.68D-04
 ErrMax= 2.68D-04  0.00D+00 EMaxC= 1.00D-01 BMatC= 9.51D-05 BMatP= 5.37D-03
 IDIUse=3 WtCom= 9.97D-01 WtEn= 2.68D-03
 Coeff-Com: -0.719D-01 0.107D+01
 Coeff-En:   0.000D+00 0.100D+01
 Coeff:     -0.717D-01 0.107D+01
 Gap=     0.090 Goal=   None    Shift=    0.000
 RMSDP=5.16D-05 MaxDP=2.82D-03 DE=-1.17D-02 OVMax= 5.24D-03

 Cycle   3  Pass 0  IDiag  1:
 RMSU=  4.74D-05    CP:  1.00D+00  1.07D+00
 E= -1682.59388378883     Delta-E=       -0.000054148615 Rises=F Damp=F
 DIIS: error= 3.45D-04 at cycle   3 NSaved=   3.
 NSaved= 3 IEnMin= 3 EnMin= -1682.59388378883     IErMin= 2 ErrMin= 2.68D-04
 ErrMax= 3.45D-04  0.00D+00 EMaxC= 1.00D-01 BMatC= 1.35D-04 BMatP= 9.51D-05
 IDIUse=3 WtCom= 3.50D-01 WtEn= 6.50D-01
 Coeff-Com: -0.509D-01 0.641D+00 0.410D+00
 Coeff-En:   0.000D+00 0.347D+00 0.653D+00
 Coeff:     -0.178D-01 0.450D+00 0.568D+00
 Gap=     0.090 Goal=   None    Shift=    0.000
 RMSDP=4.87D-05 MaxDP=4.60D-03 DE=-5.41D-05 OVMax= 8.30D-03

 Cycle   4  Pass 0  IDiag  1:
 RMSU=  3.20D-05    CP:  1.00D+00  1.09D+00  2.30D-01
 E= -1682.59385505211     Delta-E=        0.000028736724 Rises=F Damp=F
 DIIS: error= 4.77D-04 at cycle   4 NSaved=   4.
 NSaved= 4 IEnMin= 3 EnMin= -1682.59388378883     IErMin= 2 ErrMin= 2.68D-04
 ErrMax= 4.77D-04  0.00D+00 EMaxC= 1.00D-01 BMatC= 1.67D-04 BMatP= 9.51D-05
 IDIUse=3 WtCom= 3.14D-01 WtEn= 6.86D-01
 Coeff-Com: -0.259D-01 0.295D+00 0.444D+00 0.287D+00
 Coeff-En:   0.000D+00 0.000D+00 0.534D+00 0.466D+00
 Coeff:     -0.813D-02 0.927D-01 0.506D+00 0.410D+00
 Gap=     0.090 Goal=   None    Shift=    0.000
 RMSDP=3.11D-05 MaxDP=2.91D-03 DE= 2.87D-05 OVMax= 6.08D-03

 Cycle   5  Pass 0  IDiag  1:
 RMSU=  1.42D-05    CP:  1.00D+00  1.09D+00  5.50D-01  2.77D-01
 E= -1682.59400436041     Delta-E=       -0.000149308300 Rises=F Damp=F
 DIIS: error= 1.50D-04 at cycle   5 NSaved=   5.
 NSaved= 5 IEnMin= 5 EnMin= -1682.59400436041     IErMin= 5 ErrMin= 1.50D-04
 ErrMax= 1.50D-04  0.00D+00 EMaxC= 1.00D-01 BMatC= 2.01D-05 BMatP= 9.51D-05
 IDIUse=3 WtCom= 9.99D-01 WtEn= 1.50D-03
 Coeff-Com: -0.843D-02 0.814D-01 0.314D+00 0.285D+00 0.328D+00
 Coeff-En:   0.000D+00 0.000D+00 0.000D+00 0.104D+00 0.896D+00
 Coeff:     -0.842D-02 0.813D-01 0.313D+00 0.285D+00 0.329D+00
 Gap=     0.090 Goal=   None    Shift=    0.000
 RMSDP=9.98D-06 MaxDP=9.11D-04 DE=-1.49D-04 OVMax= 1.70D-03

 Initial convergence to 1.0D-05 achieved.  Increase integral accuracy.
 Cycle   6  Pass 1  IDiag  1:
 E= -1682.59406671521     Delta-E=       -0.000062354804 Rises=F Damp=F
 DIIS: error= 9.27D-05 at cycle   1 NSaved=   1.
 NSaved= 1 IEnMin= 1 EnMin= -1682.59406671521     IErMin= 1 ErrMin= 9.27D-05
 ErrMax= 9.27D-05  0.00D+00 EMaxC= 1.00D-01 BMatC= 2.91D-06 BMatP= 2.91D-06
 IDIUse=1 WtCom= 1.00D+00 WtEn= 0.00D+00
 Coeff-Com:  0.100D+01
 Coeff:      0.100D+01
 Gap=     0.090 Goal=   None    Shift=    0.000
 RMSDP=9.98D-06 MaxDP=9.11D-04 DE=-6.24D-05 OVMax= 6.62D-04

 Cycle   7  Pass 1  IDiag  1:
 RMSU=  6.24D-05    CP:  1.00D+00
 E= -1682.59406660269     Delta-E=        0.000000112526 Rises=F Damp=F
 DIIS: error= 4.72D-05 at cycle   2 NSaved=   2.
 NSaved= 2 IEnMin= 1 EnMin= -1682.59406671521     IErMin= 2 ErrMin= 4.72D-05
 ErrMax= 4.72D-05  0.00D+00 EMaxC= 1.00D-01 BMatC= 2.45D-06 BMatP= 2.91D-06
 IDIUse=1 WtCom= 1.00D+00 WtEn= 0.00D+00
 Coeff-Com:  0.469D+00 0.531D+00
 Coeff:      0.469D+00 0.531D+00
 Gap=     0.090 Goal=   None    Shift=    0.000
 RMSDP=6.43D-06 MaxDP=5.61D-04 DE= 1.13D-07 OVMax= 9.83D-04

 Cycle   8  Pass 1  IDiag  1:
 RMSU=  6.41D-06    CP:  1.00D+00  9.92D-01
 E= -1682.59406687028     Delta-E=       -0.000000267594 Rises=F Damp=F
 DIIS: error= 5.23D-05 at cycle   3 NSaved=   3.
 NSaved= 3 IEnMin= 3 EnMin= -1682.59406687028     IErMin= 2 ErrMin= 4.72D-05
 ErrMax= 5.23D-05  0.00D+00 EMaxC= 1.00D-01 BMatC= 2.29D-06 BMatP= 2.45D-06
 IDIUse=1 WtCom= 1.00D+00 WtEn= 0.00D+00
 Coeff-Com:  0.532D-01 0.476D+00 0.471D+00
 Coeff:      0.532D-01 0.476D+00 0.471D+00
 Gap=     0.090 Goal=   None    Shift=    0.000
 RMSDP=3.67D-06 MaxDP=3.60D-04 DE=-2.68D-07 OVMax= 6.71D-04

 Cycle   9  Pass 1  IDiag  1:
 RMSU=  1.93D-06    CP:  1.00D+00  1.00D+00  5.22D-01
 E= -1682.59406886054     Delta-E=       -0.000001990255 Rises=F Damp=F
 DIIS: error= 2.13D-05 at cycle   4 NSaved=   4.
 NSaved= 4 IEnMin= 4 EnMin= -1682.59406886054     IErMin= 4 ErrMin= 2.13D-05
 ErrMax= 2.13D-05  0.00D+00 EMaxC= 1.00D-01 BMatC= 3.71D-07 BMatP= 2.29D-06
 IDIUse=1 WtCom= 1.00D+00 WtEn= 0.00D+00
 Coeff-Com:  0.151D-02 0.323D+00 0.364D+00 0.312D+00
 Coeff:      0.151D-02 0.323D+00 0.364D+00 0.312D+00
 Gap=     0.090 Goal=   None    Shift=    0.000
 RMSDP=1.36D-06 MaxDP=1.23D-04 DE=-1.99D-06 OVMax= 2.49D-04

 Cycle  10  Pass 1  IDiag  1:
 RMSU=  3.94D-07    CP:  1.00D+00  1.00D+00  5.37D-01  3.27D-01
 E= -1682.59406924077     Delta-E=       -0.000000380229 Rises=F Damp=F
 DIIS: error= 2.60D-06 at cycle   5 NSaved=   5.
 NSaved= 5 IEnMin= 5 EnMin= -1682.59406924077     IErMin= 5 ErrMin= 2.60D-06
 ErrMax= 2.60D-06  0.00D+00 EMaxC= 1.00D-01 BMatC= 6.03D-09 BMatP= 3.71D-07
 IDIUse=1 WtCom= 1.00D+00 WtEn= 0.00D+00
 Coeff-Com: -0.203D-02 0.168D+00 0.193D+00 0.187D+00 0.453D+00
 Coeff:     -0.203D-02 0.168D+00 0.193D+00 0.187D+00 0.453D+00
 Gap=     0.090 Goal=   None    Shift=    0.000
 RMSDP=2.21D-07 MaxDP=1.98D-05 DE=-3.80D-07 OVMax= 3.79D-05

 Cycle  11  Pass 1  IDiag  1:
 RMSU=  1.04D-07    CP:  1.00D+00  1.00D+00  5.36D-01  3.43D-01  5.13D-01
 E= -1682.59406924719     Delta-E=       -0.000000006421 Rises=F Damp=F
 DIIS: error= 8.08D-07 at cycle   6 NSaved=   6.
 NSaved= 6 IEnMin= 6 EnMin= -1682.59406924719     IErMin= 6 ErrMin= 8.08D-07
 ErrMax= 8.08D-07  0.00D+00 EMaxC= 1.00D-01 BMatC= 4.46D-10 BMatP= 6.03D-09
 IDIUse=1 WtCom= 1.00D+00 WtEn= 0.00D+00
 Coeff-Com: -0.142D-02 0.948D-01 0.109D+00 0.107D+00 0.294D+00 0.396D+00
 Coeff:     -0.142D-02 0.948D-01 0.109D+00 0.107D+00 0.294D+00 0.396D+00
 Gap=     0.090 Goal=   None    Shift=    0.000
 RMSDP=5.54D-08 MaxDP=5.15D-06 DE=-6.42D-09 OVMax= 9.82D-06

 Cycle  12  Pass 1  IDiag  1:
 RMSU=  3.46D-08    CP:  1.00D+00  1.00D+00  5.35D-01  3.40D-01  5.34D-01
                    CP:  6.01D-01
 E= -1682.59406924771     Delta-E=       -0.000000000523 Rises=F Damp=F
 DIIS: error= 1.38D-07 at cycle   7 NSaved=   7.
 NSaved= 7 IEnMin= 7 EnMin= -1682.59406924771     IErMin= 7 ErrMin= 1.38D-07
 ErrMax= 1.38D-07  0.00D+00 EMaxC= 1.00D-01 BMatC= 1.16D-11 BMatP= 4.46D-10
 IDIUse=1 WtCom= 1.00D+00 WtEn= 0.00D+00
 Coeff-Com: -0.491D-03 0.304D-01 0.347D-01 0.344D-01 0.956D-01 0.181D+00
 Coeff-Com:  0.624D+00
 Coeff:     -0.491D-03 0.304D-01 0.347D-01 0.344D-01 0.956D-01 0.181D+00
 Coeff:      0.624D+00
 Gap=     0.090 Goal=   None    Shift=    0.000
 RMSDP=1.34D-08 MaxDP=4.63D-07 DE=-5.23D-10 OVMax= 1.46D-06

 Cycle  13  Pass 1  IDiag  1:
 RMSU=  1.16D-08    CP:  1.00D+00  1.00D+00  5.35D-01  3.40D-01  5.33D-01
                    CP:  6.39D-01  8.45D-01
 E= -1682.59406924773     Delta-E=       -0.000000000015 Rises=F Damp=F
 DIIS: error= 1.07D-07 at cycle   8 NSaved=   8.
 NSaved= 8 IEnMin= 8 EnMin= -1682.59406924773     IErMin= 8 ErrMin= 1.07D-07
 ErrMax= 1.07D-07  0.00D+00 EMaxC= 1.00D-01 BMatC= 5.82D-12 BMatP= 1.16D-11
 IDIUse=1 WtCom= 1.00D+00 WtEn= 0.00D+00
 Coeff-Com: -0.509D-04 0.169D-02 0.182D-02 0.188D-02 0.462D-02 0.435D-01
 Coeff-Com:  0.439D+00 0.508D+00
 Coeff:     -0.509D-04 0.169D-02 0.182D-02 0.188D-02 0.462D-02 0.435D-01
 Coeff:      0.439D+00 0.508D+00
 Gap=     0.090 Goal=   None    Shift=    0.000
 RMSDP=6.56D-09 MaxDP=3.37D-07 DE=-1.55D-11 OVMax= 8.07D-07

 SCF Done:  E(RB3LYP) =  -1682.59406925     A.U. after   13 cycles
            NFock= 13  Conv=0.66D-08     -V/T= 2.0083
 KE= 1.668723398105D+03 PE=-1.007686276712D+04 EE= 3.647962874729D+03
 Leave Link  502 at Thu Mar 14 09:34:22 2024, MaxMem= 32212254720 cpu:             626.3 elap:              20.9
 (Enter /home/<user>/g16/l801.exe)
 DoSCS=F DFT=T ScalE2(SS,OS)=  1.000000  1.000000
 ExpMin= 1.17D-01 ExpMax= 2.19D+04 ExpMxC= 3.30D+03 IAcc=3 IRadAn=         5 AccDes= 0.00D+00
 HarFok:  IExCor=  205 AccDes= 0.00D+00 IRadAn=         5 IDoV=-2 UseB2=F ITyADJ=14
 ICtDFT= 12500011 ScaDFX=  1.000000  1.000000  1.000000  1.000000
 GSVD:  LWork=       -1665 too small for GESVD, short by        7400 words or        7400 for optimal perf.
 Largest valence mixing into a core orbital is  1.10D-04
 Largest core mixing into a valence orbital is  2.83D-05
 Range of M.O.s used for correlation:    38   549
 NBasis=   549 NAE=   118 NBE=   118 NFC=    37 NFV=     0
 NROrb=    512 NOA=    81 NOB=    81 NVA=   431 NVB=   431

 **** Warning!!: The smallest alpha delta epsilon is  0.89859120D-01

 Leave Link  801 at Thu Mar 14 09:34:23 2024, MaxMem= 32212254720 cpu:               2.7 elap:               0.1
 (Enter /home/<user>/g16/l914.exe)
 RHF ground state
 Two-electron integrals replicated using symmetry.
 MDV= 32212254720 DFT=T DoStab=F Mixed=T DoRPA=T DoScal=F NonHer=T
 Making orbital integer symmetry assigments:
 Orbital symmetries:
       Occupied  (A) (A) (A) (A) (A) (A) (A) (A) (A) (A) (A) (A)
                 (A) (A) (A) (A) (A) (A) (A) (A) (A) (A) (A) (A)
                 (A) (A) (A) (A) (A) (A) (A) (A) (A) (A) (A) (A)
                 (A) (A) (A) (A) (A) (A) (A) (A) (A) (A) (A) (A)
                 (A) (A) (A) (A) (A) (A) (A) (A) (A) (A) (A) (A)
                 (A) (A) (A) (A) (A) (A) (A) (A) (A) (A) (A) (A)
                 (A) (A) (A) (A) (A) (A) (A) (A) (A) (A) (A) (A)
                 (A) (A) (A) (A) (A) (A) (A) (A) (A) (A) (A) (A)
                 (A) (A) (A) (A) (A) (A) (A) (A) (A) (A) (A) (A)
                 (A) (A) (A) (A) (A) (A) (A) (A) (A) (A)
       Virtual   (A) (A) (A) (A) (A) (A) (A) (A) (A) (A) (A) (A)
                 (A) (A) (A) (A) (A) (A) (A) (A) (A) (A) (A) (A)
                 (A) (A) (A) (A) (A) (A) (A) (A) (A) (A) (A) (A)
                 (A) (A) (A) (A) (A) (A) (A) (A) (A) (A) (A) (A)
                 (A) (A) (A) (A) (A) (A) (A) (A) (A) (A) (A) (A)
                 (A) (A) (A) (A) (A) (A) (A) (A) (A) (A) (A) (A)
                 (A) (A) (A) (A) (A) (A) (A) (A) (A) (A) (A) (A)
                 (A) (A) (A) (A) (A) (A) (A) (A) (A) (A) (A) (A)
                 (A) (A) (A) (A) (A) (A) (A) (A) (A) (A) (A) (A)
                 (A) (A) (A) (A) (A) (A) (A) (A) (A) (A) (A) (A)
                 (A) (A) (A) (A) (A) (A) (A) (A) (A) (A) (A) (A)
                 (A) (A) (A) (A) (A) (A) (A) (A) (A) (A) (A) (A)
                 (A) (A) (A) (A) (A) (A) (A) (A) (A) (A) (A) (A)
                 (A) (A) (A) (A) (A) (A) (A) (A) (A) (A) (A) (A)
                 (A) (A) (A) (A) (A) (A) (A) (A) (A) (A) (A) (A)
                 (A) (A) (A) (A) (A) (A) (A) (A) (A) (A) (A) (A)
                 (A) (A) (A) (A) (A) (A) (A) (A) (A) (A) (A) (A)
                 (A) (A) (A) (A) (A) (A) (A) (A) (A) (A) (A) (A)
                 (A) (A) (A) (A) (A) (A) (A) (A) (A) (A) (A) (A)
                 (A) (A) (A) (A) (A) (A) (A) (A) (A) (A) (A) (A)
                 (A) (A) (A) (A) (A) (A) (A) (A) (A) (A) (A) (A)
                 (A) (A) (A) (A) (A) (A) (A) (A) (A) (A) (A) (A)
                 (A) (A) (A) (A) (A) (A) (A) (A) (A) (A) (A) (A)
                 (A) (A) (A) (A) (A) (A) (A) (A) (A) (A) (A) (A)
                 (A) (A) (A) (A) (A) (A) (A) (A) (A) (A) (A) (A)
                 (A) (A) (A) (A) (A) (A) (A) (A) (A) (A) (A) (A)
                 (A) (A) (A) (A) (A) (A) (A) (A) (A) (A) (A) (A)
                 (A) (A) (A) (A) (A) (A) (A) (A) (A) (A) (A) (A)
                 (A) (A) (A) (A) (A) (A) (A) (A) (A) (A) (A) (A)
                 (A) (A) (A) (A) (A) (A) (A) (A) (A) (A) (A) (A)
                 (A) (A) (A) (A) (A) (A) (A) (A) (A) (A) (A) (A)
                 (A) (A) (A) (A) (A) (A) (A) (A) (A) (A) (A) (A)
                 (A) (A) (A) (A) (A) (A) (A) (A) (A) (A) (A) (A)
                 (A) (A) (A) (A) (A) (A) (A) (A) (A) (A) (A) (A)
                 (A) (A) (A) (A) (A) (A) (A) (A) (A) (A) (A) (A)
                 (A) (A) (A) (A) (A) (A) (A) (A) (A) (A) (A)
 Generating guess from densities on rwf.
 Convergence on wavefunction:    0.000001000000000
 Davidson Disk Diagonalization:  ConvIn= 1.00D-06 SkipCon=T Conv= 1.00D-06.
 Max sub-space:  2000 roots to seek:     3 dimension of matrix:        69822
 Iteration     1 Dimension     6 NMult     0 NNew      6
 CISAX will form     6 AO SS matrices at one time.
 NMat=     6 NSing=     6 JSym2X= 0.
 FoFJK:  IHMeth= 1 ICntrl=       0 DoSepK=F KAlg= 0 I1Cent=           0 FoldK=F
 IRaf= 550000000 NMat=      12 IRICut=       1 DoRegI=T DoRafI=F ISym2E= 0 IDoP0=0 IntGTp=1.
 FoFCou: FMM=F IPFlag=           0 FMFlag=      100000 FMFlg1=           0
         NFxFlg=           0 DoJE=F BraDBF=F KetDBF=F FulRan=T
         wScrn=  0.000000 ICntrl=         0 IOpCl=  0 I1Cent=           0 NGrid=           0
         NMat0=   12 NMatS0=      6 NMatT0=    0 NMatD0=   12 NMtDS0=    0 NMtDT0=    0
 Symmetry not used in FoFCou.
 Excitation Energies [eV] at current iteration:
 Root      1 :     2.072063506463196
 Root      2 :     2.972367559906696
 Root      3 :     3.320294626864759
 Iteration     2 Dimension    12 NMult     6 NNew      6
 CISAX will form     6 AO SS matrices at one time.
 NMat=     6 NSing=     6 JSym2X= 0.
 Root      1 not converged, maximum delta is    0.006521569447711
 Root      2 not converged, maximum delta is    0.009544693625605
 Root      3 not converged, maximum delta is    0.005359172014626
 Excitation Energies [eV] at current iteration:
 Root      1 :     2.063665292507657   Change is   -0.008398213955540
 Root      2 :     2.963384123537156   Change is   -0.008983436369541
 Root      3 :     3.315010595650809   Change is   -0.005284031213950
 Iteration     3 Dimension    18 NMult    12 NNew      6
 CISAX will form     6 AO SS matrices at one time.
 NMat=     6 NSing=     6 JSym2X= 0.
 Root      1 not converged, maximum delta is    0.001320385765841
 Root      2 not converged, maximum delta is    0.000800469281945
 Root      3 not converged, maximum delta is    0.001893937962408
 Excitation Energies [eV] at current iteration:
 Root      1 :     2.063551458403577   Change is   -0.000113834104080
 Root      2 :     2.963254310683573   Change is   -0.000129812853583
 Root      3 :     3.314973585280892   Change is   -0.000037010369917
 Iteration     4 Dimension    24 NMult    18 NNew      6
 CISAX will form     6 AO SS matrices at one time.
 NMat=     6 NSing=     6 JSym2X= 0.
 Root      1 not converged, maximum delta is    0.000401815261748
 Root      2 not converged, maximum delta is    0.000697473508445
 Root      3 not converged, maximum delta is    0.002361440784297
 Excitation Energies [eV] at current iteration:
 Root      1 :     2.063542346270095   Change is   -0.000009112133482
 Root      2 :     2.963237313167998   Change is   -0.000016997515575
 Root      3 :     3.314960961254967   Change is   -0.000012624025925
 Iteration     5 Dimension    30 NMult    24 NNew      6
 CISAX will form     6 AO SS matrices at one time.
 NMat=     6 NSing=     6 JSym2X= 0.
 Root      1 not converged, maximum delta is    0.000172748488879
 Root      2 not converged, maximum delta is    0.000410148245385
 Root      3 not converged, maximum delta is    0.005806964321324
 Excitation Energies [eV] at current iteration:
 Root      1 :     2.063541001872743   Change is   -0.000001344397351
 Root      2 :     2.963235057147241   Change is   -0.000002256020756
 Root      3 :     3.314945663527511   Change is   -0.000015297727456
 Iteration     6 Dimension    36 NMult    30 NNew      6
 CISAX will form     6 AO SS matrices at one time.
 NMat=     6 NSing=     6 JSym2X= 0.
 Root      1 not converged, maximum delta is    0.000029097523821
 Root      2 not converged, maximum delta is    0.000098368141792
 Root      3 not converged, maximum delta is    0.002601216254596
 Excitation Energies [eV] at current iteration:
 Root      1 :     2.063540822347956   Change is   -0.000000179524787
 Root      2 :     2.963234622636607   Change is   -0.000000434510634
 Root      3 :     3.314939790590524   Change is   -0.000005872936986
 Iteration     7 Dimension    42 NMult    36 NNew      6
 CISAX will form     6 AO SS matrices at one time.
 NMat=     6 NSing=     6 JSym2X= 0.
 Root      1 not converged, maximum delta is    0.000009724195043
 Root      2 not converged, maximum delta is    0.000020195406387
 Root      3 not converged, maximum delta is    0.000715643290209
 Excitation Energies [eV] at current iteration:
 Root      1 :     2.063540799579056   Change is   -0.000000022768900
 Root      2 :     2.963234557812332   Change is   -0.000000064824275
 Root      3 :     3.314938475037361   Change is   -0.000001315553164
 Iteration     8 Dimension    48 NMult    42 NNew      6
 CISAX will form     6 AO SS matrices at one time.
 NMat=     6 NSing=     6 JSym2X= 0.
 Root      1 not converged, maximum delta is    0.000002873124000
 Root      2 not converged, maximum delta is    0.000011224741303
 Root      3 not converged, maximum delta is    0.000134522570515
 Excitation Energies [eV] at current iteration:
 Root      1 :     2.063540797280159   Change is   -0.000000002298897
 Root      2 :     2.963234547954259   Change is   -0.000000009858073
 Root      3 :     3.314938234727255   Change is   -0.000000240310106
 Iteration     9 Dimension    54 NMult    48 NNew      6
 CISAX will form     6 AO SS matrices at one time.
 NMat=     6 NSing=     6 JSym2X= 0.
 Root      1 has converged.
 Root      2 not converged, maximum delta is    0.000002886808283
 Root      3 not converged, maximum delta is    0.000043138801044
 Excitation Energies [eV] at current iteration:
 Root      1 :     2.063540797082722   Change is   -0.000000000197438
 Root      2 :     2.963234546874188   Change is   -0.000000001080071
 Root      3 :     3.314938201899830   Change is   -0.000000032827425
 Iteration    10 Dimension    58 NMult    54 NNew      4
 CISAX will form     4 AO SS matrices at one time.
 NMat=     4 NSing=     4 JSym2X= 0.
 Root      1 has converged.
 Root      2 not converged, maximum delta is    0.000001284699051
 Root      3 not converged, maximum delta is    0.000033642580696
 Excitation Energies [eV] at current iteration:
 Root      1 :     2.063540797079973   Change is   -0.000000000002749
 Root      2 :     2.963234546740552   Change is   -0.000000000133636
 Root      3 :     3.314938195710667   Change is   -0.000000006189163
 Iteration    11 Dimension    62 NMult    58 NNew      4
 CISAX will form     4 AO SS matrices at one time.
 NMat=     4 NSing=     4 JSym2X= 0.
 Root      1 has converged.
 Root      2 has converged.
 Root      3 not converged, maximum delta is    0.000010787748777
 Excitation Energies [eV] at current iteration:
 Root      1 :     2.063540797079216   Change is   -0.000000000000757
 Root      2 :     2.963234546723463   Change is   -0.000000000017089
 Root      3 :     3.314938194805946   Change is   -0.000000000904721
 Iteration    12 Dimension    64 NMult    62 NNew      2
 CISAX will form     2 AO SS matrices at one time.
 NMat=     2 NSing=     2 JSym2X= 0.
 Root      1 has converged.
 Root      2 has converged.
 Root      3 not converged, maximum delta is    0.000002997613853
 Excitation Energies [eV] at current iteration:
 Root      1 :     2.063540797079256   Change is    0.000000000000040
 Root      2 :     2.963234546723130   Change is   -0.000000000000333
 Root      3 :     3.314938194674510   Change is   -0.000000000131435
 Iteration    13 Dimension    66 NMult    64 NNew      2
 CISAX will form     2 AO SS matrices at one time.
 NMat=     2 NSing=     2 JSym2X= 0.
 Root      1 has converged.
 Root      2 has converged.
 Root      3 has converged.
 Excitation Energies [eV] at current iteration:
 Root      1 :     2.063540797079136   Change is   -0.000000000000119
 Root      2 :     2.963234546723075   Change is   -0.000000000000056
 Root      3 :     3.314938194658540   Change is   -0.000000000015971
 Convergence achieved on expansion vectors.
 ***********************************************************************
 Excited states from <AA,BB:AA,BB> singles matrix:
 ***********************************************************************
 
 1PDM for each excited state written to RWF  633
 Ground to excited state transition densities written to RWF  633
 Ground to excited state transition electric dipole moments (Au):
       state          X           Y           Z        Dip. S.      Osc.
         1        -2.6675      0.0863      0.0507      7.1258      0.3603
         2         0.1939     -0.3000     -0.0198      0.1280      0.0093
         3         0.0511      0.0320      0.0064      0.0037      0.0003
 Ground to excited state transition velocity dipole moments (Au):
       state          X           Y           Z        Dip. S.      Osc.
         1         0.2058     -0.0060     -0.0039      0.0424      0.3728
         2        -0.0231      0.0368      0.0028      0.0019      0.0116
         3        -0.0047     -0.0051     -0.0006      0.0000      0.0003
 Ground to excited state transition magnetic dipole moments (Au):
       state          X           Y           Z
         1        -0.0134     -0.1561     -0.0147
         2         0.0036      0.0373     -0.0973
         3        -0.0144     -0.0362     -0.1878
 Ground to excited state transition velocity quadrupole moments (Au):
       state          XX          YY          ZZ          XY          XZ          YZ
         1         0.0275      0.0094      0.0048     -0.1168     -0.0362      0.0205
         2        -1.9201      0.2027      0.0008      0.1876      0.0369      0.0530
         3         0.0001      0.0170     -0.0072     -0.0584     -0.0136      0.0036
 <0|del|b> * <b|rxdel|0> + <0|del|b> * <b|delr+rdel|0>
 Rotatory Strengths (R) in cgs (10**-40 erg-esu-cm/Gauss)
       state          XX          YY          ZZ    R(velocity)    E-M Angle
         1         5.7577      4.9957    -27.1542     -5.4669       93.11
         2         0.8745     -6.8607     12.5740      2.1959       77.09
         3         0.7378      0.3574      0.9771      0.6908       74.37
 1/2[<0|r|b>*<b|rxdel|0> + (<0|rxdel|b>*<b|r|0>)*]
 Rotatory Strengths (R) in cgs (10**-40 erg-esu-cm/Gauss)
       state          XX          YY          ZZ     R(length)
         1       -25.2014      9.5235      0.5249     -5.0510
         2        -0.4954      7.9160     -1.3651      2.0185
         3         0.5196      0.8184      0.8480      0.7286
  1/2[<0|del|b>*<b|r|0> + (<0|r|b>*<b|del|0>)*] (Au)
       state          X           Y           Z        Dip. S.   Osc.(frdel)
         1        -0.5490     -0.0005     -0.0002      0.5497      0.3665
         2        -0.0045     -0.0110     -0.0001      0.0156      0.0104
         3        -0.0002     -0.0002     -0.0000      0.0004      0.0003

 Excitation energies and oscillator strengths:
 
 Excited State   1:      Singlet-A      2.0635 eV  600.83 nm  f=0.3603  <S**2>=0.000
     118 ->119         0.70195
 This state for optimization and/or second-order correction.
 Total Energy, E(TD-HF/TD-DFT) =  -1682.51823552    
 Copying the excited state density for this state as the 1-particle RhoCI density.
 
 Excited State   2:      Singlet-A      2.9632 eV  418.41 nm  f=0.0093  <S**2>=0.000
     117 ->119        -0.69781
 
 Excited State   3:      Singlet-A      3.3149 eV  374.02 nm  f=0.0003  <S**2>=0.000
     113 ->119         0.17363
     116 ->119         0.67860
 SavETr:  write IOETrn=   770 NScale= 10 NData=  16 NLR=1 NState=    3 LETran=      64.
 The selected state is a singlet.
 CISGrd: IGrad=2 NXY=2 DFT=T
 CISAX will form     1 AO SS matrices at one time.
 NMat=     1 NSing=     1 JSym2X= 0.
 Leave Link  914 at Thu Mar 14 09:37:03 2024, MaxMem= 32212254720 cpu:            4810.3 elap:             160.4
 (Enter /home/<user>/g16/l1002.exe)
 Minotr:  Closed shell wavefunction.
          Computing CIS/TDA/TD derivatives.
          Using Z-Vector for PSCF gradient.
          Skipping F1 and S1 gradient terms here.
          IDoAtm=11111111111111111111111111111111111111111111111111
          IDoAtm=11111111
          Frozen-core window.
          Direct CPHF calculation.
          Differentiating once with respect to electric field.
                with respect to dipole field.
          Differentiating once with respect to nuclear coordinates.
          Requested convergence is 1.0D-10 RMS, and 1.0D-09 maximum.
          NewPWx=F KeepS1=T KeepF1=T KeepIn=T MapXYZ=F SortEE=F KeepMc=T.
 Two-electron integral symmetry used by symmetrizing perturbed Fock matrices.
          MDV=   32212254720 using IRadAn=       5.
          Solving linear equations separately, MaxMat=     360.
          There are     1 degrees of freedom in the 1st order CPHF.  IDoFFX=0 NUNeed=     1.
 FoFJK:  IHMeth= 1 ICntrl=       0 DoSepK=F KAlg= 0 I1Cent=           0 FoldK=F
 IRaf= 580000000 NMat=       1 IRICut=       1 DoRegI=T DoRafI=F ISym2E=-1 IDoP0=0 IntGTp=1.
 FoFCou: FMM=F IPFlag=           0 FMFlag=      100000 FMFlg1=           0
         NFxFlg=           0 DoJE=F BraDBF=F KetDBF=F FulRan=T
         wScrn=  0.000000 ICntrl=         0 IOpCl=  0 I1Cent=           0 NGrid=           0
         NMat0=    1 NMatS0=      1 NMatT0=    0 NMatD0=    1 NMtDS0=    0 NMtDT0=    0
 Petite list used in FoFCou.
 LinEq1:  Iter=  0 NonCon=     1 RMS=6.38D-03 Max=7.10D-01 NDo=     1
 AX will form     1 AO Fock derivatives at one time.
 LinEq1:  Iter=  1 NonCon=     1 RMS=3.88D-03 Max=5.28D-01 NDo=     1
 LinEq1:  Iter=  2 NonCon=     1 RMS=3.22D-03 Max=4.08D-01 NDo=     1
 LinEq1:  Iter=  3 NonCon=     1 RMS=3.03D-03 Max=2.46D-01 NDo=     1
 LinEq1:  Iter=  4 NonCon=     1 RMS=2.72D-03 Max=2.09D-01 NDo=     1
 LinEq1:  Iter=  5 NonCon=     1 RMS=1.76D-03 Max=9.89D-02 NDo=     1
 LinEq1:  Iter=  6 NonCon=     1 RMS=1.15D-03 Max=5.30D-02 NDo=     1
 LinEq1:  Iter=  7 NonCon=     1 RMS=8.03D-04 Max=3.14D-02 NDo=     1
 LinEq1:  Iter=  8 NonCon=     1 RMS=5.87D-04 Max=3.51D-02 NDo=     1
 LinEq1:  Iter=  9 NonCon=     1 RMS=4.32D-04 Max=2.13D-02 NDo=     1
 LinEq1:  Iter= 10 NonCon=     1 RMS=2.73D-04 Max=1.27D-02 NDo=     1
 LinEq1:  Iter= 11 NonCon=     1 RMS=1.78D-04 Max=7.82D-03 NDo=     1
 LinEq1:  Iter= 12 NonCon=     1 RMS=1.18D-04 Max=6.58D-03 NDo=     1
 LinEq1:  Iter= 13 NonCon=     1 RMS=8.70D-05 Max=4.35D-03 NDo=     1
 LinEq1:  Iter= 14 NonCon=     1 RMS=5.75D-05 Max=2.16D-03 NDo=     1
 LinEq1:  Iter= 15 NonCon=     1 RMS=3.87D-05 Max=2.47D-03 NDo=     1
 LinEq1:  Iter= 16 NonCon=     1 RMS=1.88D-05 Max=1.25D-03 NDo=     1
 LinEq1:  Iter= 17 NonCon=     1 RMS=1.21D-05 Max=4.87D-04 NDo=     1
 LinEq1:  Iter= 18 NonCon=     1 RMS=6.95D-06 Max=4.29D-04 NDo=     1
 LinEq1:  Iter= 19 NonCon=     1 RMS=3.72D-06 Max=2.21D-04 NDo=     1
 LinEq1:  Iter= 20 NonCon=     1 RMS=2.01D-06 Max=9.24D-05 NDo=     1
 LinEq1:  Iter= 21 NonCon=     1 RMS=1.42D-06 Max=5.95D-05 NDo=     1
 LinEq1:  Iter= 22 NonCon=     1 RMS=7.89D-07 Max=3.82D-05 NDo=     1
 LinEq1:  Iter= 23 NonCon=     1 RMS=4.70D-07 Max=2.01D-05 NDo=     1
 LinEq1:  Iter= 24 NonCon=     1 RMS=2.49D-07 Max=1.11D-05 NDo=     1
 LinEq1:  Iter= 25 NonCon=     1 RMS=1.62D-07 Max=6.30D-06 NDo=     1
 LinEq1:  Iter= 26 NonCon=     1 RMS=7.54D-08 Max=3.18D-06 NDo=     1
 LinEq1:  Iter= 27 NonCon=     1 RMS=4.26D-08 Max=1.82D-06 NDo=     1
 LinEq1:  Iter= 28 NonCon=     1 RMS=2.21D-08 Max=7.14D-07 NDo=     1
 LinEq1:  Iter= 29 NonCon=     1 RMS=9.96D-09 Max=4.24D-07 NDo=     1
 LinEq1:  Iter= 30 NonCon=     1 RMS=5.85D-09 Max=2.53D-07 NDo=     1
 LinEq1:  Iter= 31 NonCon=     1 RMS=3.14D-09 Max=1.16D-07 NDo=     1
 LinEq1:  Iter= 32 NonCon=     1 RMS=1.71D-09 Max=6.71D-08 NDo=     1
 LinEq1:  Iter= 33 NonCon=     1 RMS=1.00D-09 Max=3.97D-08 NDo=     1
 LinEq1:  Iter= 34 NonCon=     1 RMS=5.47D-10 Max=2.00D-08 NDo=     1
 LinEq1:  Iter= 35 NonCon=     1 RMS=3.04D-10 Max=1.32D-08 NDo=     1
 LinEq1:  Iter= 36 NonCon=     1 RMS=1.38D-10 Max=4.59D-09 NDo=     1
 LinEq1:  Iter= 37 NonCon=     1 RMS=6.99D-11 Max=2.20D-09 NDo=     1
 LinEq1:  Iter= 38 NonCon=     0 RMS=2.78D-11 Max=7.71D-10 NDo=     1
 Linear equations converged to 1.000D-10 1.000D-09 after    38 iterations.
 End of Minotr F.D. properties file   721 does not exist.
 End of Minotr F.D. properties file   722 does not exist.
 End of Minotr F.D. properties file   788 does not exist.
 Leave Link 1002 at Thu Mar 14 09:38:40 2024, MaxMem= 32212254720 cpu:            2877.4 elap:              96.9
 (Enter /home/<user>/g16/l701.exe)
 ... and contract with generalized density number  6.
 Compute integral first derivatives.
 Leave Link  701 at Thu Mar 14 09:38:40 2024, MaxMem= 32212254720 cpu:               7.0 elap:               0.2
 (Enter /home/<user>/g16/l702.exe)
 L702 exits ... SP integral derivatives will be done elsewhere.
 Leave Link  702 at Thu Mar 14 09:38:40 2024, MaxMem= 32212254720 cpu:               0.9 elap:               0.0
 (Enter /home/<user>/g16/l703.exe)
 Integral derivatives from FoFJK, PRISM(SPDF).
 Compute integral first derivatives, UseDBF=F ICtDFT=           0.
 Calling FoFJK, ICntrl=  10005127 FMM=F ISym2X=0 I1Cent= 0 IOpClX= 0 NMat=1 NMatS=1 NMatT=0.
 FoFJK:  IHMeth= 1 ICntrl=10005127 DoSepK=F KAlg= 0 I1Cent=           0 FoldK=F
 IRaf=         0 NMat=       1 IRICut=       1 DoRegI=T DoRafI=F ISym2E= 0 IDoP0=0 IntGTp=1.
 FoFCou: FMM=F IPFlag=           0 FMFlag=      100000 FMFlg1=         800
         NFxFlg=           0 DoJE=F BraDBF=F KetDBF=F FulRan=T
         wScrn=  0.000000 ICntrl=  10005127 IOpCl=  0 I1Cent=           0 NGrid=           0
         NMat0=    1 NMatS0=      1 NMatT0=    0 NMatD0=    1 NMtDS0=    0 NMtDT0=    0
 Symmetry not used in FoFCou.
 Leave Link  703 at Thu Mar 14 09:38:49 2024, MaxMem= 32212254720 cpu:             266.9 elap:               8.9
 (Enter /home/<user>/g16/l716.exe)
 Dipole        =-2.01157301D+00-1.70685785D+00-1.14244800D-01
 ***** Axes restored to original set *****
 -------------------------------------------------------------------
 Center     Atomic                   Forces (Hartrees/Bohr)
 Number     Number              X              Y              Z
 -------------------------------------------------------------------
      1        6          -0.000277291   -0.000212101   -0.000482135
      2        6           0.000039281    0.000238233    0.001178541
      3        6           0.001461422    0.000117619   -0.000168619
      4        6          -0.000521883    0.000294501   -0.000082983
      5        6           0.000955780    0.000642355   -0.000344302
      6        6          -0.000658860   -0.000333507    0.000116377
      7        1          -0.000514248    0.000088143   -0.000364387
      8        1           0.000044859   -0.000731398   -0.000106329
      9        1           0.000257822    0.000309677    0.000069692
     10        6           0.000230438   -0.001132371    0.000096186
     11        6           0.000727031    0.000316118   -0.000071718
     12        6           0.000150590   -0.000324408    0.000087071
     13        6           0.000164014    0.000071647   -0.000007198
     14        6          -0.000059633    0.000175525   -0.000034404
     15        6           0.000273829    0.000072412   -0.000046355
     16        6          -0.001263518   -0.000033950    0.000095844
     17        1           0.000142470   -0.000034748    0.000002257
     18        1           0.000077875   -0.000026464   -0.000004729
     19        1           0.000131537    0.000144001   -0.000044533
     20        1          -0.000147034    0.000094609   -0.000032299
     21        6          -0.000000759   -0.000061717    0.000010456
     22        1           0.000018234   -0.000005555    0.000039895
     23        1          -0.000032486   -0.000007332    0.000028587
     24        1          -0.000007767    0.000019936    0.000064619
     25        6           0.000029438   -0.000094984    0.000062719
     26        1          -0.000042400    0.000014828   -0.000030779
     27        1          -0.000009645   -0.000016202   -0.000029241
     28        1           0.000008807   -0.000010448   -0.000055556
     29        6          -0.002420790   -0.002054284   -0.001203544
     30        6           0.000356903    0.000780834    0.000174194
     31        6          -0.000897360    0.001399925    0.000030059
     32        6           0.000019859    0.000447195    0.000495618
     33        6           0.000679468    0.001038921    0.000260395
     34        1          -0.000143697   -0.001016291    0.000184376
     35        6           0.001477242   -0.001383278   -0.000650756
     36        1          -0.000477228   -0.000758078    0.000071688
     37        7           0.003734157    0.000368360    0.000554413
     38        7          -0.002079562    0.000782144   -0.000015915
     39       16           0.000286631    0.000393344   -0.000076458
     40        6          -0.000432480    0.000376012    0.000268235
     41        6          -0.000234550   -0.000382710    0.000005918
     42        6          -0.000733783    0.000402339    0.000140579
     43        6           0.000002866   -0.000033042    0.000027272
     44        1          -0.000094030    0.000320166   -0.000154806
     45        6          -0.000149653   -0.000047329   -0.000064641
     46        1          -0.000052283   -0.000380161    0.000045620
     47        6           0.000402845    0.000077923   -0.000027754
     48        1          -0.000113578    0.000193318    0.000052816
     49        1          -0.000194912   -0.000114063   -0.000031468
     50        6          -0.000101483   -0.000012095   -0.000069937
     51        1          -0.000010222    0.000009571    0.000008716
     52        1          -0.000007912   -0.000001104   -0.000014084
     53        6           0.000070731   -0.000058071    0.000062270
     54        1           0.000003979    0.000008150   -0.000020730
     55        1           0.000008110    0.000025589    0.000017152
     56        7          -0.000067407    0.000101225   -0.000032743
     57        1           0.000008406   -0.000009459    0.000025712
     58        1          -0.000018168   -0.000049474   -0.000008874
 -------------------------------------------------------------------
 Cartesian Forces:  Max     0.003734157 RMS     0.000569997
 Leave Link  716 at Thu Mar 14 09:38:50 2024, MaxMem= 32212254720 cpu:               1.8 elap:               0.1
 (Enter /home/<user>/g16/l103.exe)

 GradGradGradGradGradGradGradGradGradGradGradGradGradGradGradGradGradGrad
 Berny optimization.
 Using GEDIIS/GDIIS optimizer.
 FormGI is forming the generalized inverse of G from B-inverse, IUseBI=4.
 GSVD:  received Info=                   1 from GESDD.
 Internal  Forces:  Max     0.004662468 RMS     0.000612608
 Search for a local minimum.
 Step number   4 out of a maximum of  346
 All quantities printed in internal units (Hartrees-Bohrs-Radians)
 RMS Force = .61261D-03 SwitMx=.10000D-02 MixMth= 2
 Mixed Optimization -- En-DIIS/RFO-DIIS
 Swapping is turned off.
 Update second derivatives using D2CorX and points    2    3    4
 DE= -2.70D-04 DEPred=-5.10D-04 R= 5.29D-01
 TightC=F SS=  1.41D+00  RLast= 2.00D-01 DXNew= 1.3451D+00 5.9881D-01
 Trust test= 5.29D-01 RLast= 2.00D-01 DXMaxT set to 8.00D-01
 ITU=  1  1  1  0
     Eigenvalues ---    0.00230   0.00230   0.00250   0.00611   0.00754
     Eigenvalues ---    0.00800   0.00849   0.01037   0.01251   0.01452
     Eigenvalues ---    0.01467   0.01607   0.01626   0.01637   0.01661
     Eigenvalues ---    0.01685   0.01705   0.01731   0.01749   0.01850
     Eigenvalues ---    0.01885   0.01917   0.02022   0.02036   0.02041
     Eigenvalues ---    0.02075   0.02087   0.02088   0.02092   0.02094
     Eigenvalues ---    0.02112   0.02115   0.02119   0.02124   0.02134
     Eigenvalues ---    0.02134   0.02144   0.02145   0.02149   0.02159
     Eigenvalues ---    0.02161   0.02164   0.02191   0.02305   0.04058
     Eigenvalues ---    0.04285   0.04394   0.04477   0.05421   0.05426
     Eigenvalues ---    0.05438   0.05514   0.05514   0.05562   0.05981
     Eigenvalues ---    0.08065   0.08950   0.09259   0.11607   0.12598
     Eigenvalues ---    0.12814   0.15058   0.15956   0.15984   0.15997
     Eigenvalues ---    0.15999   0.16000   0.16000   0.16000   0.16000
     Eigenvalues ---    0.16000   0.16000   0.16000   0.16000   0.16000
     Eigenvalues ---    0.16000   0.16000   0.16000   0.16000   0.16003
     Eigenvalues ---    0.16008   0.16414   0.19101   0.20242   0.21878
     Eigenvalues ---    0.21957   0.22003   0.22015   0.22451   0.22472
     Eigenvalues ---    0.22648   0.22974   0.23703   0.24161   0.24540
     Eigenvalues ---    0.24659   0.24961   0.24971   0.24977   0.24991
     Eigenvalues ---    0.24997   0.24997   0.25013   0.26613   0.28056
     Eigenvalues ---    0.28080   0.28471   0.28619   0.29011   0.31159
     Eigenvalues ---    0.31566   0.33128   0.33785   0.34027   0.34090
     Eigenvalues ---    0.34100   0.34104   0.34105   0.34131   0.34276
     Eigenvalues ---    0.34289   0.34457   0.34705   0.34960   0.35033
     Eigenvalues ---    0.35050   0.35084   0.35151   0.35158   0.35161
     Eigenvalues ---    0.35187   0.35189   0.35228   0.35282   0.35467
     Eigenvalues ---    0.35563   0.36137   0.36344   0.36648   0.37598
     Eigenvalues ---    0.38111   0.39217   0.40666   0.41506   0.41570
     Eigenvalues ---    0.41695   0.41817   0.42166   0.42622   0.43390
     Eigenvalues ---    0.44364   0.44523   0.44601   0.44930   0.44956
     Eigenvalues ---    0.45029   0.45799   0.45940   0.46080   0.46182
     Eigenvalues ---    0.46744   0.47011   0.47037   0.47508   0.47972
     Eigenvalues ---    0.54543   0.54932   0.56438
 En-DIIS/RFO-DIIS/Sim-DIIS IScMMF=       -3 using points:     4    3
 RFO step:  Lambda=-3.05233635D-04.
 NNeg= 0 NGDIIS= 2 SimSw=  2.50D-01 Rises=F DC= -2.70D-04 SmlDif=  1.00D-05
 NRisDI= 0 DoIntr=F SqrtH=F CThrHd= 10.0 CDAdj=  3.0
 RMS Error=  0.2818642118D-02 NUsed= 2 OKEnD=T EnDIS=F
 InvSVX:  RCond= 9.23D-03 Info=           0 Equed=N FErr=  1.05D-15 BErr=  8.75D-17
 DidBck=F Rises=F RFO-DIIS coefs:    1.01055   -0.01055
 Iteration  1 RMS(Cart)=  0.02848330 RMS(Int)=  0.00007147
 Iteration  2 RMS(Cart)=  0.00029727 RMS(Int)=  0.00000917
 Iteration  3 RMS(Cart)=  0.00000002 RMS(Int)=  0.00000917
 ITry= 1 IFail=0 DXMaxC= 1.03D-01 DCOld= 1.00D+10 DXMaxT= 8.00D-01 DXLimC= 3.00D+00 Rises=F
 Variable       Old X    -DE/DX   Delta X   Delta X   Delta X     New X
                                 (Linear)    (Quad)   (Total)
    R1        2.70167   0.00042  -0.00000   0.00001   0.00001   2.70168
    R2        2.61390   0.00009   0.00000   0.00009   0.00009   2.61399
    R3        2.04281  -0.00015   0.00002   0.00036   0.00037   2.04318
    R4        2.69993  -0.00084   0.00005  -0.00098  -0.00093   2.69900
    R5        2.75999  -0.00120  -0.00001  -0.00321  -0.00322   2.75677
    R6        2.60082  -0.00051  -0.00001  -0.00089  -0.00090   2.59992
    R7        2.04871   0.00063  -0.00002   0.00099   0.00098   2.04969
    R8        2.68308   0.00030  -0.00004   0.00001  -0.00003   2.68305
    R9        2.88917  -0.00008   0.00001   0.00022   0.00024   2.88941
   R10        2.65359  -0.00018  -0.00003  -0.00057  -0.00060   2.65299
   R11        2.73710   0.00043   0.00002   0.00097   0.00099   2.73809
   R12        2.05322   0.00014   0.00000   0.00039   0.00040   2.05362
   R13        2.88697  -0.00016   0.00000  -0.00005  -0.00004   2.88692
   R14        2.92064   0.00015   0.00000   0.00051   0.00052   2.92116
   R15        2.92021   0.00011   0.00000   0.00042   0.00042   2.92063
   R16        2.62341  -0.00032   0.00001  -0.00042  -0.00041   2.62300
   R17        2.67778   0.00026  -0.00003   0.00004   0.00001   2.67779
   R18        2.64722   0.00021  -0.00001   0.00022   0.00021   2.64743
   R19        2.05433   0.00000   0.00000   0.00007   0.00007   2.05440
   R20        2.65109   0.00028  -0.00002   0.00023   0.00021   2.65130
   R21        2.05333  -0.00007   0.00000  -0.00014  -0.00014   2.05319
   R22        2.63010  -0.00025   0.00001  -0.00034  -0.00033   2.62977
   R23        2.05278  -0.00000   0.00000   0.00004   0.00004   2.05282
   R24        2.65259  -0.00017  -0.00001  -0.00048  -0.00050   2.65210
   R25        2.05289   0.00007   0.00000   0.00022   0.00022   2.05311
   R26        2.07114  -0.00000   0.00000   0.00001   0.00001   2.07115
   R27        2.07073  -0.00002   0.00000  -0.00000   0.00000   2.07073
   R28        2.06812   0.00006  -0.00000   0.00013   0.00013   2.06826
   R29        2.07094  -0.00005   0.00000  -0.00005  -0.00005   2.07089
   R30        2.07108   0.00001   0.00000   0.00003   0.00004   2.07111
   R31        2.06834   0.00005  -0.00000   0.00011   0.00011   2.06845
   R32        2.71244   0.00342  -0.00004   0.00513   0.00509   2.71753
   R33        2.68612  -0.00096   0.00005  -0.00107  -0.00101   2.68511
   R34        2.72511  -0.00015  -0.00004  -0.00080  -0.00084   2.72427
   R35        2.55607   0.00028   0.00003   0.00044   0.00047   2.55654
   R36        2.61170  -0.00040   0.00000  -0.00016  -0.00015   2.61154
   R37        2.04683   0.00086  -0.00004   0.00125   0.00121   2.04803
   R38        2.71912   0.00073   0.00001   0.00148   0.00148   2.72060
   R39        2.55281   0.00018   0.00002   0.00031   0.00033   2.55314
   R40        2.68058  -0.00067   0.00004  -0.00072  -0.00068   2.67990
   R41        2.04677   0.00050  -0.00003   0.00069   0.00066   2.04743
   R42        2.76847  -0.00176   0.00002  -0.00353  -0.00351   2.76496
   R43        3.19182  -0.00073   0.00011  -0.00069  -0.00057   3.19124
   R44        3.18470  -0.00126   0.00011  -0.00123  -0.00112   3.18358
   R45        2.67979  -0.00036   0.00004  -0.00047  -0.00044   2.67936
   R46        2.68223  -0.00048   0.00005  -0.00024  -0.00019   2.68204
   R47        2.62333  -0.00009  -0.00001  -0.00027  -0.00028   2.62305
   R48        2.04271   0.00036  -0.00001   0.00086   0.00086   2.04357
   R49        2.61880  -0.00009  -0.00002  -0.00036  -0.00038   2.61842
   R50        2.04931   0.00032  -0.00002   0.00040   0.00038   2.04970
   R51        2.65221   0.00022  -0.00001   0.00024   0.00023   2.65243
   R52        2.05589   0.00005   0.00000   0.00013   0.00013   2.05602
   R53        2.65568   0.00043  -0.00000   0.00071   0.00071   2.65640
   R54        2.05567   0.00003  -0.00000   0.00005   0.00004   2.05572
   R55        2.85078  -0.00011  -0.00001  -0.00036  -0.00037   2.85041
   R56        2.07109  -0.00001  -0.00000  -0.00005  -0.00006   2.07103
   R57        2.07653   0.00001  -0.00000  -0.00000  -0.00001   2.07652
   R58        2.91293   0.00004   0.00001   0.00021   0.00022   2.91315
   R59        2.08730   0.00000  -0.00000   0.00001   0.00001   2.08730
   R60        2.07256  -0.00001  -0.00000  -0.00002  -0.00002   2.07254
   R61        2.77079  -0.00008  -0.00000  -0.00023  -0.00023   2.77055
   R62        1.92720  -0.00002  -0.00000  -0.00003  -0.00003   1.92717
   R63        1.92539  -0.00002  -0.00000  -0.00004  -0.00004   1.92535
    A1        2.12432  -0.00039   0.00004  -0.00071  -0.00067   2.12365
    A2        2.05580   0.00072  -0.00007   0.00218   0.00211   2.05790
    A3        2.10301  -0.00033   0.00003  -0.00145  -0.00142   2.10159
    A4        2.05058   0.00052  -0.00010   0.00105   0.00094   2.05151
    A5        2.12133   0.00365  -0.00010   0.00673   0.00661   2.12794
    A6        2.11127  -0.00418   0.00020  -0.00774  -0.00757   2.10370
    A7        2.10818  -0.00013   0.00004  -0.00044  -0.00040   2.10779
    A8        2.08265   0.00033   0.00005   0.00283   0.00287   2.08553
    A9        2.09135  -0.00019  -0.00010  -0.00219  -0.00230   2.08906
   A10        2.10354  -0.00001   0.00003   0.00001   0.00004   2.10358
   A11        2.25073  -0.00057  -0.00000  -0.00231  -0.00231   2.24842
   A12        1.92888   0.00058  -0.00003   0.00231   0.00227   1.93116
   A13        2.09175   0.00020  -0.00005   0.00042   0.00037   2.09212
   A14        1.89986  -0.00038   0.00002  -0.00113  -0.00110   1.89876
   A15        2.29151   0.00018   0.00003   0.00070   0.00074   2.29225
   A16        2.08765  -0.00019   0.00004  -0.00019  -0.00016   2.08749
   A17        2.09222  -0.00027  -0.00001  -0.00165  -0.00166   2.09056
   A18        2.10330   0.00046  -0.00003   0.00185   0.00183   2.10513
   A19        1.76547  -0.00047   0.00003  -0.00245  -0.00243   1.76304
   A20        1.94388   0.00017  -0.00000   0.00052   0.00052   1.94439
   A21        1.94492   0.00018  -0.00000   0.00075   0.00074   1.94567
   A22        1.94246   0.00013  -0.00001   0.00009   0.00008   1.94254
   A23        1.94326   0.00019  -0.00000   0.00056   0.00055   1.94381
   A24        1.91982  -0.00019  -0.00001   0.00037   0.00037   1.92018
   A25        2.25302  -0.00037   0.00001  -0.00160  -0.00159   2.25143
   A26        1.93362   0.00055  -0.00002   0.00228   0.00226   1.93588
   A27        2.09654  -0.00018   0.00001  -0.00068  -0.00067   2.09587
   A28        2.07893  -0.00017   0.00001  -0.00037  -0.00036   2.07857
   A29        2.11230  -0.00006   0.00000  -0.00052  -0.00052   2.11178
   A30        2.09196   0.00024  -0.00001   0.00089   0.00088   2.09284
   A31        2.10880   0.00024  -0.00002   0.00072   0.00071   2.10951
   A32        2.08812  -0.00017   0.00001  -0.00058  -0.00057   2.08755
   A33        2.08626  -0.00007   0.00000  -0.00014  -0.00014   2.08612
   A34        2.10405  -0.00010   0.00000  -0.00036  -0.00035   2.10369
   A35        2.08600   0.00025  -0.00001   0.00109   0.00107   2.08707
   A36        2.09314  -0.00016   0.00001  -0.00073  -0.00072   2.09242
   A37        2.07322  -0.00021   0.00001  -0.00062  -0.00061   2.07261
   A38        2.10458  -0.00006   0.00001  -0.00041  -0.00040   2.10418
   A39        2.10539   0.00027  -0.00002   0.00103   0.00101   2.10640
   A40        1.89687  -0.00027   0.00000  -0.00098  -0.00098   1.89589
   A41        2.28149  -0.00015   0.00002  -0.00032  -0.00031   2.28118
   A42        2.10483   0.00042  -0.00002   0.00130   0.00129   2.10612
   A43        1.93072   0.00005   0.00000   0.00025   0.00026   1.93098
   A44        1.92960   0.00004   0.00001   0.00029   0.00030   1.92990
   A45        1.94081   0.00003  -0.00001   0.00007   0.00007   1.94088
   A46        1.88290  -0.00004  -0.00000  -0.00026  -0.00026   1.88264
   A47        1.88997  -0.00004  -0.00000  -0.00025  -0.00026   1.88971
   A48        1.88808  -0.00003  -0.00000  -0.00013  -0.00013   1.88795
   A49        1.92933   0.00002   0.00001   0.00022   0.00023   1.92956
   A50        1.93134   0.00003   0.00000   0.00026   0.00026   1.93160
   A51        1.94124   0.00003  -0.00001   0.00000  -0.00001   1.94123
   A52        1.88194  -0.00002  -0.00000  -0.00008  -0.00008   1.88186
   A53        1.88870  -0.00003  -0.00000  -0.00025  -0.00025   1.88844
   A54        1.88950  -0.00003   0.00000  -0.00018  -0.00018   1.88932
   A55        2.15391   0.00466  -0.00001   0.00980   0.00977   2.16368
   A56        2.09048  -0.00414   0.00014  -0.00703  -0.00691   2.08357
   A57        2.03858  -0.00051  -0.00013  -0.00256  -0.00270   2.03588
   A58        2.10385  -0.00059   0.00008  -0.00004   0.00005   2.10390
   A59        2.17643   0.00253  -0.00013   0.00457   0.00444   2.18087
   A60        2.00230  -0.00194   0.00005  -0.00458  -0.00453   1.99777
   A61        2.14084   0.00064   0.00005   0.00203   0.00208   2.14292
   A62        2.07570   0.00014  -0.00006   0.00158   0.00151   2.07721
   A63        2.06424  -0.00077  -0.00000  -0.00315  -0.00316   2.06108
   A64        2.10811   0.00011   0.00007   0.00146   0.00153   2.10963
   A65        2.00234  -0.00020   0.00001  -0.00124  -0.00123   2.00110
   A66        2.17224   0.00009  -0.00007  -0.00017  -0.00024   2.17201
   A67        2.13523   0.00029   0.00005   0.00106   0.00112   2.13634
   A68        2.07167  -0.00088   0.00001  -0.00393  -0.00392   2.06775
   A69        2.07455   0.00060  -0.00007   0.00296   0.00288   2.07743
   A70        2.03883   0.00006  -0.00013  -0.00183  -0.00197   2.03686
   A71        2.15487   0.00025   0.00010   0.00096   0.00107   2.15594
   A72        2.08940  -0.00031   0.00003   0.00092   0.00094   2.09034
   A73        1.84132   0.00230  -0.00003   0.00679   0.00676   1.84807
   A74        1.84435   0.00150  -0.00000   0.00515   0.00515   1.84950
   A75        1.73429  -0.00165  -0.00002  -0.00611  -0.00614   1.72816
   A76        2.13677   0.00020   0.00001  -0.00013  -0.00012   2.13666
   A77        2.10725  -0.00077   0.00007  -0.00054  -0.00046   2.10679
   A78        2.03907   0.00057  -0.00009   0.00067   0.00059   2.03966
   A79        2.11163  -0.00015   0.00004  -0.00007  -0.00004   2.11159
   A80        2.07252   0.00011  -0.00004  -0.00001  -0.00006   2.07246
   A81        2.09904   0.00004   0.00000   0.00009   0.00009   2.09913
   A82        2.12227  -0.00028   0.00004  -0.00061  -0.00057   2.12170
   A83        2.08750   0.00035   0.00004   0.00226   0.00229   2.08979
   A84        2.07256  -0.00006  -0.00008  -0.00154  -0.00162   2.07094
   A85        2.12490  -0.00007   0.00002   0.00002   0.00004   2.12494
   A86        2.07909  -0.00017  -0.00001  -0.00103  -0.00104   2.07806
   A87        2.07919   0.00025  -0.00001   0.00101   0.00100   2.08019
   A88        2.11490   0.00004   0.00001   0.00044   0.00045   2.11535
   A89        2.08670  -0.00024  -0.00000  -0.00127  -0.00127   2.08543
   A90        2.08158   0.00020  -0.00001   0.00082   0.00081   2.08239
   A91        2.05334  -0.00009  -0.00003  -0.00040  -0.00043   2.05291
   A92        2.11830   0.00005   0.00002   0.00022   0.00024   2.11854
   A93        2.11080   0.00004   0.00001   0.00018   0.00019   2.11100
   A94        1.93371  -0.00000   0.00000  -0.00006  -0.00005   1.93366
   A95        1.91522  -0.00000   0.00000  -0.00000  -0.00000   1.91522
   A96        1.96522  -0.00001  -0.00000  -0.00006  -0.00007   1.96515
   A97        1.86725  -0.00000   0.00001   0.00010   0.00010   1.86735
   A98        1.88282   0.00000  -0.00001  -0.00003  -0.00003   1.88279
   A99        1.89654   0.00001  -0.00000   0.00007   0.00006   1.89660
   A100       1.89931   0.00000  -0.00000  -0.00002  -0.00002   1.89929
   A101       1.90035   0.00001  -0.00000   0.00009   0.00009   1.90045
   A102       1.92107  -0.00001  -0.00001  -0.00011  -0.00012   1.92095
   A103       1.85957  -0.00000   0.00000   0.00003   0.00004   1.85961
   A104       1.99778   0.00000   0.00000  -0.00001  -0.00001   1.99778
   A105       1.88285   0.00000   0.00000   0.00003   0.00003   1.88288
   A106       1.91180   0.00003   0.00000   0.00027   0.00027   1.91207
   A107       1.91423   0.00000   0.00000   0.00010   0.00010   1.91433
   A108       1.84810   0.00000   0.00000   0.00016   0.00016   1.84826
    D1       -0.02841   0.00027  -0.00020   0.00604   0.00584  -0.02256
    D2        3.11692  -0.00019   0.00011  -0.00589  -0.00583   3.11108
    D3        3.10199   0.00031  -0.00019   0.00778   0.00761   3.10960
    D4       -0.03588  -0.00015   0.00013  -0.00416  -0.00407  -0.03995
    D5        0.02194  -0.00021   0.00007  -0.00592  -0.00585   0.01609
    D6       -3.12458  -0.00013   0.00006  -0.00353  -0.00346  -3.12804
    D7       -3.10815  -0.00026   0.00006  -0.00773  -0.00768  -3.11584
    D8        0.02851  -0.00018   0.00005  -0.00533  -0.00530   0.02322
    D9        0.01409  -0.00017   0.00020  -0.00254  -0.00233   0.01176
   D10       -3.07951  -0.00033   0.00027  -0.00710  -0.00682  -3.08634
   D11       -3.13121   0.00030  -0.00011   0.00936   0.00921  -3.12200
   D12        0.05837   0.00014  -0.00004   0.00480   0.00472   0.06309
   D13        0.34572   0.00054  -0.00102   0.00510   0.00408   0.34980
   D14       -2.77311   0.00009  -0.00073  -0.00654  -0.00728  -2.78039
   D15       -2.79201   0.00005  -0.00070  -0.00727  -0.00796  -2.79997
   D16        0.37234  -0.00040  -0.00041  -0.01891  -0.01932   0.35302
   D17        0.00607   0.00001  -0.00007  -0.00096  -0.00104   0.00503
   D18       -3.12570  -0.00002  -0.00005  -0.00243  -0.00248  -3.12818
   D19        3.09944   0.00019  -0.00014   0.00377   0.00360   3.10304
   D20       -0.03233   0.00015  -0.00012   0.00229   0.00216  -0.03017
   D21       -0.01316   0.00007  -0.00007   0.00121   0.00115  -0.01201
   D22        3.13858   0.00003  -0.00000   0.00106   0.00106   3.13963
   D23        3.12027   0.00009  -0.00008   0.00241   0.00233   3.12261
   D24       -0.01117   0.00005  -0.00002   0.00226   0.00224  -0.00893
   D25       -3.13943  -0.00002   0.00001  -0.00085  -0.00085  -3.14028
   D26        1.07837   0.00002   0.00000   0.00017   0.00017   1.07853
   D27       -1.07265   0.00002   0.00001  -0.00124  -0.00122  -1.07387
   D28        0.01120  -0.00005   0.00002  -0.00219  -0.00217   0.00903
   D29       -2.05419  -0.00001   0.00002  -0.00117  -0.00116  -2.05535
   D30        2.07798  -0.00002   0.00003  -0.00258  -0.00255   2.07543
   D31       -0.00083   0.00002   0.00007   0.00219   0.00227   0.00144
   D32       -3.13746  -0.00005   0.00008  -0.00021  -0.00013  -3.13760
   D33        3.12798   0.00007  -0.00001   0.00238   0.00237   3.13035
   D34       -0.00865  -0.00001  -0.00000  -0.00002  -0.00003  -0.00868
   D35        0.00609  -0.00003   0.00001  -0.00132  -0.00132   0.00477
   D36       -3.13653  -0.00000  -0.00000  -0.00057  -0.00057  -3.13710
   D37       -3.12379  -0.00008   0.00008  -0.00150  -0.00142  -3.12521
   D38        0.01677  -0.00004   0.00007  -0.00074  -0.00067   0.01610
   D39        3.13535   0.00002  -0.00001   0.00109   0.00108   3.13642
   D40       -0.00745   0.00003  -0.00002   0.00139   0.00137  -0.00608
   D41       -1.08142   0.00001  -0.00000   0.00038   0.00038  -1.08104
   D42        2.05897   0.00002  -0.00001   0.00068   0.00067   2.05964
   D43        1.06737  -0.00001  -0.00002   0.00133   0.00131   1.06868
   D44       -2.07543   0.00000  -0.00003   0.00163   0.00160  -2.07383
   D45        3.07691  -0.00021   0.00001  -0.00169  -0.00169   3.07522
   D46       -1.12163  -0.00021   0.00001  -0.00167  -0.00166  -1.12329
   D47        0.97607  -0.00020   0.00001  -0.00159  -0.00158   0.97449
   D48        1.12115   0.00020  -0.00002   0.00095   0.00093   1.12208
   D49       -3.07739   0.00019  -0.00002   0.00097   0.00095  -3.07643
   D50       -0.97969   0.00020  -0.00002   0.00105   0.00103  -0.97865
   D51       -1.04100   0.00001  -0.00001  -0.00010  -0.00010  -1.04110
   D52        1.04365   0.00000  -0.00000  -0.00007  -0.00008   1.04357
   D53        3.14135   0.00001  -0.00000   0.00001   0.00000   3.14135
   D54        1.12167   0.00018  -0.00002   0.00187   0.00185   1.12352
   D55       -3.07785   0.00020  -0.00001   0.00208   0.00207  -3.07578
   D56       -0.97691   0.00019  -0.00002   0.00203   0.00202  -0.97490
   D57        3.07850  -0.00018   0.00001  -0.00037  -0.00036   3.07814
   D58       -1.12102  -0.00017   0.00001  -0.00016  -0.00014  -1.12116
   D59        0.97992  -0.00017   0.00001  -0.00021  -0.00019   0.97972
   D60       -1.04301  -0.00002  -0.00001   0.00040   0.00040  -1.04261
   D61        1.04066  -0.00001  -0.00000   0.00062   0.00062   1.04128
   D62       -3.14159  -0.00001  -0.00000   0.00057   0.00056  -3.14102
   D63        3.13991   0.00002  -0.00001   0.00050   0.00049   3.14040
   D64       -0.00091   0.00001  -0.00001   0.00027   0.00025  -0.00065
   D65       -0.00038   0.00000   0.00000   0.00017   0.00017  -0.00021
   D66       -3.14120  -0.00000   0.00000  -0.00006  -0.00006  -3.14126
   D67        0.00134  -0.00000   0.00001  -0.00013  -0.00013   0.00122
   D68       -3.13935  -0.00003   0.00002  -0.00080  -0.00078  -3.14013
   D69       -3.14133   0.00001  -0.00000   0.00014   0.00013  -3.14120
   D70        0.00116  -0.00002   0.00001  -0.00053  -0.00052   0.00064
   D71       -0.00037   0.00001  -0.00001   0.00017   0.00016  -0.00021
   D72       -3.14116  -0.00001  -0.00000  -0.00025  -0.00026  -3.14142
   D73        3.14045   0.00001  -0.00001   0.00040   0.00039   3.14085
   D74       -0.00034   0.00000  -0.00000  -0.00002  -0.00003  -0.00036
   D75        0.00036  -0.00001   0.00000  -0.00016  -0.00016   0.00020
   D76       -3.14087  -0.00001   0.00000  -0.00038  -0.00038  -3.14124
   D77        3.14115   0.00001  -0.00000   0.00026   0.00026   3.14141
   D78       -0.00008   0.00000  -0.00000   0.00004   0.00004  -0.00003
   D79        0.00041  -0.00001   0.00001  -0.00019  -0.00018   0.00023
   D80       -3.14108  -0.00001   0.00000  -0.00027  -0.00027  -3.14135
   D81       -3.14155  -0.00000   0.00001   0.00003   0.00003  -3.14152
   D82        0.00014  -0.00000  -0.00000  -0.00005  -0.00005   0.00009
   D83        3.14156  -0.00001   0.00000  -0.00030  -0.00030   3.14126
   D84       -0.00117   0.00002  -0.00001   0.00053   0.00052  -0.00064
   D85       -0.00014  -0.00001   0.00001  -0.00022  -0.00021  -0.00035
   D86        3.14033   0.00002  -0.00000   0.00061   0.00061   3.14094
   D87        3.12469  -0.00021   0.00008  -0.00785  -0.00783   3.11686
   D88        0.02251  -0.00002  -0.00003  -0.00631  -0.00639   0.01612
   D89       -0.03904   0.00018  -0.00021   0.00340   0.00319  -0.03585
   D90       -3.14122   0.00038  -0.00032   0.00494   0.00463  -3.13659
   D91       -3.13486   0.00037  -0.00004   0.01033   0.01023  -3.12463
   D92        0.08257   0.00009   0.00010   0.00330   0.00334   0.08591
   D93        0.02802  -0.00012   0.00024  -0.00072  -0.00048   0.02754
   D94       -3.03774  -0.00041   0.00037  -0.00775  -0.00736  -3.04510
   D95        0.01486  -0.00008   0.00002  -0.00331  -0.00330   0.01156
   D96       -3.09428  -0.00010  -0.00004  -0.00516  -0.00519  -3.09947
   D97        3.12078  -0.00016   0.00011  -0.00452  -0.00441   3.11637
   D98        0.01164  -0.00017   0.00006  -0.00637  -0.00630   0.00534
   D99        3.10524   0.00003   0.00003   0.00484   0.00488   3.11012
   D100       0.00102   0.00019  -0.00007   0.00622   0.00616   0.00718
   D101       0.00899  -0.00003  -0.00006  -0.00217  -0.00224   0.00675
   D102      -3.06861  -0.00021   0.00012  -0.00391  -0.00378  -3.07239
   D103       3.07523   0.00029  -0.00020   0.00501   0.00478   3.08001
   D104      -0.00238   0.00011  -0.00001   0.00327   0.00324   0.00086
   D105       0.02152  -0.00008   0.00016   0.00047   0.00063   0.02215
   D106      -3.13389   0.00013  -0.00006   0.00478   0.00473  -3.12916
   D107       3.12735  -0.00007   0.00022   0.00249   0.00271   3.13006
   D108      -0.02805   0.00014   0.00000   0.00680   0.00680  -0.02125
   D109      -0.01767   0.00003  -0.00001   0.00280   0.00280  -0.01486
   D110      -3.12544   0.00002  -0.00007   0.00083   0.00080  -3.12465
   D111      -0.03375   0.00012  -0.00014   0.00223   0.00209  -0.03166
   D112       3.12111  -0.00009   0.00007  -0.00191  -0.00184   3.11927
   D113       3.04375   0.00024  -0.00032   0.00373   0.00340   3.04715
   D114      -0.08457   0.00004  -0.00011  -0.00041  -0.00053  -0.08511
   D115      -0.40663  -0.00009   0.00061   0.00571   0.00632  -0.40030
   D116       2.74961  -0.00003   0.00047   0.00520   0.00567   2.75528
   D117       2.72077   0.00012   0.00039   0.01012   0.01051   2.73129
   D118      -0.40617   0.00019   0.00025   0.00961   0.00986  -0.39631
   D119      -0.01003  -0.00014   0.00006  -0.00403  -0.00398  -0.01401
   D120       0.01620   0.00005  -0.00003   0.00069   0.00065   0.01685
   D121      -3.10801   0.00003  -0.00005  -0.00026  -0.00031  -3.10833
   D122       0.03318   0.00004  -0.00007  -0.00011  -0.00018   0.03300
   D123       0.01947  -0.00005   0.00009   0.00022   0.00030   0.01978
   D124      -3.12252  -0.00004   0.00007   0.00037   0.00044  -3.12208
   D125       3.12562  -0.00010   0.00005  -0.00283  -0.00278   3.12285
   D126      -0.06101   0.00000  -0.00003  -0.00008  -0.00010  -0.06111
   D127      -0.00211  -0.00003  -0.00008  -0.00330  -0.00339  -0.00550
   D128       3.09443   0.00007  -0.00016  -0.00055  -0.00071   3.09372
   D129      -0.02167   0.00009  -0.00004   0.00250   0.00246  -0.01921
   D130       3.11811   0.00007  -0.00004   0.00154   0.00150   3.11961
   D131       3.12033   0.00008  -0.00002   0.00234   0.00232   3.12265
   D132      -0.02307   0.00005  -0.00003   0.00139   0.00136  -0.02171
   D133      -0.01369   0.00008   0.00002   0.00377   0.00379  -0.00990
   D134       3.12470   0.00009   0.00000   0.00338   0.00338   3.12808
   D135      -3.11061  -0.00003   0.00010   0.00094   0.00104  -3.10957
   D136       0.02778  -0.00002   0.00008   0.00056   0.00063   0.02841
   D137       0.00556  -0.00004  -0.00003  -0.00210  -0.00212   0.00344
   D138      -3.09507  -0.00006   0.00001  -0.00214  -0.00212  -3.09720
   D139      -3.13422  -0.00001  -0.00002  -0.00114  -0.00116  -3.13538
   D140       0.04833  -0.00003   0.00002  -0.00118  -0.00116   0.04717
   D141       0.01198  -0.00004   0.00003  -0.00100  -0.00097   0.01101
   D142       3.11280  -0.00002  -0.00001  -0.00096  -0.00097   3.11183
   D143      -3.12642  -0.00005   0.00005  -0.00061  -0.00056  -3.12698
   D144      -0.02560  -0.00003   0.00002  -0.00057  -0.00056  -0.02616
   D145      -2.62535   0.00000  -0.00004  -0.00086  -0.00090  -2.62625
   D146      -0.56730   0.00000  -0.00003  -0.00078  -0.00081  -0.56811
   D147       1.54750   0.00001  -0.00003  -0.00074  -0.00077   1.54673
   D148       0.55855  -0.00001   0.00000  -0.00089  -0.00089   0.55766
   D149       2.61660  -0.00002   0.00001  -0.00081  -0.00079   2.61580
   D150      -1.55179  -0.00001   0.00001  -0.00077  -0.00076  -1.55255
   D151      -0.98461  -0.00000  -0.00002  -0.00065  -0.00067  -0.98528
   D152       1.03574  -0.00000  -0.00002  -0.00057  -0.00059   1.03515
   D153       3.09629   0.00000  -0.00002  -0.00054  -0.00056   3.09573
   D154      -3.12382   0.00000  -0.00002  -0.00051  -0.00053  -3.12435
   D155      -1.10347   0.00000  -0.00001  -0.00044  -0.00045  -1.10392
   D156       0.95708   0.00001  -0.00002  -0.00041  -0.00043   0.95665
   D157       1.14081  -0.00001  -0.00002  -0.00065  -0.00067   1.14015
   D158      -3.12202  -0.00000  -0.00002  -0.00057  -0.00059  -3.12261
   D159      -1.06147  -0.00000  -0.00002  -0.00054  -0.00056  -1.06203
   D160       1.19750   0.00000   0.00004   0.00203   0.00207   1.19957
   D161      -3.06440   0.00002   0.00004   0.00244   0.00248  -3.06192
   D162      -0.94801   0.00001   0.00004   0.00216   0.00220  -0.94582
   D163       1.07327   0.00003   0.00005   0.00256   0.00261   1.07588
   D164      -3.01436   0.00001   0.00003   0.00210   0.00213  -3.01223
   D165      -0.99308   0.00003   0.00004   0.00251   0.00255  -0.99053
         Item               Value     Threshold  Converged?
 Maximum Force            0.004662     0.000450     NO 
 RMS     Force            0.000613     0.000300     NO 
 Maximum Displacement     0.103437     0.001800     NO 
 RMS     Displacement     0.028464     0.001200     NO 
 Predicted change in Energy=-1.530126D-04
 Lowest energy point so far.  Saving SCF results.
 GradGradGradGradGradGradGradGradGradGradGradGradGradGradGradGradGradGrad

 Leave Link  103 at Thu Mar 14 09:38:50 2024, MaxMem= 32212254720 cpu:               4.4 elap:               0.2
 (Enter /home/<user>/g16/l202.exe)
 Stoichiometry    C29H25N3S
 Framework group  C1[X(C29H25N3S)]
 Deg. of freedom   168
 Full point group                 C1      NOp   1
 RotChk:  IX=0 Diff= 9.21D-03
 Largest Abelian subgroup         C1      NOp   1
 Largest concise Abelian subgroup C1      NOp   1
                         Standard orientation:                         
 ---------------------------------------------------------------------
 Center     Atomic      Atomic             Coordinates (Angstroms)
 Number     Number       Type             X           Y           Z
 ---------------------------------------------------------------------
      1          6           0       -2.450303    1.659208   -0.317515
      2          6           0       -1.768495    0.410999   -0.172378
      3          6           0       -2.565745   -0.759235    0.014299
      4          6           0       -3.939018   -0.678899    0.037757
      5          6           0       -4.591263    0.571065   -0.129661
      6          6           0       -3.831265    1.738161   -0.306380
      7          1           0       -1.851875    2.552794   -0.428832
      8          1           0       -2.080549   -1.715156    0.179402
      9          1           0       -4.317838    2.701733   -0.431905
     10          6           0       -4.961420   -1.797853    0.239004
     11          6           0       -6.270973   -1.016255    0.149458
     12          6           0       -7.574720   -1.481907    0.249707
     13          6           0       -8.633728   -0.571768    0.136430
     14          6           0       -8.389882    0.793575   -0.075242
     15          6           0       -7.086912    1.271531   -0.177317
     16          6           0       -6.023636    0.362463   -0.064825
     17          1           0       -7.781468   -2.536437    0.414322
     18          1           0       -9.657548   -0.927146    0.213763
     19          1           0       -9.226769    1.481002   -0.159623
     20          1           0       -6.897563    2.328766   -0.341007
     21          6           0       -4.800387   -2.466966    1.623161
     22          1           0       -5.580689   -3.220211    1.781214
     23          1           0       -3.828952   -2.968452    1.697789
     24          1           0       -4.866755   -1.729734    2.429360
     25          6           0       -4.863049   -2.861848   -0.877642
     26          1           0       -3.892785   -3.369926   -0.840611
     27          1           0       -5.644176   -3.621314   -0.758312
     28          1           0       -4.974039   -2.408590   -1.867759
     29          6           0       -0.313540    0.316596   -0.220782
     30          6           0        0.571587    1.428296   -0.000150
     31          6           0        0.294510   -0.933605   -0.514429
     32          6           0        2.001057    1.244933   -0.035684
     33          6           0        1.664826   -1.107078   -0.558901
     34          1           0       -0.335269   -1.775847   -0.776289
     35          6           0        2.573510   -0.048089   -0.305988
     36          1           0        2.053734   -2.074459   -0.853511
     37          7           0        0.175472    2.687699    0.295197
     38          7           0        2.718818    2.356480    0.237535
     39         16           0        1.593164    3.581653    0.502106
     40          6           0        4.013885   -0.302868   -0.340997
     41          6           0        4.961659    0.723199   -0.584349
     42          6           0        4.523145   -1.613136   -0.145567
     43          6           0        6.319182    0.441169   -0.649918
     44          1           0        4.608215    1.736265   -0.719333
     45          6           0        5.882192   -1.878215   -0.196875
     46          1           0        3.843251   -2.425278    0.088190
     47          6           0        6.813758   -0.858202   -0.457187
     48          1           0        7.017349    1.249042   -0.858831
     49          1           0        6.236487   -2.893046   -0.029578
     50          6           0        8.294393   -1.145651   -0.474065
     51          1           0        8.488782   -2.164937   -0.826711
     52          1           0        8.796987   -0.462729   -1.172982
     53          6           0        8.943041   -0.994147    0.916170
     54          1           0        8.741014    0.023683    1.294647
     55          1           0        8.457010   -1.688445    1.612280
     56          7           0       10.364763   -1.345807    0.848849
     57          1           0       10.864979   -0.642504    0.305552
     58          1           0       10.770024   -1.316956    1.783186
 ---------------------------------------------------------------------
 Rotational constants (GHZ):           0.3549396           0.0398607           0.0365164
 Leave Link  202 at Thu Mar 14 09:38:50 2024, MaxMem= 32212254720 cpu:               0.1 elap:               0.0
 (Enter /home/<user>/g16/l301.exe)
 Standard basis: 6-31G(d) (6D, 7F)
 Ernie: Thresh=  0.10000D-02 Tol=  0.10000D-05 Strict=F.
 There are   549 symmetry adapted cartesian basis functions of A   symmetry.
 There are   549 symmetry adapted basis functions of A   symmetry.
   549 basis functions,  1048 primitive gaussians,   549 cartesian basis functions
   118 alpha electrons      118 beta electrons
       nuclear repulsion energy      3077.3754090101 Hartrees.
 IExCor=  402 DFT=T Ex+Corr=B3LYP ExCW=0 ScaHFX=  0.200000
 ScaDFX=  0.800000  0.720000  1.000000  0.810000 ScalE2=  1.000000  1.000000
 IRadAn=      5 IRanWt=     -1 IRanGd=            0 ICorTp=0 IEmpDi=  4
 NAtoms=   58 NActive=   58 NUniq=   58 SFac= 1.00D+00 NAtFMM=   60 NAOKFM=F Big=F
 Integral buffers will be    131072 words long.
 Regular integral format.
 Two-electron integral symmetry is turned on.
 Leave Link  301 at Thu Mar 14 09:38:50 2024, MaxMem= 32212254720 cpu:               1.0 elap:               0.0
 (Enter /home/<user>/g16/l302.exe)
 NPDir=0 NMtPBC=     1 NCelOv=     1 NCel=       1 NClECP=     1 NCelD=      1
         NCelK=      1 NCelE2=     1 NClLst=     1 CellRange=     0.0.
 One-electron integrals computed using PRISM.
 One-electron integral symmetry used in STVInt
 NBasis=   549 RedAO= T EigKep=  2.68D-04  NBF=   549
 NBsUse=   549 1.00D-06 EigRej= -1.00D+00 NBFU=   549
 Precomputing XC quadrature grid using
 IXCGrd= 4 IRadAn=           5 IRanWt=          -1 IRanGd=           0 AccXCQ= 0.00D+00.
 Generated NRdTot=       0 NPtTot=           0 NUsed=           0 NTot=          32
 NSgBfM=   512   512   512   512   512 MxSgAt=    58 MxSgA2=    58.
 Leave Link  302 at Thu Mar 14 09:38:51 2024, MaxMem= 32212254720 cpu:              19.6 elap:               0.7
 (Enter /home/<user>/g16/l303.exe)
 DipDrv:  MaxL=1.
 Leave Link  303 at Thu Mar 14 09:38:51 2024, MaxMem= 32212254720 cpu:               1.9 elap:               0.1
 (Enter /home/<user>/g16/l308.exe)
 Leave Link  308 at Thu Mar 14 09:38:51 2024, MaxMem= 32212254720 cpu:               2.2 elap:               0.1
 (Enter /home/<user>/g16/l401.exe)
 Initial guess from the checkpoint file:  "FBTP_S1opt.chk"
 B after Tr=    -0.000000   -0.000000   -0.000000
         Rot=    0.999999   -0.001400   -0.000106    0.000054 Ang=  -0.16 deg.
 Guess basis will be translated and rotated to current coordinates.
 JPrj=2 DoOrth=T DoCkMO=T.
 Generating alternative initial guess.
 ExpMin= 1.17D-01 ExpMax= 2.19D+04 ExpMxC= 3.30D+03 IAcc=3 IRadAn=         5 AccDes= 0.00D+00
 Harris functional with IExCor=  402 and IRadAn=       5 diagonalized for initial guess.
 HarFok:  IExCor=  402 AccDes= 0.00D+00 IRadAn=         5 IDoV= 1 UseB2=F ITyADJ=14
 ICtDFT=  3500011 ScaDFX=  1.000000  1.000000  1.000000  1.000000
 FoFCou: FMM=F IPFlag=           0 FMFlag=      100000 FMFlg1=           0
         NFxFlg=           0 DoJE=T BraDBF=F KetDBF=T FulRan=T
         wScrn=  0.000000 ICntrl=       500 IOpCl=  0 I1Cent=   200000004 NGrid=           0
         NMat0=    1 NMatS0=      1 NMatT0=    0 NMatD0=    1 NMtDS0=    0 NMtDT0=    0
 Petite list used in FoFCou.
 Harris En= -1682.58257562963    
 Leave Link  401 at Thu Mar 14 09:38:53 2024, MaxMem= 32212254720 cpu:              60.7 elap:               2.0
 (Enter /home/<user>/g16/l502.exe)
 Integral symmetry usage will be decided dynamically.
 Closed shell SCF:
 Using DIIS extrapolation, IDIIS=  1040.
 NGot= 32212254720 LenX= 32211628124 LenY= 32211326174
 Requested convergence on RMS density matrix=1.00D-08 within 128 cycles.
 Requested convergence on MAX density matrix=1.00D-06.
 Requested convergence on             energy=1.00D-06.
 No special actions if energy rises.
 Fock matrices will be formed incrementally for  20 cycles.
 Integral accuracy reduced to 1.0D-05 until final iterations.

 Cycle   1  Pass 0  IDiag  1:
 FoFJK:  IHMeth= 1 ICntrl=       0 DoSepK=F KAlg= 0 I1Cent=           0 FoldK=F
 IRaf= 550000000 NMat=       1 IRICut=       1 DoRegI=T DoRafI=F ISym2E= 0 IDoP0=0 IntGTp=1.
 FoFCou: FMM=F IPFlag=           0 FMFlag=      100000 FMFlg1=           0
         NFxFlg=           0 DoJE=F BraDBF=F KetDBF=F FulRan=T
         wScrn=  0.000000 ICntrl=         0 IOpCl=  0 I1Cent=           0 NGrid=           0
         NMat0=    1 NMatS0=      1 NMatT0=    0 NMatD0=    1 NMtDS0=    0 NMtDT0=    0
 Symmetry not used in FoFCou.
 E= -1682.59291797038    
 DIIS: error= 1.06D-03 at cycle   1 NSaved=   1.
 NSaved= 1 IEnMin= 1 EnMin= -1682.59291797038     IErMin= 1 ErrMin= 1.06D-03
 ErrMax= 1.06D-03  0.00D+00 EMaxC= 1.00D-01 BMatC= 8.07D-04 BMatP= 8.07D-04
 IDIUse=3 WtCom= 9.89D-01 WtEn= 1.06D-02
 Coeff-Com:  0.100D+01
 Coeff-En:   0.100D+01
 Coeff:      0.100D+01
 Gap=     1.960 Goal=   None    Shift=    0.000
 GapD=    1.960 DampG=2.000 DampE=1.000 DampFc=2.0000 IDamp=-1.
 RMSDP=1.12D-04 MaxDP=3.50D-03              OVMax= 4.59D-03

 Cycle   2  Pass 0  IDiag  1:
 RMSU=  1.12D-04    CP:  1.00D+00
 E= -1682.59429668947     Delta-E=       -0.001378719090 Rises=F Damp=F
 DIIS: error= 6.24D-05 at cycle   2 NSaved=   2.
 NSaved= 2 IEnMin= 2 EnMin= -1682.59429668947     IErMin= 2 ErrMin= 6.24D-05
 ErrMax= 6.24D-05  0.00D+00 EMaxC= 1.00D-01 BMatC= 1.24D-05 BMatP= 8.07D-04
 IDIUse=1 WtCom= 1.00D+00 WtEn= 0.00D+00
 Coeff-Com: -0.579D-01 0.106D+01
 Coeff:     -0.579D-01 0.106D+01
 Gap=     0.090 Goal=   None    Shift=    0.000
 RMSDP=2.09D-05 MaxDP=1.17D-03 DE=-1.38D-03 OVMax= 2.48D-03

 Cycle   3  Pass 0  IDiag  1:
 RMSU=  2.07D-05    CP:  1.00D+00  1.03D+00
 E= -1682.59427438749     Delta-E=        0.000022301976 Rises=F Damp=F
 DIIS: error= 1.94D-04 at cycle   3 NSaved=   3.
 NSaved= 3 IEnMin= 2 EnMin= -1682.59429668947     IErMin= 2 ErrMin= 6.24D-05
 ErrMax= 1.94D-04  0.00D+00 EMaxC= 1.00D-01 BMatC= 3.89D-05 BMatP= 1.24D-05
 IDIUse=3 WtCom= 4.18D-01 WtEn= 5.82D-01
 Coeff-Com: -0.490D-01 0.724D+00 0.325D+00
 Coeff-En:   0.000D+00 0.704D+00 0.296D+00
 Coeff:     -0.205D-01 0.712D+00 0.308D+00
 Gap=     0.090 Goal=   None    Shift=    0.000
 RMSDP=1.56D-05 MaxDP=1.18D-03 DE= 2.23D-05 OVMax= 2.65D-03

 Cycle   4  Pass 0  IDiag  1:
 RMSU=  7.15D-06    CP:  1.00D+00  1.04D+00  3.39D-01
 E= -1682.59431228263     Delta-E=       -0.000037895138 Rises=F Damp=F
 DIIS: error= 7.34D-05 at cycle   4 NSaved=   4.
 NSaved= 4 IEnMin= 4 EnMin= -1682.59431228263     IErMin= 2 ErrMin= 6.24D-05
 ErrMax= 7.34D-05  0.00D+00 EMaxC= 1.00D-01 BMatC= 3.29D-06 BMatP= 1.24D-05
 IDIUse=1 WtCom= 1.00D+00 WtEn= 0.00D+00
 Coeff-Com: -0.282D-01 0.380D+00 0.231D+00 0.417D+00
 Coeff:     -0.282D-01 0.380D+00 0.231D+00 0.417D+00
 Gap=     0.090 Goal=   None    Shift=    0.000
 RMSDP=4.74D-06 MaxDP=4.46D-04 DE=-3.79D-05 OVMax= 9.09D-04

 Initial convergence to 1.0D-05 achieved.  Increase integral accuracy.
 Cycle   5  Pass 1  IDiag  1:
 E= -1682.59436012230     Delta-E=       -0.000047839669 Rises=F Damp=F
 DIIS: error= 9.10D-05 at cycle   1 NSaved=   1.
 NSaved= 1 IEnMin= 1 EnMin= -1682.59436012230     IErMin= 1 ErrMin= 9.10D-05
 ErrMax= 9.10D-05  0.00D+00 EMaxC= 1.00D-01 BMatC= 2.81D-06 BMatP= 2.81D-06
 IDIUse=1 WtCom= 1.00D+00 WtEn= 0.00D+00
 Coeff-Com:  0.100D+01
 Coeff:      0.100D+01
 Gap=     0.090 Goal=   None    Shift=    0.000
 RMSDP=4.74D-06 MaxDP=4.46D-04 DE=-4.78D-05 OVMax= 8.55D-04

 Cycle   6  Pass 1  IDiag  1:
 RMSU=  6.11D-05    CP:  1.00D+00
 E= -1682.59435896382     Delta-E=        0.000001158484 Rises=F Damp=F
 DIIS: error= 6.37D-05 at cycle   2 NSaved=   2.
 NSaved= 2 IEnMin= 1 EnMin= -1682.59436012230     IErMin= 2 ErrMin= 6.37D-05
 ErrMax= 6.37D-05  0.00D+00 EMaxC= 1.00D-01 BMatC= 3.45D-06 BMatP= 2.81D-06
 IDIUse=1 WtCom= 1.00D+00 WtEn= 0.00D+00
 Coeff-Com:  0.537D+00 0.463D+00
 Coeff:      0.537D+00 0.463D+00
 Gap=     0.090 Goal=   None    Shift=    0.000
 RMSDP=7.02D-06 MaxDP=5.74D-04 DE= 1.16D-06 OVMax= 1.22D-03

 Cycle   7  Pass 1  IDiag  1:
 RMSU=  7.00D-06    CP:  1.00D+00  9.92D-01
 E= -1682.59435987169     Delta-E=       -0.000000907872 Rises=F Damp=F
 DIIS: error= 6.34D-05 at cycle   3 NSaved=   3.
 NSaved= 3 IEnMin= 1 EnMin= -1682.59436012230     IErMin= 3 ErrMin= 6.34D-05
 ErrMax= 6.34D-05  0.00D+00 EMaxC= 1.00D-01 BMatC= 2.67D-06 BMatP= 2.81D-06
 IDIUse=1 WtCom= 1.00D+00 WtEn= 0.00D+00
 Coeff-Com:  0.555D-01 0.451D+00 0.493D+00
 Coeff:      0.555D-01 0.451D+00 0.493D+00
 Gap=     0.090 Goal=   None    Shift=    0.000
 RMSDP=3.80D-06 MaxDP=3.59D-04 DE=-9.08D-07 OVMax= 7.28D-04

 Cycle   8  Pass 1  IDiag  1:
 RMSU=  1.88D-06    CP:  1.00D+00  1.00D+00  5.38D-01
 E= -1682.59436223151     Delta-E=       -0.000002359818 Rises=F Damp=F
 DIIS: error= 1.57D-05 at cycle   4 NSaved=   4.
 NSaved= 4 IEnMin= 4 EnMin= -1682.59436223151     IErMin= 4 ErrMin= 1.57D-05
 ErrMax= 1.57D-05  0.00D+00 EMaxC= 1.00D-01 BMatC= 3.14D-07 BMatP= 2.67D-06
 IDIUse=1 WtCom= 1.00D+00 WtEn= 0.00D+00
 Coeff-Com: -0.292D-02 0.296D+00 0.365D+00 0.342D+00
 Coeff:     -0.292D-02 0.296D+00 0.365D+00 0.342D+00
 Gap=     0.090 Goal=   None    Shift=    0.000
 RMSDP=1.28D-06 MaxDP=1.21D-04 DE=-2.36D-06 OVMax= 1.88D-04

 Cycle   9  Pass 1  IDiag  1:
 RMSU=  2.47D-07    CP:  1.00D+00  1.00D+00  5.52D-01  3.33D-01
 E= -1682.59436257325     Delta-E=       -0.000000341741 Rises=F Damp=F
 DIIS: error= 2.00D-06 at cycle   5 NSaved=   5.
 NSaved= 5 IEnMin= 5 EnMin= -1682.59436257325     IErMin= 5 ErrMin= 2.00D-06
 ErrMax= 2.00D-06  0.00D+00 EMaxC= 1.00D-01 BMatC= 3.10D-09 BMatP= 3.14D-07
 IDIUse=1 WtCom= 1.00D+00 WtEn= 0.00D+00
 Coeff-Com: -0.266D-02 0.183D+00 0.226D+00 0.219D+00 0.374D+00
 Coeff:     -0.266D-02 0.183D+00 0.226D+00 0.219D+00 0.374D+00
 Gap=     0.090 Goal=   None    Shift=    0.000
 RMSDP=1.44D-07 MaxDP=1.02D-05 DE=-3.42D-07 OVMax= 2.27D-05

 Cycle  10  Pass 1  IDiag  1:
 RMSU=  7.61D-08    CP:  1.00D+00  1.00D+00  5.52D-01  3.50D-01  5.24D-01
 E= -1682.59436257664     Delta-E=       -0.000000003392 Rises=F Damp=F
 DIIS: error= 2.92D-07 at cycle   6 NSaved=   6.
 NSaved= 6 IEnMin= 6 EnMin= -1682.59436257664     IErMin= 6 ErrMin= 2.92D-07
 ErrMax= 2.92D-07  0.00D+00 EMaxC= 1.00D-01 BMatC= 9.06D-11 BMatP= 3.10D-09
 IDIUse=1 WtCom= 1.00D+00 WtEn= 0.00D+00
 Coeff-Com: -0.127D-02 0.820D-01 0.101D+00 0.981D-01 0.208D+00 0.512D+00
 Coeff:     -0.127D-02 0.820D-01 0.101D+00 0.981D-01 0.208D+00 0.512D+00
 Gap=     0.090 Goal=   None    Shift=    0.000
 RMSDP=2.86D-08 MaxDP=1.23D-06 DE=-3.39D-09 OVMax= 3.46D-06

 Cycle  11  Pass 1  IDiag  1:
 RMSU=  2.44D-08    CP:  1.00D+00  1.00D+00  5.52D-01  3.48D-01  5.50D-01
                    CP:  8.36D-01
 E= -1682.59436257679     Delta-E=       -0.000000000155 Rises=F Damp=F
 DIIS: error= 1.27D-07 at cycle   7 NSaved=   7.
 NSaved= 7 IEnMin= 7 EnMin= -1682.59436257679     IErMin= 7 ErrMin= 1.27D-07
 ErrMax= 1.27D-07  0.00D+00 EMaxC= 1.00D-01 BMatC= 1.42D-11 BMatP= 9.06D-11
 IDIUse=1 WtCom= 1.00D+00 WtEn= 0.00D+00
 Coeff-Com: -0.394D-03 0.239D-01 0.295D-01 0.284D-01 0.760D-01 0.317D+00
 Coeff-Com:  0.526D+00
 Coeff:     -0.394D-03 0.239D-01 0.295D-01 0.284D-01 0.760D-01 0.317D+00
 Coeff:      0.526D+00
 Gap=     0.090 Goal=   None    Shift=    0.000
 RMSDP=1.13D-08 MaxDP=5.27D-07 DE=-1.55D-10 OVMax= 1.34D-06

 Cycle  12  Pass 1  IDiag  1:
 RMSU=  8.10D-09    CP:  1.00D+00  1.00D+00  5.52D-01  3.48D-01  5.55D-01
                    CP:  8.69D-01  7.00D-01
 E= -1682.59436257682     Delta-E=       -0.000000000022 Rises=F Damp=F
 DIIS: error= 4.82D-08 at cycle   8 NSaved=   8.
 NSaved= 8 IEnMin= 8 EnMin= -1682.59436257682     IErMin= 8 ErrMin= 4.82D-08
 ErrMax= 4.82D-08  0.00D+00 EMaxC= 1.00D-01 BMatC= 1.56D-12 BMatP= 1.42D-11
 IDIUse=1 WtCom= 1.00D+00 WtEn= 0.00D+00
 Coeff-Com: -0.422D-04 0.177D-02 0.222D-02 0.191D-02 0.136D-01 0.109D+00
 Coeff-Com:  0.299D+00 0.573D+00
 Coeff:     -0.422D-04 0.177D-02 0.222D-02 0.191D-02 0.136D-01 0.109D+00
 Coeff:      0.299D+00 0.573D+00
 Gap=     0.090 Goal=   None    Shift=    0.000
 RMSDP=3.93D-09 MaxDP=2.14D-07 DE=-2.18D-11 OVMax= 4.87D-07

 SCF Done:  E(RB3LYP) =  -1682.59436258     A.U. after   12 cycles
            NFock= 12  Conv=0.39D-08     -V/T= 2.0083
 KE= 1.668718781556D+03 PE=-1.007644860480D+04 EE= 3.647760051661D+03
 Leave Link  502 at Thu Mar 14 09:39:15 2024, MaxMem= 32212254720 cpu:             654.8 elap:              21.8
 (Enter /home/<user>/g16/l801.exe)
 DoSCS=F DFT=T ScalE2(SS,OS)=  1.000000  1.000000
 ExpMin= 1.17D-01 ExpMax= 2.19D+04 ExpMxC= 3.30D+03 IAcc=3 IRadAn=         5 AccDes= 0.00D+00
 HarFok:  IExCor=  205 AccDes= 0.00D+00 IRadAn=         5 IDoV=-2 UseB2=F ITyADJ=14
 ICtDFT= 12500011 ScaDFX=  1.000000  1.000000  1.000000  1.000000
 GSVD:  LWork=       -1665 too small for GESVD, short by        7400 words or        7400 for optimal perf.
 Largest valence mixing into a core orbital is  1.10D-04
 Largest core mixing into a valence orbital is  2.82D-05
 Range of M.O.s used for correlation:    38   549
 NBasis=   549 NAE=   118 NBE=   118 NFC=    37 NFV=     0
 NROrb=    512 NOA=    81 NOB=    81 NVA=   431 NVB=   431

 **** Warning!!: The smallest alpha delta epsilon is  0.89874485D-01

 Leave Link  801 at Thu Mar 14 09:39:15 2024, MaxMem= 32212254720 cpu:               3.1 elap:               0.1
 (Enter /home/<user>/g16/l914.exe)
 RHF ground state
 Two-electron integrals replicated using symmetry.
 MDV= 32212254720 DFT=T DoStab=F Mixed=T DoRPA=T DoScal=F NonHer=T
 Making orbital integer symmetry assigments:
 Orbital symmetries:
       Occupied  (A) (A) (A) (A) (A) (A) (A) (A) (A) (A) (A) (A)
                 (A) (A) (A) (A) (A) (A) (A) (A) (A) (A) (A) (A)
                 (A) (A) (A) (A) (A) (A) (A) (A) (A) (A) (A) (A)
                 (A) (A) (A) (A) (A) (A) (A) (A) (A) (A) (A) (A)
                 (A) (A) (A) (A) (A) (A) (A) (A) (A) (A) (A) (A)
                 (A) (A) (A) (A) (A) (A) (A) (A) (A) (A) (A) (A)
                 (A) (A) (A) (A) (A) (A) (A) (A) (A) (A) (A) (A)
                 (A) (A) (A) (A) (A) (A) (A) (A) (A) (A) (A) (A)
                 (A) (A) (A) (A) (A) (A) (A) (A) (A) (A) (A) (A)
                 (A) (A) (A) (A) (A) (A) (A) (A) (A) (A)
       Virtual   (A) (A) (A) (A) (A) (A) (A) (A) (A) (A) (A) (A)
                 (A) (A) (A) (A) (A) (A) (A) (A) (A) (A) (A) (A)
                 (A) (A) (A) (A) (A) (A) (A) (A) (A) (A) (A) (A)
                 (A) (A) (A) (A) (A) (A) (A) (A) (A) (A) (A) (A)
                 (A) (A) (A) (A) (A) (A) (A) (A) (A) (A) (A) (A)
                 (A) (A) (A) (A) (A) (A) (A) (A) (A) (A) (A) (A)
                 (A) (A) (A) (A) (A) (A) (A) (A) (A) (A) (A) (A)
                 (A) (A) (A) (A) (A) (A) (A) (A) (A) (A) (A) (A)
                 (A) (A) (A) (A) (A) (A) (A) (A) (A) (A) (A) (A)
                 (A) (A) (A) (A) (A) (A) (A) (A) (A) (A) (A) (A)
                 (A) (A) (A) (A) (A) (A) (A) (A) (A) (A) (A) (A)
                 (A) (A) (A) (A) (A) (A) (A) (A) (A) (A) (A) (A)
                 (A) (A) (A) (A) (A) (A) (A) (A) (A) (A) (A) (A)
                 (A) (A) (A) (A) (A) (A) (A) (A) (A) (A) (A) (A)
                 (A) (A) (A) (A) (A) (A) (A) (A) (A) (A) (A) (A)
                 (A) (A) (A) (A) (A) (A) (A) (A) (A) (A) (A) (A)
                 (A) (A) (A) (A) (A) (A) (A) (A) (A) (A) (A) (A)
                 (A) (A) (A) (A) (A) (A) (A) (A) (A) (A) (A) (A)
                 (A) (A) (A) (A) (A) (A) (A) (A) (A) (A) (A) (A)
                 (A) (A) (A) (A) (A) (A) (A) (A) (A) (A) (A) (A)
                 (A) (A) (A) (A) (A) (A) (A) (A) (A) (A) (A) (A)
                 (A) (A) (A) (A) (A) (A) (A) (A) (A) (A) (A) (A)
                 (A) (A) (A) (A) (A) (A) (A) (A) (A) (A) (A) (A)
                 (A) (A) (A) (A) (A) (A) (A) (A) (A) (A) (A) (A)
                 (A) (A) (A) (A) (A) (A) (A) (A) (A) (A) (A) (A)
                 (A) (A) (A) (A) (A) (A) (A) (A) (A) (A) (A) (A)
                 (A) (A) (A) (A) (A) (A) (A) (A) (A) (A) (A) (A)
                 (A) (A) (A) (A) (A) (A) (A) (A) (A) (A) (A) (A)
                 (A) (A) (A) (A) (A) (A) (A) (A) (A) (A) (A) (A)
                 (A) (A) (A) (A) (A) (A) (A) (A) (A) (A) (A) (A)
                 (A) (A) (A) (A) (A) (A) (A) (A) (A) (A) (A) (A)
                 (A) (A) (A) (A) (A) (A) (A) (A) (A) (A) (A) (A)
                 (A) (A) (A) (A) (A) (A) (A) (A) (A) (A) (A) (A)
                 (A) (A) (A) (A) (A) (A) (A) (A) (A) (A) (A) (A)
                 (A) (A) (A) (A) (A) (A) (A) (A) (A) (A) (A) (A)
                 (A) (A) (A) (A) (A) (A) (A) (A) (A) (A) (A)
 Generating guess from densities on rwf.
 Convergence on wavefunction:    0.000001000000000
 Davidson Disk Diagonalization:  ConvIn= 1.00D-06 SkipCon=T Conv= 1.00D-06.
 Max sub-space:  2000 roots to seek:     3 dimension of matrix:        69822
 Iteration     1 Dimension     6 NMult     0 NNew      6
 CISAX will form     6 AO SS matrices at one time.
 NMat=     6 NSing=     6 JSym2X= 0.
 FoFJK:  IHMeth= 1 ICntrl=       0 DoSepK=F KAlg= 0 I1Cent=           0 FoldK=F
 IRaf= 550000000 NMat=      12 IRICut=       1 DoRegI=T DoRafI=F ISym2E= 0 IDoP0=0 IntGTp=1.
 FoFCou: FMM=F IPFlag=           0 FMFlag=      100000 FMFlg1=           0
         NFxFlg=           0 DoJE=F BraDBF=F KetDBF=F FulRan=T
         wScrn=  0.000000 ICntrl=         0 IOpCl=  0 I1Cent=           0 NGrid=           0
         NMat0=   12 NMatS0=      6 NMatT0=    0 NMatD0=   12 NMtDS0=    0 NMtDT0=    0
 Symmetry not used in FoFCou.
 Excitation Energies [eV] at current iteration:
 Root      1 :     2.068510346306563
 Root      2 :     2.972410688362460
 Root      3 :     3.319904088397871
 Iteration     2 Dimension    12 NMult     6 NNew      6
 CISAX will form     6 AO SS matrices at one time.
 NMat=     6 NSing=     6 JSym2X= 0.
 Root      1 not converged, maximum delta is    0.002204734184403
 Root      2 not converged, maximum delta is    0.003477147773803
 Root      3 not converged, maximum delta is    0.003523233993208
 Excitation Energies [eV] at current iteration:
 Root      1 :     2.067942049365112   Change is   -0.000568296941450
 Root      2 :     2.971894152048707   Change is   -0.000516536313753
 Root      3 :     3.319228435021115   Change is   -0.000675653376756
 Iteration     3 Dimension    18 NMult    12 NNew      6
 CISAX will form     6 AO SS matrices at one time.
 NMat=     6 NSing=     6 JSym2X= 0.
 Root      1 not converged, maximum delta is    0.000397712179223
 Root      2 not converged, maximum delta is    0.000648364208431
 Root      3 not converged, maximum delta is    0.002227585640264
 Excitation Energies [eV] at current iteration:
 Root      1 :     2.067925969131096   Change is   -0.000016080234016
 Root      2 :     2.971877373466626   Change is   -0.000016778582082
 Root      3 :     3.319217680047665   Change is   -0.000010754973449
 Iteration     4 Dimension    24 NMult    18 NNew      6
 CISAX will form     6 AO SS matrices at one time.
 NMat=     6 NSing=     6 JSym2X= 0.
 Root      1 not converged, maximum delta is    0.000211676395076
 Root      2 not converged, maximum delta is    0.000416766762896
 Root      3 not converged, maximum delta is    0.003885649306052
 Excitation Energies [eV] at current iteration:
 Root      1 :     2.067923950256945   Change is   -0.000002018874151
 Root      2 :     2.971874117725425   Change is   -0.000003255741201
 Root      3 :     3.319209622021393   Change is   -0.000008058026272
 Iteration     5 Dimension    30 NMult    24 NNew      6
 CISAX will form     6 AO SS matrices at one time.
 NMat=     6 NSing=     6 JSym2X= 0.
 Root      1 not converged, maximum delta is    0.000040121597593
 Root      2 not converged, maximum delta is    0.000122374847095
 Root      3 not converged, maximum delta is    0.001927922049086
 Excitation Energies [eV] at current iteration:
 Root      1 :     2.067923761000245   Change is   -0.000000189256700
 Root      2 :     2.971873504862371   Change is   -0.000000612863054
 Root      3 :     3.319205890463592   Change is   -0.000003731557801
 Iteration     6 Dimension    36 NMult    30 NNew      6
 CISAX will form     6 AO SS matrices at one time.
 NMat=     6 NSing=     6 JSym2X= 0.
 Root      1 not converged, maximum delta is    0.000022111219437
 Root      2 not converged, maximum delta is    0.000040781557845
 Root      3 not converged, maximum delta is    0.000451839216311
 Excitation Energies [eV] at current iteration:
 Root      1 :     2.067923723953461   Change is   -0.000000037046784
 Root      2 :     2.971873388640502   Change is   -0.000000116221869
 Root      3 :     3.319205121675520   Change is   -0.000000768788072
 Iteration     7 Dimension    42 NMult    36 NNew      6
 CISAX will form     6 AO SS matrices at one time.
 NMat=     6 NSing=     6 JSym2X= 0.
 Root      1 not converged, maximum delta is    0.000003361866090
 Root      2 not converged, maximum delta is    0.000008668411631
 Root      3 not converged, maximum delta is    0.000152383143165
 Excitation Energies [eV] at current iteration:
 Root      1 :     2.067923720385253   Change is   -0.000000003568208
 Root      2 :     2.971873373304745   Change is   -0.000000015335757
 Root      3 :     3.319204945263987   Change is   -0.000000176411533
 Iteration     8 Dimension    48 NMult    42 NNew      6
 CISAX will form     6 AO SS matrices at one time.
 NMat=     6 NSing=     6 JSym2X= 0.
 Root      1 not converged, maximum delta is    0.000001056086652
 Root      2 not converged, maximum delta is    0.000004579876982
 Root      3 not converged, maximum delta is    0.000113542844624
 Excitation Energies [eV] at current iteration:
 Root      1 :     2.067923719901650   Change is   -0.000000000483603
 Root      2 :     2.971873370871858   Change is   -0.000000002432887
 Root      3 :     3.319204906071652   Change is   -0.000000039192336
 Iteration     9 Dimension    54 NMult    48 NNew      6
 CISAX will form     6 AO SS matrices at one time.
 NMat=     6 NSing=     6 JSym2X= 0.
 Root      1 has converged.
 Root      2 not converged, maximum delta is    0.000001539298978
 Root      3 not converged, maximum delta is    0.000047892252469
 Excitation Energies [eV] at current iteration:
 Root      1 :     2.067923719864639   Change is   -0.000000000037011
 Root      2 :     2.971873370578725   Change is   -0.000000000293133
 Root      3 :     3.319204899461624   Change is   -0.000000006610027
 Iteration    10 Dimension    58 NMult    54 NNew      4
 CISAX will form     4 AO SS matrices at one time.
 NMat=     4 NSing=     4 JSym2X= 0.
 Root      1 has converged.
 Root      2 has converged.
 Root      3 not converged, maximum delta is    0.000013774872746
 Excitation Energies [eV] at current iteration:
 Root      1 :     2.067923719864400   Change is   -0.000000000000239
 Root      2 :     2.971873370545338   Change is   -0.000000000033388
 Root      3 :     3.319204898603464   Change is   -0.000000000858160
 Iteration    11 Dimension    60 NMult    58 NNew      2
 CISAX will form     2 AO SS matrices at one time.
 NMat=     2 NSing=     2 JSym2X= 0.
 Root      1 has converged.
 Root      2 has converged.
 Root      3 not converged, maximum delta is    0.000003677714289
 Excitation Energies [eV] at current iteration:
 Root      1 :     2.067923719864321   Change is   -0.000000000000079
 Root      2 :     2.971873370545033   Change is   -0.000000000000304
 Root      3 :     3.319204898489659   Change is   -0.000000000113805
 Iteration    12 Dimension    62 NMult    60 NNew      2
 CISAX will form     2 AO SS matrices at one time.
 NMat=     2 NSing=     2 JSym2X= 0.
 Root      1 has converged.
 Root      2 has converged.
 Root      3 has converged.
 Excitation Energies [eV] at current iteration:
 Root      1 :     2.067923719864281   Change is   -0.000000000000040
 Root      2 :     2.971873370545116   Change is    0.000000000000083
 Root      3 :     3.319204898477845   Change is   -0.000000000011814
 Convergence achieved on expansion vectors.
 ***********************************************************************
 Excited states from <AA,BB:AA,BB> singles matrix:
 ***********************************************************************
 
 1PDM for each excited state written to RWF  633
 Ground to excited state transition densities written to RWF  633
 Ground to excited state transition electric dipole moments (Au):
       state          X           Y           Z        Dip. S.      Osc.
         1        -2.6910      0.0879      0.0529      7.2519      0.3674
         2         0.1794     -0.3098     -0.0170      0.1285      0.0094
         3         0.0538      0.0353      0.0060      0.0042      0.0003
 Ground to excited state transition velocity dipole moments (Au):
       state          X           Y           Z        Dip. S.      Osc.
         1         0.2081     -0.0062     -0.0042      0.0434      0.3805
         2        -0.0216      0.0380      0.0025      0.0019      0.0117
         3        -0.0050     -0.0055     -0.0005      0.0001      0.0003
 Ground to excited state transition magnetic dipole moments (Au):
       state          X           Y           Z
         1        -0.0143     -0.1569     -0.0387
         2         0.0041      0.0369     -0.1069
         3        -0.0144     -0.0338     -0.1819
 Ground to excited state transition velocity quadrupole moments (Au):
       state          XX          YY          ZZ          XY          XZ          YZ
         1         0.0303      0.0086      0.0050     -0.1236     -0.0354      0.0199
         2        -1.9332      0.2053      0.0006      0.1894      0.0374      0.0519
         3         0.0044      0.0174     -0.0073     -0.0551     -0.0150      0.0042
 <0|del|b> * <b|rxdel|0> + <0|del|b> * <b|delr+rdel|0>
 Rotatory Strengths (R) in cgs (10**-40 erg-esu-cm/Gauss)
       state          XX          YY          ZZ    R(velocity)    E-M Angle
         1         6.6457      3.7421    -27.5312     -5.7145       93.12
         2         0.6076     -6.3173     12.4894      2.2599       77.80
         3         0.6295      0.3227      1.0432      0.6652       75.50
 1/2[<0|r|b>*<b|rxdel|0> + (<0|rxdel|b>*<b|r|0>)*]
 Rotatory Strengths (R) in cgs (10**-40 erg-esu-cm/Gauss)
       state          XX          YY          ZZ     R(length)
         1       -27.2134      9.7520      1.4488     -5.3375
         2        -0.5166      8.0867     -1.2851      2.0950
         3         0.5464      0.8437      0.7659      0.7187
  1/2[<0|del|b>*<b|r|0> + (<0|r|b>*<b|del|0>)*] (Au)
       state          X           Y           Z        Dip. S.   Osc.(frdel)
         1        -0.5601     -0.0005     -0.0002      0.5608      0.3739
         2        -0.0039     -0.0118     -0.0000      0.0157      0.0105
         3        -0.0003     -0.0002     -0.0000      0.0005      0.0003

 Excitation energies and oscillator strengths:
 
 Excited State   1:      Singlet-A      2.0679 eV  599.56 nm  f=0.3674  <S**2>=0.000
     118 ->119         0.70189
 This state for optimization and/or second-order correction.
 Total Energy, E(TD-HF/TD-DFT) =  -1682.51836778    
 Copying the excited state density for this state as the 1-particle RhoCI density.
 
 Excited State   2:      Singlet-A      2.9719 eV  417.19 nm  f=0.0094  <S**2>=0.000
     117 ->119        -0.69762
 
 Excited State   3:      Singlet-A      3.3192 eV  373.54 nm  f=0.0003  <S**2>=0.000
     113 ->119         0.16858
     116 ->119         0.67944
 SavETr:  write IOETrn=   770 NScale= 10 NData=  16 NLR=1 NState=    3 LETran=      64.
 The selected state is a singlet.
 CISGrd: IGrad=2 NXY=2 DFT=T
 CISAX will form     1 AO SS matrices at one time.
 NMat=     1 NSing=     1 JSym2X= 0.
 Leave Link  914 at Thu Mar 14 09:41:38 2024, MaxMem= 32212254720 cpu:            4294.8 elap:             143.2
 (Enter /home/<user>/g16/l1002.exe)
 Minotr:  Closed shell wavefunction.
          Computing CIS/TDA/TD derivatives.
          Using Z-Vector for PSCF gradient.
          Skipping F1 and S1 gradient terms here.
          IDoAtm=11111111111111111111111111111111111111111111111111
          IDoAtm=11111111
          Frozen-core window.
          Direct CPHF calculation.
          Differentiating once with respect to electric field.
                with respect to dipole field.
          Differentiating once with respect to nuclear coordinates.
          Requested convergence is 1.0D-10 RMS, and 1.0D-09 maximum.
          NewPWx=F KeepS1=T KeepF1=T KeepIn=T MapXYZ=F SortEE=F KeepMc=T.
 Two-electron integral symmetry used by symmetrizing perturbed Fock matrices.
          MDV=   32212254720 using IRadAn=       5.
          Solving linear equations separately, MaxMat=     360.
          There are     1 degrees of freedom in the 1st order CPHF.  IDoFFX=0 NUNeed=     1.
 FoFJK:  IHMeth= 1 ICntrl=       0 DoSepK=F KAlg= 0 I1Cent=           0 FoldK=F
 IRaf= 580000000 NMat=       1 IRICut=       1 DoRegI=T DoRafI=F ISym2E=-1 IDoP0=0 IntGTp=1.
 FoFCou: FMM=F IPFlag=           0 FMFlag=      100000 FMFlg1=           0
         NFxFlg=           0 DoJE=F BraDBF=F KetDBF=F FulRan=T
         wScrn=  0.000000 ICntrl=         0 IOpCl=  0 I1Cent=           0 NGrid=           0
         NMat0=    1 NMatS0=      1 NMatT0=    0 NMatD0=    1 NMtDS0=    0 NMtDT0=    0
 Petite list used in FoFCou.
 LinEq1:  Iter=  0 NonCon=     1 RMS=6.33D-03 Max=7.03D-01 NDo=     1
 AX will form     1 AO Fock derivatives at one time.
 LinEq1:  Iter=  1 NonCon=     1 RMS=3.85D-03 Max=5.25D-01 NDo=     1
 LinEq1:  Iter=  2 NonCon=     1 RMS=3.16D-03 Max=3.96D-01 NDo=     1
 LinEq1:  Iter=  3 NonCon=     1 RMS=2.93D-03 Max=2.38D-01 NDo=     1
 LinEq1:  Iter=  4 NonCon=     1 RMS=2.68D-03 Max=2.05D-01 NDo=     1
 LinEq1:  Iter=  5 NonCon=     1 RMS=1.75D-03 Max=9.89D-02 NDo=     1
 LinEq1:  Iter=  6 NonCon=     1 RMS=1.15D-03 Max=5.19D-02 NDo=     1
 LinEq1:  Iter=  7 NonCon=     1 RMS=8.05D-04 Max=3.18D-02 NDo=     1
 LinEq1:  Iter=  8 NonCon=     1 RMS=5.88D-04 Max=3.51D-02 NDo=     1
 LinEq1:  Iter=  9 NonCon=     1 RMS=4.31D-04 Max=2.15D-02 NDo=     1
 LinEq1:  Iter= 10 NonCon=     1 RMS=2.72D-04 Max=1.25D-02 NDo=     1
 LinEq1:  Iter= 11 NonCon=     1 RMS=1.76D-04 Max=7.73D-03 NDo=     1
 LinEq1:  Iter= 12 NonCon=     1 RMS=1.17D-04 Max=6.53D-03 NDo=     1
 LinEq1:  Iter= 13 NonCon=     1 RMS=8.66D-05 Max=4.45D-03 NDo=     1
 LinEq1:  Iter= 14 NonCon=     1 RMS=5.71D-05 Max=2.13D-03 NDo=     1
 LinEq1:  Iter= 15 NonCon=     1 RMS=3.83D-05 Max=2.44D-03 NDo=     1
 LinEq1:  Iter= 16 NonCon=     1 RMS=1.88D-05 Max=1.25D-03 NDo=     1
 LinEq1:  Iter= 17 NonCon=     1 RMS=1.22D-05 Max=4.87D-04 NDo=     1
 LinEq1:  Iter= 18 NonCon=     1 RMS=6.94D-06 Max=4.24D-04 NDo=     1
 LinEq1:  Iter= 19 NonCon=     1 RMS=3.73D-06 Max=2.21D-04 NDo=     1
 LinEq1:  Iter= 20 NonCon=     1 RMS=2.03D-06 Max=9.79D-05 NDo=     1
 LinEq1:  Iter= 21 NonCon=     1 RMS=1.44D-06 Max=5.99D-05 NDo=     1
 LinEq1:  Iter= 22 NonCon=     1 RMS=7.93D-07 Max=3.98D-05 NDo=     1
 LinEq1:  Iter= 23 NonCon=     1 RMS=4.74D-07 Max=1.99D-05 NDo=     1
 LinEq1:  Iter= 24 NonCon=     1 RMS=2.53D-07 Max=1.14D-05 NDo=     1
 LinEq1:  Iter= 25 NonCon=     1 RMS=1.65D-07 Max=5.98D-06 NDo=     1
 LinEq1:  Iter= 26 NonCon=     1 RMS=7.55D-08 Max=3.11D-06 NDo=     1
 LinEq1:  Iter= 27 NonCon=     1 RMS=4.24D-08 Max=1.74D-06 NDo=     1
 LinEq1:  Iter= 28 NonCon=     1 RMS=2.19D-08 Max=7.03D-07 NDo=     1
 LinEq1:  Iter= 29 NonCon=     1 RMS=9.78D-09 Max=4.17D-07 NDo=     1
 LinEq1:  Iter= 30 NonCon=     1 RMS=5.71D-09 Max=2.41D-07 NDo=     1
 LinEq1:  Iter= 31 NonCon=     1 RMS=3.05D-09 Max=1.16D-07 NDo=     1
 LinEq1:  Iter= 32 NonCon=     1 RMS=1.66D-09 Max=6.45D-08 NDo=     1
 LinEq1:  Iter= 33 NonCon=     1 RMS=9.62D-10 Max=4.12D-08 NDo=     1
 LinEq1:  Iter= 34 NonCon=     1 RMS=5.31D-10 Max=2.03D-08 NDo=     1
 LinEq1:  Iter= 35 NonCon=     1 RMS=2.99D-10 Max=1.27D-08 NDo=     1
 LinEq1:  Iter= 36 NonCon=     1 RMS=1.36D-10 Max=4.48D-09 NDo=     1
 LinEq1:  Iter= 37 NonCon=     1 RMS=6.92D-11 Max=2.11D-09 NDo=     1
 LinEq1:  Iter= 38 NonCon=     0 RMS=2.75D-11 Max=7.05D-10 NDo=     1
 Linear equations converged to 1.000D-10 1.000D-09 after    38 iterations.
 End of Minotr F.D. properties file   721 does not exist.
 End of Minotr F.D. properties file   722 does not exist.
 End of Minotr F.D. properties file   788 does not exist.
 Leave Link 1002 at Thu Mar 14 09:43:14 2024, MaxMem= 32212254720 cpu:            2833.6 elap:              95.4
 (Enter /home/<user>/g16/l701.exe)
 ... and contract with generalized density number  6.
 Compute integral first derivatives.
 Leave Link  701 at Thu Mar 14 09:43:14 2024, MaxMem= 32212254720 cpu:               6.5 elap:               0.2
 (Enter /home/<user>/g16/l702.exe)
 L702 exits ... SP integral derivatives will be done elsewhere.
 Leave Link  702 at Thu Mar 14 09:43:14 2024, MaxMem= 32212254720 cpu:               0.9 elap:               0.0
 (Enter /home/<user>/g16/l703.exe)
 Integral derivatives from FoFJK, PRISM(SPDF).
 Compute integral first derivatives, UseDBF=F ICtDFT=           0.
 Calling FoFJK, ICntrl=  10005127 FMM=F ISym2X=0 I1Cent= 0 IOpClX= 0 NMat=1 NMatS=1 NMatT=0.
 FoFJK:  IHMeth= 1 ICntrl=10005127 DoSepK=F KAlg= 0 I1Cent=           0 FoldK=F
 IRaf=         0 NMat=       1 IRICut=       1 DoRegI=T DoRafI=F ISym2E= 0 IDoP0=0 IntGTp=1.
 FoFCou: FMM=F IPFlag=           0 FMFlag=      100000 FMFlg1=         800
         NFxFlg=           0 DoJE=F BraDBF=F KetDBF=F FulRan=T
         wScrn=  0.000000 ICntrl=  10005127 IOpCl=  0 I1Cent=           0 NGrid=           0
         NMat0=    1 NMatS0=      1 NMatT0=    0 NMatD0=    1 NMtDS0=    0 NMtDT0=    0
 Symmetry not used in FoFCou.
 Leave Link  703 at Thu Mar 14 09:43:22 2024, MaxMem= 32212254720 cpu:             236.3 elap:               7.9
 (Enter /home/<user>/g16/l716.exe)
 Dipole        =-1.97864881D+00-1.72991595D+00-1.01584474D-01
 ***** Axes restored to original set *****
 -------------------------------------------------------------------
 Center     Atomic                   Forces (Hartrees/Bohr)
 Number     Number              X              Y              Z
 -------------------------------------------------------------------
      1        6           0.000637080   -0.000131851    0.000110131
      2        6          -0.000007061    0.000313055    0.000067215
      3        6           0.000498819   -0.000206342    0.000082850
      4        6          -0.000331079    0.000148259   -0.000084830
      5        6           0.000413742    0.000173018    0.000026216
      6        6          -0.000406174    0.000066585   -0.000083372
      7        1           0.000082144    0.000115057   -0.000038520
      8        1          -0.000271095    0.000006440    0.000056274
      9        1           0.000135668    0.000071240    0.000055455
     10        6           0.000081658   -0.000375925    0.000103092
     11        6           0.000252072    0.000122245   -0.000046387
     12        6          -0.000044768   -0.000148459    0.000030859
     13        6          -0.000003113    0.000033711   -0.000008083
     14        6          -0.000153314   -0.000011036    0.000010357
     15        6           0.000269347    0.000070757   -0.000033388
     16        6          -0.000539657   -0.000062714    0.000002112
     17        1           0.000039844    0.000016491   -0.000005223
     18        1          -0.000001015   -0.000014996    0.000005997
     19        1           0.000054831    0.000034354   -0.000008615
     20        1          -0.000057959   -0.000007246    0.000000168
     21        6          -0.000004905    0.000022782   -0.000062962
     22        1           0.000005524   -0.000000512   -0.000005180
     23        1          -0.000016346   -0.000000791   -0.000003321
     24        1          -0.000003470    0.000000397    0.000011098
     25        6           0.000009277    0.000063701    0.000050794
     26        1          -0.000017734    0.000019766    0.000004139
     27        1          -0.000003216    0.000015856    0.000008020
     28        1           0.000002717   -0.000002887   -0.000013021
     29        6          -0.000615683   -0.000764702   -0.000167028
     30        6          -0.000282117    0.001619455    0.000416267
     31        6          -0.000070919    0.000479073   -0.000021626
     32        6           0.000688216    0.001145884    0.000088278
     33        6           0.000381783    0.000466605   -0.000009343
     34        1           0.000401265   -0.000328343   -0.000069002
     35        6           0.000540461   -0.000790619   -0.000288207
     36        1          -0.000260125   -0.000374263    0.000062196
     37        7           0.000446143   -0.000123309   -0.000140155
     38        7          -0.000818593    0.000314324    0.000041214
     39       16          -0.000487930   -0.002131897   -0.000244123
     40        6          -0.000211051    0.000230915    0.000326413
     41        6          -0.000051397    0.000023084   -0.000131243
     42        6          -0.000371989    0.000050409   -0.000029334
     43        6           0.000079023   -0.000041749   -0.000033795
     44        1          -0.000000556   -0.000021740   -0.000050345
     45        6           0.000030680   -0.000011728    0.000017613
     46        1          -0.000062398   -0.000112126   -0.000025499
     47        6           0.000185216    0.000029031    0.000007394
     48        1          -0.000040140    0.000063354    0.000040877
     49        1          -0.000049443   -0.000042984   -0.000004482
     50        6          -0.000082017   -0.000008266   -0.000040328
     51        1          -0.000000560   -0.000004038    0.000010023
     52        1           0.000002466   -0.000004381   -0.000001662
     53        6           0.000053286   -0.000042118    0.000023079
     54        1          -0.000004657    0.000002716   -0.000014279
     55        1           0.000001386    0.000018019    0.000005212
     56        7          -0.000016257    0.000071676   -0.000015646
     57        1           0.000003091   -0.000008656    0.000022265
     58        1          -0.000009002   -0.000034582   -0.000006610
 -------------------------------------------------------------------
 Cartesian Forces:  Max     0.002131897 RMS     0.000305340
 Leave Link  716 at Thu Mar 14 09:43:22 2024, MaxMem= 32212254720 cpu:               1.7 elap:               0.1
 (Enter /home/<user>/g16/l103.exe)

 GradGradGradGradGradGradGradGradGradGradGradGradGradGradGradGradGradGrad
 Berny optimization.
 Using GEDIIS/GDIIS optimizer.
 FormGI is forming the generalized inverse of G from B-inverse, IUseBI=4.
 GSVD:  received Info=                   1 from GESDD.
 Internal  Forces:  Max     0.001539515 RMS     0.000230596
 Search for a local minimum.
 Step number   5 out of a maximum of  346
 All quantities printed in internal units (Hartrees-Bohrs-Radians)
 RMS Force = .23060D-03 SwitMx=.10000D-02 MixMth= 2
 Mixed Optimization -- En-DIIS/RFO-DIIS
 Swapping is turned off.
 Update second derivatives using D2CorX and points    2    3    4    5
 DE= -1.32D-04 DEPred=-1.53D-04 R= 8.64D-01
 TightC=F SS=  1.41D+00  RLast= 5.17D-02 DXNew= 1.3451D+00 1.5506D-01
 Trust test= 8.64D-01 RLast= 5.17D-02 DXMaxT set to 8.00D-01
 ITU=  1  1  1  1  0
     Eigenvalues ---    0.00230   0.00230   0.00250   0.00611   0.00755
     Eigenvalues ---    0.00786   0.00848   0.01037   0.01251   0.01452
     Eigenvalues ---    0.01468   0.01606   0.01622   0.01639   0.01653
     Eigenvalues ---    0.01683   0.01713   0.01734   0.01766   0.01849
     Eigenvalues ---    0.01884   0.01902   0.02023   0.02039   0.02041
     Eigenvalues ---    0.02074   0.02085   0.02088   0.02094   0.02094
     Eigenvalues ---    0.02112   0.02116   0.02119   0.02124   0.02134
     Eigenvalues ---    0.02134   0.02143   0.02145   0.02149   0.02156
     Eigenvalues ---    0.02160   0.02161   0.02197   0.02305   0.04059
     Eigenvalues ---    0.04286   0.04381   0.04474   0.05420   0.05424
     Eigenvalues ---    0.05438   0.05511   0.05512   0.05562   0.05997
     Eigenvalues ---    0.08038   0.08949   0.09259   0.11587   0.12597
     Eigenvalues ---    0.12814   0.14929   0.15870   0.15967   0.15991
     Eigenvalues ---    0.15999   0.15999   0.16000   0.16000   0.16000
     Eigenvalues ---    0.16000   0.16000   0.16000   0.16000   0.16000
     Eigenvalues ---    0.16000   0.16000   0.16000   0.16000   0.16001
     Eigenvalues ---    0.16013   0.16079   0.18950   0.21606   0.21887
     Eigenvalues ---    0.21957   0.21999   0.22039   0.22460   0.22472
     Eigenvalues ---    0.22659   0.22940   0.23356   0.24029   0.24532
     Eigenvalues ---    0.24563   0.24755   0.24971   0.24977   0.24989
     Eigenvalues ---    0.24997   0.24998   0.25273   0.27082   0.28056
     Eigenvalues ---    0.28103   0.28466   0.28612   0.29007   0.31176
     Eigenvalues ---    0.33128   0.33784   0.33941   0.34027   0.34090
     Eigenvalues ---    0.34099   0.34104   0.34106   0.34131   0.34277
     Eigenvalues ---    0.34290   0.34510   0.34759   0.34870   0.35033
     Eigenvalues ---    0.35049   0.35085   0.35151   0.35158   0.35183
     Eigenvalues ---    0.35187   0.35203   0.35230   0.35283   0.35526
     Eigenvalues ---    0.35565   0.36138   0.36437   0.36771   0.37334
     Eigenvalues ---    0.38153   0.38782   0.40702   0.41532   0.41570
     Eigenvalues ---    0.41806   0.41913   0.42168   0.42606   0.43630
     Eigenvalues ---    0.44364   0.44522   0.44635   0.44908   0.44970
     Eigenvalues ---    0.44995   0.45799   0.45931   0.46078   0.46195
     Eigenvalues ---    0.46697   0.47007   0.47029   0.47474   0.47928
     Eigenvalues ---    0.54482   0.54969   0.68250
 En-DIIS/RFO-DIIS/Sim-DIIS IScMMF=       -3 using points:     5    4    3
 RFO step:  Lambda=-4.67604848D-05.
 NNeg= 0 NGDIIS= 3 SimSw=  2.50D-01 Rises=F DC= -1.32D-04 SmlDif=  1.00D-05
 NRisDI= 0 DoIntr=F SqrtH=F CThrHd= 10.0 CDAdj=  3.0
 RMS Error=  0.1274598357D-02 NUsed= 3 OKEnD=T EnDIS=F
 InvSVX:  RCond= 4.09D-04 Info=           0 Equed=N FErr=  2.03D-15 BErr=  3.22D-18
 DidBck=F Rises=F RFO-DIIS coefs:    1.19639   -0.20194    0.00555
 Iteration  1 RMS(Cart)=  0.00698650 RMS(Int)=  0.00000758
 Iteration  2 RMS(Cart)=  0.00003217 RMS(Int)=  0.00000205
 Iteration  3 RMS(Cart)=  0.00000000 RMS(Int)=  0.00000205
 ITry= 1 IFail=0 DXMaxC= 3.09D-02 DCOld= 1.00D+10 DXMaxT= 8.00D-01 DXLimC= 3.00D+00 Rises=F
 Variable       Old X    -DE/DX   Delta X   Delta X   Delta X     New X
                                 (Linear)    (Quad)   (Total)
    R1        2.70168  -0.00026   0.00000  -0.00063  -0.00062   2.70106
    R2        2.61399   0.00015   0.00002   0.00041   0.00042   2.61441
    R3        2.04318   0.00015   0.00006   0.00022   0.00029   2.04347
    R4        2.69900   0.00000  -0.00021  -0.00018  -0.00039   2.69861
    R5        2.75677  -0.00059  -0.00063  -0.00078  -0.00141   2.75535
    R6        2.59992   0.00018  -0.00017   0.00050   0.00033   2.60026
    R7        2.04969  -0.00011   0.00020  -0.00023  -0.00003   2.04966
    R8        2.68305   0.00014   0.00001   0.00011   0.00013   2.68318
    R9        2.88941   0.00001   0.00004   0.00007   0.00011   2.88952
   R10        2.65299   0.00001  -0.00010  -0.00009  -0.00019   2.65280
   R11        2.73809   0.00028   0.00019   0.00077   0.00096   2.73905
   R12        2.05362  -0.00001   0.00008  -0.00004   0.00004   2.05366
   R13        2.88692  -0.00001  -0.00001   0.00002   0.00001   2.88693
   R14        2.92116  -0.00007   0.00010  -0.00023  -0.00013   2.92103
   R15        2.92063  -0.00011   0.00008  -0.00034  -0.00026   2.92036
   R16        2.62300   0.00005  -0.00009   0.00015   0.00007   2.62307
   R17        2.67779   0.00003   0.00002  -0.00009  -0.00008   2.67771
   R18        2.64743   0.00008   0.00005   0.00012   0.00017   2.64760
   R19        2.05440  -0.00002   0.00001  -0.00005  -0.00004   2.05436
   R20        2.65130   0.00007   0.00005   0.00005   0.00010   2.65140
   R21        2.05319   0.00001  -0.00003   0.00003   0.00000   2.05319
   R22        2.62977   0.00009  -0.00007   0.00024   0.00017   2.62994
   R23        2.05282  -0.00002   0.00001  -0.00004  -0.00003   2.05278
   R24        2.65210  -0.00009  -0.00009  -0.00023  -0.00033   2.65177
   R25        2.05311  -0.00002   0.00004  -0.00004  -0.00000   2.05311
   R26        2.07115  -0.00000   0.00000  -0.00001  -0.00001   2.07115
   R27        2.07073  -0.00001  -0.00000  -0.00003  -0.00003   2.07070
   R28        2.06826   0.00001   0.00003   0.00001   0.00004   2.06829
   R29        2.07089  -0.00002  -0.00001  -0.00005  -0.00006   2.07083
   R30        2.07111  -0.00001   0.00001  -0.00001  -0.00001   2.07111
   R31        2.06845   0.00001   0.00002   0.00002   0.00004   2.06849
   R32        2.71753  -0.00001   0.00102   0.00013   0.00116   2.71869
   R33        2.68511  -0.00008  -0.00023  -0.00068  -0.00091   2.68420
   R34        2.72427   0.00037  -0.00015   0.00140   0.00125   2.72552
   R35        2.55654  -0.00112   0.00008  -0.00171  -0.00163   2.55491
   R36        2.61154  -0.00007  -0.00003   0.00020   0.00017   2.61171
   R37        2.04803   0.00004   0.00026   0.00010   0.00035   2.04839
   R38        2.72060   0.00065   0.00029   0.00133   0.00161   2.72221
   R39        2.55314  -0.00086   0.00005  -0.00132  -0.00126   2.55187
   R40        2.67990  -0.00014  -0.00016  -0.00076  -0.00092   2.67899
   R41        2.04743   0.00024   0.00014   0.00055   0.00070   2.04813
   R42        2.76496  -0.00056  -0.00070  -0.00095  -0.00165   2.76331
   R43        3.19124  -0.00128  -0.00017  -0.00291  -0.00308   3.18816
   R44        3.18358  -0.00096  -0.00028  -0.00231  -0.00258   3.18100
   R45        2.67936   0.00000  -0.00011  -0.00009  -0.00020   2.67916
   R46        2.68204  -0.00014  -0.00007  -0.00043  -0.00049   2.68155
   R47        2.62305   0.00008  -0.00005   0.00023   0.00018   2.62323
   R48        2.04357  -0.00001   0.00017  -0.00007   0.00010   2.04367
   R49        2.61842   0.00007  -0.00006   0.00021   0.00014   2.61856
   R50        2.04970   0.00011   0.00008   0.00029   0.00037   2.05007
   R51        2.65243   0.00010   0.00005   0.00013   0.00019   2.65262
   R52        2.05602   0.00001   0.00003   0.00002   0.00004   2.05606
   R53        2.65640   0.00015   0.00014   0.00018   0.00032   2.65672
   R54        2.05572   0.00002   0.00001   0.00005   0.00006   2.05578
   R55        2.85041  -0.00005  -0.00007  -0.00007  -0.00014   2.85028
   R56        2.07103   0.00000  -0.00001   0.00001  -0.00000   2.07103
   R57        2.07652  -0.00000  -0.00000   0.00000   0.00000   2.07652
   R58        2.91315   0.00003   0.00004   0.00004   0.00007   2.91323
   R59        2.08730  -0.00000   0.00000   0.00000   0.00001   2.08731
   R60        2.07254  -0.00001  -0.00000  -0.00001  -0.00002   2.07253
   R61        2.77055  -0.00003  -0.00004  -0.00004  -0.00009   2.77047
   R62        1.92717  -0.00002  -0.00001  -0.00003  -0.00004   1.92713
   R63        1.92535  -0.00001  -0.00001  -0.00002  -0.00003   1.92532
    A1        2.12365   0.00003  -0.00015   0.00003  -0.00012   2.12353
    A2        2.05790  -0.00001   0.00045   0.00005   0.00050   2.05841
    A3        2.10159  -0.00001  -0.00030  -0.00008  -0.00038   2.10121
    A4        2.05151   0.00029   0.00024   0.00083   0.00107   2.05258
    A5        2.12794  -0.00113   0.00135  -0.00304  -0.00170   2.12624
    A6        2.10370   0.00084  -0.00159   0.00223   0.00063   2.10433
    A7        2.10779  -0.00031  -0.00010  -0.00092  -0.00102   2.10677
    A8        2.08553   0.00041   0.00054   0.00148   0.00201   2.08754
    A9        2.08906  -0.00010  -0.00040  -0.00057  -0.00097   2.08809
   A10        2.10358   0.00007  -0.00001   0.00029   0.00028   2.10386
   A11        2.24842  -0.00019  -0.00045  -0.00065  -0.00110   2.24732
   A12        1.93116   0.00011   0.00046   0.00035   0.00082   1.93197
   A13        2.09212   0.00007   0.00010   0.00024   0.00034   2.09246
   A14        1.89876  -0.00011  -0.00023  -0.00031  -0.00053   1.89823
   A15        2.29225   0.00004   0.00013   0.00007   0.00020   2.29245
   A16        2.08749  -0.00015  -0.00005  -0.00048  -0.00053   2.08696
   A17        2.09056  -0.00007  -0.00032  -0.00042  -0.00074   2.08982
   A18        2.10513   0.00023   0.00037   0.00090   0.00127   2.10640
   A19        1.76304  -0.00007  -0.00049  -0.00026  -0.00075   1.76229
   A20        1.94439   0.00004   0.00010   0.00022   0.00032   1.94472
   A21        1.94567   0.00001   0.00015  -0.00005   0.00010   1.94577
   A22        1.94254   0.00002   0.00002   0.00005   0.00007   1.94261
   A23        1.94381   0.00002   0.00011  -0.00005   0.00006   1.94388
   A24        1.92018  -0.00002   0.00008   0.00007   0.00014   1.92032
   A25        2.25143  -0.00010  -0.00032  -0.00029  -0.00060   2.25083
   A26        1.93588   0.00014   0.00045   0.00037   0.00083   1.93671
   A27        2.09587  -0.00004  -0.00014  -0.00009  -0.00022   2.09565
   A28        2.07857  -0.00003  -0.00007  -0.00005  -0.00012   2.07844
   A29        2.11178  -0.00002  -0.00010  -0.00012  -0.00023   2.11155
   A30        2.09284   0.00005   0.00018   0.00017   0.00035   2.09319
   A31        2.10951   0.00002   0.00015   0.00001   0.00016   2.10967
   A32        2.08755  -0.00003  -0.00012  -0.00007  -0.00019   2.08736
   A33        2.08612   0.00000  -0.00003   0.00006   0.00003   2.08615
   A34        2.10369  -0.00001  -0.00007  -0.00001  -0.00008   2.10361
   A35        2.08707   0.00007   0.00022   0.00028   0.00050   2.08758
   A36        2.09242  -0.00006  -0.00015  -0.00027  -0.00042   2.09200
   A37        2.07261  -0.00005  -0.00013  -0.00012  -0.00024   2.07236
   A38        2.10418  -0.00003  -0.00008  -0.00020  -0.00028   2.10390
   A39        2.10640   0.00008   0.00021   0.00032   0.00052   2.10692
   A40        1.89589  -0.00007  -0.00019  -0.00016  -0.00036   1.89553
   A41        2.28118  -0.00004  -0.00007  -0.00009  -0.00016   2.28103
   A42        2.10612   0.00011   0.00026   0.00025   0.00051   2.10663
   A43        1.93098  -0.00001   0.00005  -0.00007  -0.00002   1.93096
   A44        1.92990  -0.00000   0.00005  -0.00001   0.00004   1.92994
   A45        1.94088   0.00001   0.00002   0.00007   0.00009   1.94097
   A46        1.88264  -0.00000  -0.00005  -0.00005  -0.00010   1.88253
   A47        1.88971  -0.00000  -0.00005   0.00001  -0.00004   1.88967
   A48        1.88795  -0.00000  -0.00003   0.00005   0.00003   1.88797
   A49        1.92956  -0.00001   0.00004  -0.00007  -0.00003   1.92953
   A50        1.93160  -0.00002   0.00005  -0.00013  -0.00008   1.93151
   A51        1.94123   0.00002   0.00000   0.00008   0.00008   1.94131
   A52        1.88186   0.00002  -0.00001   0.00007   0.00006   1.88192
   A53        1.88844  -0.00000  -0.00005   0.00003  -0.00002   1.88842
   A54        1.88932   0.00000  -0.00003   0.00004   0.00000   1.88932
   A55        2.16368  -0.00154   0.00193  -0.00428  -0.00236   2.16133
   A56        2.08357   0.00149  -0.00143   0.00438   0.00294   2.08651
   A57        2.03588   0.00005  -0.00046  -0.00009  -0.00056   2.03532
   A58        2.10390   0.00008  -0.00003   0.00036   0.00033   2.10423
   A59        2.18087  -0.00058   0.00094  -0.00187  -0.00092   2.17995
   A60        1.99777   0.00050  -0.00092   0.00155   0.00063   1.99840
   A61        2.14292  -0.00000   0.00038  -0.00000   0.00038   2.14330
   A62        2.07721   0.00054   0.00033   0.00251   0.00283   2.08004
   A63        2.06108  -0.00053  -0.00062  -0.00239  -0.00301   2.05806
   A64        2.10963  -0.00026   0.00027  -0.00078  -0.00051   2.10912
   A65        2.00110  -0.00021  -0.00025  -0.00045  -0.00069   2.00041
   A66        2.17201   0.00047  -0.00001   0.00115   0.00114   2.17315
   A67        2.13634   0.00021   0.00019   0.00078   0.00097   2.13732
   A68        2.06775  -0.00048  -0.00078  -0.00199  -0.00277   2.06499
   A69        2.07743   0.00028   0.00060   0.00137   0.00197   2.07940
   A70        2.03686  -0.00007  -0.00032  -0.00025  -0.00057   2.03630
   A71        2.15594   0.00042   0.00015   0.00157   0.00172   2.15766
   A72        2.09034  -0.00035   0.00017  -0.00128  -0.00112   2.08922
   A73        1.84807  -0.00072   0.00134  -0.00256  -0.00122   1.84685
   A74        1.84950  -0.00051   0.00101  -0.00177  -0.00076   1.84874
   A75        1.72816   0.00093  -0.00119   0.00323   0.00204   1.73020
   A76        2.13666   0.00038  -0.00003   0.00146   0.00143   2.13809
   A77        2.10679  -0.00055  -0.00013  -0.00207  -0.00220   2.10459
   A78        2.03966   0.00017   0.00016   0.00055   0.00071   2.04037
   A79        2.11159  -0.00007  -0.00003  -0.00028  -0.00030   2.11129
   A80        2.07246   0.00004   0.00001   0.00023   0.00024   2.07270
   A81        2.09913   0.00003   0.00002   0.00005   0.00006   2.09919
   A82        2.12170  -0.00008  -0.00013  -0.00028  -0.00041   2.12129
   A83        2.08979   0.00006   0.00043   0.00006   0.00049   2.09028
   A84        2.07094   0.00002  -0.00028   0.00025  -0.00003   2.07091
   A85        2.12494  -0.00001  -0.00000   0.00001   0.00001   2.12495
   A86        2.07806  -0.00006  -0.00020  -0.00030  -0.00050   2.07756
   A87        2.08019   0.00007   0.00020   0.00029   0.00049   2.08067
   A88        2.11535   0.00002   0.00008   0.00007   0.00015   2.11551
   A89        2.08543  -0.00007  -0.00025  -0.00029  -0.00054   2.08489
   A90        2.08239   0.00005   0.00017   0.00022   0.00039   2.08278
   A91        2.05291  -0.00003  -0.00007  -0.00004  -0.00011   2.05280
   A92        2.11854   0.00004   0.00004   0.00011   0.00015   2.11868
   A93        2.11100  -0.00000   0.00003  -0.00002   0.00001   2.11101
   A94        1.93366  -0.00000  -0.00001  -0.00000  -0.00001   1.93364
   A95        1.91522  -0.00000  -0.00000   0.00001   0.00001   1.91523
   A96        1.96515   0.00001  -0.00001   0.00005   0.00003   1.96519
   A97        1.86735   0.00000   0.00002  -0.00001   0.00001   1.86736
   A98        1.88279  -0.00001  -0.00000  -0.00005  -0.00005   1.88274
   A99        1.89660  -0.00000   0.00001  -0.00001   0.00001   1.89661
   A100       1.89929  -0.00001  -0.00000  -0.00006  -0.00007   1.89922
   A101       1.90045  -0.00001   0.00002  -0.00001   0.00000   1.90045
   A102       1.92095   0.00002  -0.00002   0.00011   0.00009   1.92104
   A103       1.85961   0.00000   0.00000  -0.00005  -0.00005   1.85956
   A104       1.99778  -0.00001  -0.00000  -0.00003  -0.00003   1.99774
   A105       1.88288  -0.00000   0.00001   0.00005   0.00005   1.88293
   A106       1.91207   0.00002   0.00005   0.00014   0.00019   1.91226
   A107       1.91433   0.00001   0.00002   0.00009   0.00011   1.91444
   A108       1.84826  -0.00000   0.00003   0.00008   0.00011   1.84838
    D1       -0.02256  -0.00002   0.00125  -0.00055   0.00071  -0.02185
    D2        3.11108   0.00005  -0.00120   0.00156   0.00035   3.11143
    D3        3.10960  -0.00003   0.00159  -0.00081   0.00079   3.11039
    D4       -0.03995   0.00004  -0.00087   0.00130   0.00043  -0.03952
    D5        0.01609  -0.00001  -0.00119  -0.00011  -0.00129   0.01479
    D6       -3.12804  -0.00003  -0.00071  -0.00101  -0.00172  -3.12976
    D7       -3.11584   0.00000  -0.00154   0.00016  -0.00138  -3.11722
    D8        0.02322  -0.00002  -0.00106  -0.00074  -0.00181   0.02141
    D9        0.01176   0.00004  -0.00056   0.00110   0.00053   0.01229
   D10       -3.08634   0.00005  -0.00148   0.00139  -0.00009  -3.08643
   D11       -3.12200  -0.00002   0.00187  -0.00095   0.00090  -3.12110
   D12        0.06309  -0.00001   0.00095  -0.00066   0.00028   0.06337
   D13        0.34980  -0.00007   0.00134  -0.00257  -0.00123   0.34857
   D14       -2.78039  -0.00007  -0.00105  -0.00364  -0.00468  -2.78507
   D15       -2.79997  -0.00000  -0.00119  -0.00041  -0.00160  -2.80158
   D16        0.35302   0.00000  -0.00358  -0.00147  -0.00505   0.34797
   D17        0.00503  -0.00003  -0.00017  -0.00101  -0.00118   0.00386
   D18       -3.12818  -0.00002  -0.00046  -0.00039  -0.00084  -3.12902
   D19        3.10304  -0.00003   0.00078  -0.00126  -0.00048   3.10256
   D20       -0.03017  -0.00002   0.00049  -0.00063  -0.00015  -0.03032
   D21       -0.01201   0.00000   0.00026   0.00034   0.00060  -0.01141
   D22        3.13963  -0.00000   0.00021  -0.00006   0.00015   3.13978
   D23        3.12261  -0.00001   0.00050  -0.00018   0.00032   3.12292
   D24       -0.00893  -0.00001   0.00045  -0.00059  -0.00014  -0.00907
   D25       -3.14028   0.00000  -0.00017  -0.00001  -0.00018  -3.14046
   D26        1.07853  -0.00000   0.00003  -0.00003   0.00000   1.07854
   D27       -1.07387  -0.00001  -0.00025  -0.00024  -0.00049  -1.07436
   D28        0.00903   0.00001  -0.00044   0.00056   0.00012   0.00915
   D29       -2.05535   0.00001  -0.00024   0.00055   0.00031  -2.05503
   D30        2.07543   0.00000  -0.00052   0.00034  -0.00018   2.07526
   D31        0.00144   0.00001   0.00041   0.00022   0.00063   0.00206
   D32       -3.13760   0.00004  -0.00007   0.00113   0.00106  -3.13654
   D33        3.13035   0.00002   0.00047   0.00073   0.00120   3.13155
   D34       -0.00868   0.00004  -0.00001   0.00163   0.00163  -0.00705
   D35        0.00477   0.00001  -0.00026   0.00035   0.00009   0.00486
   D36       -3.13710   0.00001  -0.00011   0.00042   0.00031  -3.13680
   D37       -3.12521  -0.00000  -0.00032  -0.00012  -0.00044  -3.12565
   D38        0.01610   0.00000  -0.00017  -0.00005  -0.00022   0.01588
   D39        3.13642  -0.00001   0.00022  -0.00033  -0.00011   3.13631
   D40       -0.00608  -0.00001   0.00028  -0.00034  -0.00006  -0.00615
   D41       -1.08104   0.00001   0.00007  -0.00020  -0.00012  -1.08116
   D42        2.05964   0.00001   0.00014  -0.00021  -0.00007   2.05957
   D43        1.06868   0.00001   0.00027  -0.00011   0.00016   1.06884
   D44       -2.07383   0.00001   0.00033  -0.00012   0.00021  -2.07362
   D45        3.07522  -0.00002  -0.00033   0.00009  -0.00025   3.07497
   D46       -1.12329  -0.00003  -0.00033  -0.00003  -0.00036  -1.12365
   D47        0.97449  -0.00002  -0.00032   0.00008  -0.00024   0.97425
   D48        1.12208   0.00003   0.00019   0.00025   0.00044   1.12252
   D49       -3.07643   0.00002   0.00020   0.00013   0.00033  -3.07611
   D50       -0.97865   0.00003   0.00021   0.00024   0.00045  -0.97820
   D51       -1.04110   0.00000  -0.00002   0.00023   0.00021  -1.04089
   D52        1.04357  -0.00000  -0.00001   0.00011   0.00009   1.04367
   D53        3.14135   0.00000   0.00000   0.00021   0.00022   3.14157
   D54        1.12352   0.00004   0.00037   0.00057   0.00095   1.12446
   D55       -3.07578   0.00004   0.00041   0.00053   0.00095  -3.07483
   D56       -0.97490   0.00004   0.00040   0.00054   0.00095  -0.97395
   D57        3.07814  -0.00003  -0.00008   0.00020   0.00012   3.07826
   D58       -1.12116  -0.00003  -0.00004   0.00016   0.00012  -1.12104
   D59        0.97972  -0.00003  -0.00004   0.00016   0.00012   0.97984
   D60       -1.04261  -0.00000   0.00008   0.00028   0.00036  -1.04225
   D61        1.04128  -0.00001   0.00012   0.00024   0.00036   1.04164
   D62       -3.14102  -0.00000   0.00011   0.00025   0.00036  -3.14066
   D63        3.14040  -0.00000   0.00010  -0.00010   0.00000   3.14040
   D64       -0.00065   0.00000   0.00006   0.00001   0.00006  -0.00059
   D65       -0.00021  -0.00000   0.00003  -0.00008  -0.00005  -0.00026
   D66       -3.14126  -0.00000  -0.00001   0.00002   0.00001  -3.14125
   D67        0.00122   0.00000  -0.00003   0.00002  -0.00001   0.00120
   D68       -3.14013   0.00000  -0.00016  -0.00004  -0.00020  -3.14033
   D69       -3.14120   0.00000   0.00003   0.00001   0.00003  -3.14117
   D70        0.00064   0.00000  -0.00011  -0.00005  -0.00016   0.00048
   D71       -0.00021   0.00000   0.00004   0.00011   0.00015  -0.00006
   D72       -3.14142   0.00000  -0.00005   0.00012   0.00007  -3.14135
   D73        3.14085  -0.00000   0.00008   0.00001   0.00009   3.14094
   D74       -0.00036   0.00000  -0.00000   0.00001   0.00001  -0.00035
   D75        0.00020   0.00000  -0.00003  -0.00000  -0.00004   0.00016
   D76       -3.14124  -0.00000  -0.00008  -0.00002  -0.00010  -3.14134
   D77        3.14141   0.00000   0.00005  -0.00001   0.00004   3.14145
   D78       -0.00003  -0.00000   0.00001  -0.00003  -0.00002  -0.00005
   D79        0.00023  -0.00000  -0.00004  -0.00013  -0.00017   0.00006
   D80       -3.14135  -0.00000  -0.00005  -0.00006  -0.00011  -3.14146
   D81       -3.14152  -0.00000   0.00000  -0.00011  -0.00011   3.14156
   D82        0.00009  -0.00000  -0.00001  -0.00004  -0.00005   0.00004
   D83        3.14126   0.00000  -0.00006   0.00009   0.00003   3.14129
   D84       -0.00064   0.00000   0.00011   0.00016   0.00027  -0.00038
   D85       -0.00035  -0.00000  -0.00004   0.00001  -0.00003  -0.00038
   D86        3.14094   0.00000   0.00012   0.00009   0.00021   3.14114
   D87        3.11686  -0.00001  -0.00158  -0.00051  -0.00209   3.11477
   D88        0.01612  -0.00007  -0.00124  -0.00190  -0.00314   0.01298
   D89       -0.03585  -0.00000   0.00074   0.00056   0.00129  -0.03456
   D90       -3.13659  -0.00007   0.00108  -0.00084   0.00024  -3.13635
   D91       -3.12463   0.00002   0.00203   0.00175   0.00378  -3.12085
   D92        0.08591  -0.00001   0.00060  -0.00018   0.00041   0.08632
   D93        0.02754   0.00004  -0.00022   0.00080   0.00058   0.02813
   D94       -3.04510   0.00001  -0.00164  -0.00114  -0.00278  -3.04788
   D95        0.01156  -0.00003  -0.00066  -0.00119  -0.00185   0.00971
   D96       -3.09947   0.00001  -0.00100   0.00120   0.00020  -3.09927
   D97        3.11637   0.00001  -0.00092  -0.00001  -0.00094   3.11543
   D98        0.00534   0.00004  -0.00127   0.00238   0.00111   0.00645
   D99        3.11012   0.00001   0.00094  -0.00067   0.00027   3.11040
   D100       0.00718  -0.00004   0.00125  -0.00197  -0.00072   0.00647
   D101       0.00675  -0.00004  -0.00041  -0.00155  -0.00196   0.00480
   D102      -3.07239  -0.00012  -0.00081  -0.00463  -0.00543  -3.07782
   D103       3.08001   0.00003   0.00104   0.00055   0.00158   3.08159
   D104       0.00086  -0.00006   0.00064  -0.00253  -0.00189  -0.00103
   D105       0.02215   0.00002   0.00004   0.00048   0.00052   0.02267
   D106      -3.12916   0.00010   0.00096   0.00522   0.00618  -3.12298
   D107       3.13006  -0.00003   0.00042  -0.00219  -0.00178   3.12828
   D108      -0.02125   0.00005   0.00133   0.00255   0.00388  -0.01737
   D109      -0.01486  -0.00002   0.00055  -0.00143  -0.00087  -0.01574
   D110      -3.12465   0.00004   0.00019   0.00110   0.00130  -3.12335
   D111      -0.03166   0.00001   0.00048   0.00086   0.00134  -0.03032
   D112       3.11927  -0.00007  -0.00040  -0.00371  -0.00410   3.11516
   D113       3.04715   0.00007   0.00084   0.00384   0.00467   3.05183
   D114      -0.08511  -0.00002  -0.00004  -0.00073  -0.00077  -0.08588
   D115      -0.40030  -0.00009   0.00092  -0.00466  -0.00375  -0.40405
   D116       2.75528  -0.00000   0.00087   0.00008   0.00095   2.75623
   D117       2.73129  -0.00000   0.00186   0.00022   0.00208   2.73337
   D118      -0.39631   0.00008   0.00180   0.00497   0.00677  -0.38954
   D119      -0.01401   0.00002  -0.00082   0.00099   0.00017  -0.01384
   D120       0.01685   0.00000   0.00015   0.00028   0.00043   0.01728
   D121      -3.10833   0.00003  -0.00003   0.00164   0.00161  -3.10671
   D122       0.03300   0.00003   0.00000   0.00178   0.00179   0.03479
   D123       0.01978  -0.00006   0.00001  -0.00295  -0.00294   0.01684
   D124      -3.12208  -0.00006   0.00005  -0.00281  -0.00276  -3.12485
   D125       3.12285  -0.00003  -0.00057  -0.00188  -0.00245   3.12040
   D126      -0.06111  -0.00001  -0.00001  -0.00093  -0.00093  -0.06205
   D127      -0.00550   0.00004  -0.00062   0.00260   0.00198  -0.00352
   D128       3.09372   0.00007  -0.00005   0.00355   0.00350   3.09722
   D129      -0.01921   0.00004   0.00050   0.00146   0.00196  -0.01725
   D130       3.11961   0.00004   0.00032   0.00152   0.00184   3.12145
   D131       3.12265   0.00004   0.00047   0.00132   0.00179   3.12444
   D132      -0.02171   0.00004   0.00028   0.00138   0.00166  -0.02005
   D133      -0.00990  -0.00001   0.00073  -0.00073   0.00000  -0.00990
   D134       3.12808   0.00001   0.00066   0.00005   0.00072   3.12880
   D135      -3.10957  -0.00003   0.00015  -0.00167  -0.00151  -3.11108
   D136       0.02841  -0.00002   0.00008  -0.00088  -0.00080   0.02762
   D137       0.00344   0.00000  -0.00040   0.00051   0.00011   0.00355
   D138      -3.09720  -0.00002  -0.00042  -0.00081  -0.00123  -3.09843
   D139      -3.13538   0.00000  -0.00022   0.00046   0.00024  -3.13514
   D140       0.04717  -0.00002  -0.00024  -0.00087  -0.00110   0.04607
   D141       0.01101  -0.00002  -0.00021  -0.00088  -0.00108   0.00992
   D142       3.11183   0.00001  -0.00019   0.00044   0.00025   3.11208
   D143      -3.12698  -0.00003  -0.00014  -0.00166  -0.00180  -3.12878
   D144      -0.02616  -0.00001  -0.00012  -0.00034  -0.00046  -0.02662
   D145      -2.62625   0.00000  -0.00016   0.00019   0.00003  -2.62621
   D146      -0.56811   0.00001  -0.00014   0.00018   0.00004  -0.56807
   D147       1.54673   0.00001  -0.00013   0.00022   0.00008   1.54681
   D148       0.55766  -0.00002  -0.00017  -0.00118  -0.00135   0.55631
   D149       2.61580  -0.00001  -0.00016  -0.00118  -0.00134   2.61446
   D150      -1.55255  -0.00001  -0.00015  -0.00115  -0.00130  -1.55385
   D151      -0.98528   0.00000  -0.00012   0.00059   0.00047  -0.98481
   D152       1.03515  -0.00000  -0.00011   0.00048   0.00037   1.03553
   D153       3.09573   0.00000  -0.00010   0.00059   0.00049   3.09622
   D154      -3.12435   0.00000  -0.00009   0.00059   0.00049  -3.12386
   D155      -1.10392  -0.00000  -0.00008   0.00048   0.00040  -1.10352
   D156       0.95665   0.00000  -0.00007   0.00060   0.00052   0.95718
   D157       1.14015   0.00001  -0.00012   0.00063   0.00051   1.14066
   D158      -3.12261  -0.00000  -0.00011   0.00052   0.00042  -3.12219
   D159      -1.06203   0.00001  -0.00010   0.00064   0.00054  -1.06150
   D160       1.19957   0.00001   0.00039   0.00114   0.00153   1.20110
   D161      -3.06192   0.00002   0.00046   0.00137   0.00183  -3.06008
   D162      -0.94582   0.00001   0.00041   0.00116   0.00157  -0.94424
   D163       1.07588   0.00002   0.00049   0.00139   0.00188   1.07776
   D164      -3.01223   0.00001   0.00040   0.00122   0.00162  -3.01061
   D165      -0.99053   0.00002   0.00048   0.00144   0.00192  -0.98861
         Item               Value     Threshold  Converged?
 Maximum Force            0.001540     0.000450     NO 
 RMS     Force            0.000231     0.000300     YES
 Maximum Displacement     0.030927     0.001800     NO 
 RMS     Displacement     0.006986     0.001200     NO 
 Predicted change in Energy=-2.339059D-05
 Lowest energy point so far.  Saving SCF results.
 GradGradGradGradGradGradGradGradGradGradGradGradGradGradGradGradGradGrad

 Leave Link  103 at Thu Mar 14 09:43:22 2024, MaxMem= 32212254720 cpu:               4.1 elap:               0.2
 (Enter /home/<user>/g16/l202.exe)
 Stoichiometry    C29H25N3S
 Framework group  C1[X(C29H25N3S)]
 Deg. of freedom   168
 Full point group                 C1      NOp   1
 RotChk:  IX=0 Diff= 3.67D-03
 Largest Abelian subgroup         C1      NOp   1
 Largest concise Abelian subgroup C1      NOp   1
                         Standard orientation:                         
 ---------------------------------------------------------------------
 Center     Atomic      Atomic             Coordinates (Angstroms)
 Number     Number       Type             X           Y           Z
 ---------------------------------------------------------------------
      1          6           0       -2.448334    1.657952   -0.313082
      2          6           0       -1.767456    0.408871   -0.174480
      3          6           0       -2.563933   -0.762083    0.009359
      4          6           0       -3.937275   -0.680789    0.035592
      5          6           0       -4.589217    0.570359   -0.124573
      6          6           0       -3.829417    1.738002   -0.297684
      7          1           0       -1.849752    2.551794   -0.422976
      8          1           0       -2.080132   -1.719536    0.169513
      9          1           0       -4.314811    2.703008   -0.416751
     10          6           0       -4.958985   -1.801020    0.233691
     11          6           0       -6.268353   -1.018420    0.150340
     12          6           0       -7.571866   -1.484759    0.250929
     13          6           0       -8.631180   -0.574064    0.144062
     14          6           0       -8.387995    0.792347   -0.061739
     15          6           0       -7.085196    1.270939   -0.164225
     16          6           0       -6.021958    0.361351   -0.057889
     17          1           0       -7.777891   -2.540115    0.410957
     18          1           0       -9.654769   -0.930023    0.221783
     19          1           0       -9.224814    1.480400   -0.141333
     20          1           0       -6.896579    2.328984   -0.323468
     21          6           0       -4.795480   -2.476673    1.614297
     22          1           0       -5.575532   -3.230629    1.770162
     23          1           0       -3.824003   -2.978644    1.684785
     24          1           0       -4.860354   -1.743337    2.424190
     25          6           0       -4.863015   -2.859496   -0.888205
     26          1           0       -3.892959   -3.368185   -0.855256
     27          1           0       -5.644342   -3.619112   -0.771208
     28          1           0       -4.975432   -2.401418   -1.875965
     29          6           0       -0.313314    0.315841   -0.227276
     30          6           0        0.569241    1.430172   -0.005634
     31          6           0        0.298566   -0.931831   -0.521405
     32          6           0        1.999909    1.251240   -0.042424
     33          6           0        1.669463   -1.101631   -0.564949
     34          1           0       -0.326225   -1.778455   -0.781856
     35          6           0        2.575874   -0.041128   -0.312943
     36          1           0        2.058477   -2.070580   -0.855595
     37          7           0        0.168850    2.687126    0.290430
     38          7           0        2.713236    2.364506    0.232098
     39         16           0        1.583075    3.583477    0.497400
     40          6           0        4.015481   -0.295937   -0.342472
     41          6           0        4.965631    0.728228   -0.583960
     42          6           0        4.520642   -1.607725   -0.148494
     43          6           0        6.322827    0.443329   -0.645758
     44          1           0        4.614574    1.741992   -0.720353
     45          6           0        5.879271   -1.875829   -0.197149
     46          1           0        3.838132   -2.419253    0.080637
     47          6           0        6.814053   -0.857442   -0.453188
     48          1           0        7.022963    1.250302   -0.851648
     49          1           0        6.230254   -2.892144   -0.031687
     50          6           0        8.293934   -1.148512   -0.467450
     51          1           0        8.486482   -2.167963   -0.820623
     52          1           0        8.799578   -0.466216   -1.164778
     53          6           0        8.940306   -0.999910    0.924200
     54          1           0        8.739620    0.017922    1.303394
     55          1           0        8.451494   -1.693922    1.618631
     56          7           0       10.361403   -1.354337    0.859259
     57          1           0       10.864490   -0.650771    0.318999
     58          1           0       10.764576   -1.329077    1.794585
 ---------------------------------------------------------------------
 Rotational constants (GHZ):           0.3544168           0.0398824           0.0365290
 Leave Link  202 at Thu Mar 14 09:43:22 2024, MaxMem= 32212254720 cpu:               0.1 elap:               0.0
 (Enter /home/<user>/g16/l301.exe)
 Standard basis: 6-31G(d) (6D, 7F)
 Ernie: Thresh=  0.10000D-02 Tol=  0.10000D-05 Strict=F.
 There are   549 symmetry adapted cartesian basis functions of A   symmetry.
 There are   549 symmetry adapted basis functions of A   symmetry.
   549 basis functions,  1048 primitive gaussians,   549 cartesian basis functions
   118 alpha electrons      118 beta electrons
       nuclear repulsion energy      3077.7224962169 Hartrees.
 IExCor=  402 DFT=T Ex+Corr=B3LYP ExCW=0 ScaHFX=  0.200000
 ScaDFX=  0.800000  0.720000  1.000000  0.810000 ScalE2=  1.000000  1.000000
 IRadAn=      5 IRanWt=     -1 IRanGd=            0 ICorTp=0 IEmpDi=  4
 NAtoms=   58 NActive=   58 NUniq=   58 SFac= 1.00D+00 NAtFMM=   60 NAOKFM=F Big=F
 Integral buffers will be    131072 words long.
 Regular integral format.
 Two-electron integral symmetry is turned on.
 Leave Link  301 at Thu Mar 14 09:43:22 2024, MaxMem= 32212254720 cpu:               1.0 elap:               0.0
 (Enter /home/<user>/g16/l302.exe)
 NPDir=0 NMtPBC=     1 NCelOv=     1 NCel=       1 NClECP=     1 NCelD=      1
         NCelK=      1 NCelE2=     1 NClLst=     1 CellRange=     0.0.
 One-electron integrals computed using PRISM.
 One-electron integral symmetry used in STVInt
 NBasis=   549 RedAO= T EigKep=  2.68D-04  NBF=   549
 NBsUse=   549 1.00D-06 EigRej= -1.00D+00 NBFU=   549
 Precomputing XC quadrature grid using
 IXCGrd= 4 IRadAn=           5 IRanWt=          -1 IRanGd=           0 AccXCQ= 0.00D+00.
 Generated NRdTot=       0 NPtTot=           0 NUsed=           0 NTot=          32
 NSgBfM=   512   512   512   512   512 MxSgAt=    58 MxSgA2=    58.
 Leave Link  302 at Thu Mar 14 09:43:23 2024, MaxMem= 32212254720 cpu:              18.1 elap:               0.6
 (Enter /home/<user>/g16/l303.exe)
 DipDrv:  MaxL=1.
 Leave Link  303 at Thu Mar 14 09:43:23 2024, MaxMem= 32212254720 cpu:               1.8 elap:               0.1
 (Enter /home/<user>/g16/l308.exe)
 Leave Link  308 at Thu Mar 14 09:43:23 2024, MaxMem= 32212254720 cpu:               2.1 elap:               0.1
 (Enter /home/<user>/g16/l401.exe)
 Initial guess from the checkpoint file:  "FBTP_S1opt.chk"
 B after Tr=    -0.000000   -0.000000   -0.000000
         Rot=    1.000000   -0.000478    0.000023   -0.000110 Ang=  -0.06 deg.
 Guess basis will be translated and rotated to current coordinates.
 JPrj=2 DoOrth=T DoCkMO=T.
 Generating alternative initial guess.
 ExpMin= 1.17D-01 ExpMax= 2.19D+04 ExpMxC= 3.30D+03 IAcc=3 IRadAn=         5 AccDes= 0.00D+00
 Harris functional with IExCor=  402 and IRadAn=       5 diagonalized for initial guess.
 HarFok:  IExCor=  402 AccDes= 0.00D+00 IRadAn=         5 IDoV= 1 UseB2=F ITyADJ=14
 ICtDFT=  3500011 ScaDFX=  1.000000  1.000000  1.000000  1.000000
 FoFCou: FMM=F IPFlag=           0 FMFlag=      100000 FMFlg1=           0
         NFxFlg=           0 DoJE=T BraDBF=F KetDBF=T FulRan=T
         wScrn=  0.000000 ICntrl=       500 IOpCl=  0 I1Cent=   200000004 NGrid=           0
         NMat0=    1 NMatS0=      1 NMatT0=    0 NMatD0=    1 NMtDS0=    0 NMtDT0=    0
 Petite list used in FoFCou.
 Harris En= -1682.58262019689    
 Leave Link  401 at Thu Mar 14 09:43:25 2024, MaxMem= 32212254720 cpu:              52.0 elap:               1.7
 (Enter /home/<user>/g16/l502.exe)
 Integral symmetry usage will be decided dynamically.
 Closed shell SCF:
 Using DIIS extrapolation, IDIIS=  1040.
 NGot= 32212254720 LenX= 32211628124 LenY= 32211326174
 Requested convergence on RMS density matrix=1.00D-08 within 128 cycles.
 Requested convergence on MAX density matrix=1.00D-06.
 Requested convergence on             energy=1.00D-06.
 No special actions if energy rises.
 Fock matrices will be formed incrementally for  20 cycles.
 Integral accuracy reduced to 1.0D-05 until final iterations.

 Cycle   1  Pass 0  IDiag  1:
 FoFJK:  IHMeth= 1 ICntrl=       0 DoSepK=F KAlg= 0 I1Cent=           0 FoldK=F
 IRaf= 550000000 NMat=       1 IRICut=       1 DoRegI=T DoRafI=F ISym2E= 0 IDoP0=0 IntGTp=1.
 FoFCou: FMM=F IPFlag=           0 FMFlag=      100000 FMFlg1=           0
         NFxFlg=           0 DoJE=F BraDBF=F KetDBF=F FulRan=T
         wScrn=  0.000000 ICntrl=         0 IOpCl=  0 I1Cent=           0 NGrid=           0
         NMat0=    1 NMatS0=      1 NMatT0=    0 NMatD0=    1 NMtDS0=    0 NMtDT0=    0
 Symmetry not used in FoFCou.
 E= -1682.59436657559    
 DIIS: error= 2.55D-04 at cycle   1 NSaved=   1.
 NSaved= 1 IEnMin= 1 EnMin= -1682.59436657559     IErMin= 1 ErrMin= 2.55D-04
 ErrMax= 2.55D-04  0.00D+00 EMaxC= 1.00D-01 BMatC= 7.55D-05 BMatP= 7.55D-05
 IDIUse=3 WtCom= 9.97D-01 WtEn= 2.55D-03
 Coeff-Com:  0.100D+01
 Coeff-En:   0.100D+01
 Coeff:      0.100D+01
 Gap=     1.959 Goal=   None    Shift=    0.000
 RMSDP=7.07D-05 MaxDP=2.36D-03              OVMax= 1.80D-03

 Cycle   2  Pass 0  IDiag  1:
 RMSU=  7.07D-05    CP:  1.00D+00
 E= -1682.59449018711     Delta-E=       -0.000123611524 Rises=F Damp=F
 DIIS: error= 6.42D-05 at cycle   2 NSaved=   2.
 NSaved= 2 IEnMin= 2 EnMin= -1682.59449018711     IErMin= 2 ErrMin= 6.42D-05
 ErrMax= 6.42D-05  0.00D+00 EMaxC= 1.00D-01 BMatC= 2.77D-06 BMatP= 7.55D-05
 IDIUse=1 WtCom= 1.00D+00 WtEn= 0.00D+00
 Coeff-Com: -0.240D-01 0.102D+01
 Coeff:     -0.240D-01 0.102D+01
 Gap=     0.090 Goal=   None    Shift=    0.000
 RMSDP=9.08D-06 MaxDP=9.85D-04 DE=-1.24D-04 OVMax= 8.85D-04

 Initial convergence to 1.0D-05 achieved.  Increase integral accuracy.
 Cycle   3  Pass 1  IDiag  1:
 E= -1682.59453268791     Delta-E=       -0.000042500797 Rises=F Damp=F
 DIIS: error= 1.31D-04 at cycle   1 NSaved=   1.
 NSaved= 1 IEnMin= 1 EnMin= -1682.59453268791     IErMin= 1 ErrMin= 1.31D-04
 ErrMax= 1.31D-04  0.00D+00 EMaxC= 1.00D-01 BMatC= 1.16D-05 BMatP= 1.16D-05
 IDIUse=3 WtCom= 9.99D-01 WtEn= 1.31D-03
 Coeff-Com:  0.100D+01
 Coeff-En:   0.100D+01
 Coeff:      0.100D+01
 Gap=     0.090 Goal=   None    Shift=    0.000
 RMSDP=9.08D-06 MaxDP=9.85D-04 DE=-4.25D-05 OVMax= 2.30D-03

 Cycle   4  Pass 1  IDiag  1:
 RMSU=  6.36D-05    CP:  1.00D+00
 E= -1682.59449294282     Delta-E=        0.000039745082 Rises=F Damp=F
 DIIS: error= 2.92D-04 at cycle   2 NSaved=   2.
 NSaved= 2 IEnMin= 1 EnMin= -1682.59453268791     IErMin= 1 ErrMin= 1.31D-04
 ErrMax= 2.92D-04  0.00D+00 EMaxC= 1.00D-01 BMatC= 5.33D-05 BMatP= 1.16D-05
 IDIUse=3 WtCom= 3.69D-01 WtEn= 6.31D-01
 Coeff-Com:  0.694D+00 0.306D+00
 Coeff-En:   0.784D+00 0.216D+00
 Coeff:      0.751D+00 0.249D+00
 Gap=     0.090 Goal=   None    Shift=    0.000
 RMSDP=1.33D-05 MaxDP=1.62D-03 DE= 3.97D-05 OVMax= 2.02D-03

 Cycle   5  Pass 1  IDiag  1:
 RMSU=  1.30D-05    CP:  1.00D+00  9.51D-01
 E= -1682.59454139644     Delta-E=       -0.000048453614 Rises=F Damp=F
 DIIS: error= 4.90D-05 at cycle   3 NSaved=   3.
 NSaved= 3 IEnMin= 3 EnMin= -1682.59454139644     IErMin= 3 ErrMin= 4.90D-05
 ErrMax= 4.90D-05  0.00D+00 EMaxC= 1.00D-01 BMatC= 1.90D-06 BMatP= 1.16D-05
 IDIUse=1 WtCom= 1.00D+00 WtEn= 0.00D+00
 Coeff-Com:  0.373D+00 0.118D+00 0.509D+00
 Coeff:      0.373D+00 0.118D+00 0.509D+00
 Gap=     0.090 Goal=   None    Shift=    0.000
 RMSDP=4.26D-06 MaxDP=4.34D-04 DE=-4.85D-05 OVMax= 5.82D-04

 Cycle   6  Pass 1  IDiag  1:
 RMSU=  4.25D-06    CP:  1.00D+00  9.52D-01  1.02D+00
 E= -1682.59454245985     Delta-E=       -0.000001063413 Rises=F Damp=F
 DIIS: error= 2.82D-05 at cycle   4 NSaved=   4.
 NSaved= 4 IEnMin= 4 EnMin= -1682.59454245985     IErMin= 4 ErrMin= 2.82D-05
 ErrMax= 2.82D-05  0.00D+00 EMaxC= 1.00D-01 BMatC= 6.91D-07 BMatP= 1.90D-06
 IDIUse=1 WtCom= 1.00D+00 WtEn= 0.00D+00
 Coeff-Com:  0.969D-02-0.339D-01 0.409D+00 0.615D+00
 Coeff:      0.969D-02-0.339D-01 0.409D+00 0.615D+00
 Gap=     0.090 Goal=   None    Shift=    0.000
 RMSDP=1.86D-06 MaxDP=1.85D-04 DE=-1.06D-06 OVMax= 3.03D-04

 Cycle   7  Pass 1  IDiag  1:
 RMSU=  6.73D-07    CP:  1.00D+00  9.55D-01  1.06D+00  6.12D-01
 E= -1682.59454310133     Delta-E=       -0.000000641482 Rises=F Damp=F
 DIIS: error= 5.20D-06 at cycle   5 NSaved=   5.
 NSaved= 5 IEnMin= 5 EnMin= -1682.59454310133     IErMin= 5 ErrMin= 5.20D-06
 ErrMax= 5.20D-06  0.00D+00 EMaxC= 1.00D-01 BMatC= 3.20D-08 BMatP= 6.91D-07
 IDIUse=1 WtCom= 1.00D+00 WtEn= 0.00D+00
 Coeff-Com: -0.171D-02-0.248D-01 0.256D+00 0.404D+00 0.366D+00
 Coeff:     -0.171D-02-0.248D-01 0.256D+00 0.404D+00 0.366D+00
 Gap=     0.090 Goal=   None    Shift=    0.000
 RMSDP=4.38D-07 MaxDP=3.30D-05 DE=-6.41D-07 OVMax= 8.33D-05

 Cycle   8  Pass 1  IDiag  1:
 RMSU=  1.43D-07    CP:  1.00D+00  9.55D-01  1.06D+00  6.30D-01  3.96D-01
 E= -1682.59454313825     Delta-E=       -0.000000036915 Rises=F Damp=F
 DIIS: error= 6.71D-07 at cycle   6 NSaved=   6.
 NSaved= 6 IEnMin= 6 EnMin= -1682.59454313825     IErMin= 6 ErrMin= 6.71D-07
 ErrMax= 6.71D-07  0.00D+00 EMaxC= 1.00D-01 BMatC= 6.23D-10 BMatP= 3.20D-08
 IDIUse=1 WtCom= 1.00D+00 WtEn= 0.00D+00
 Coeff-Com: -0.140D-02-0.127D-01 0.128D+00 0.203D+00 0.204D+00 0.478D+00
 Coeff:     -0.140D-02-0.127D-01 0.128D+00 0.203D+00 0.204D+00 0.478D+00
 Gap=     0.090 Goal=   None    Shift=    0.000
 RMSDP=7.21D-08 MaxDP=8.35D-06 DE=-3.69D-08 OVMax= 1.23D-05

 Cycle   9  Pass 1  IDiag  1:
 RMSU=  4.53D-08    CP:  1.00D+00  9.55D-01  1.06D+00  6.31D-01  4.20D-01
                    CP:  6.25D-01
 E= -1682.59454313875     Delta-E=       -0.000000000502 Rises=F Damp=F
 DIIS: error= 2.65D-07 at cycle   7 NSaved=   7.
 NSaved= 7 IEnMin= 7 EnMin= -1682.59454313875     IErMin= 7 ErrMin= 2.65D-07
 ErrMax= 2.65D-07  0.00D+00 EMaxC= 1.00D-01 BMatC= 5.95D-11 BMatP= 6.23D-10
 IDIUse=1 WtCom= 1.00D+00 WtEn= 0.00D+00
 Coeff-Com: -0.694D-03-0.555D-02 0.556D-01 0.885D-01 0.912D-01 0.289D+00
 Coeff-Com:  0.481D+00
 Coeff:     -0.694D-03-0.555D-02 0.556D-01 0.885D-01 0.912D-01 0.289D+00
 Coeff:      0.481D+00
 Gap=     0.090 Goal=   None    Shift=    0.000
 RMSDP=2.21D-08 MaxDP=1.28D-06 DE=-5.02D-10 OVMax= 2.70D-06

 Cycle  10  Pass 1  IDiag  1:
 RMSU=  1.65D-08    CP:  1.00D+00  9.55D-01  1.06D+00  6.31D-01  4.11D-01
                    CP:  6.63D-01  7.31D-01
 E= -1682.59454313893     Delta-E=       -0.000000000178 Rises=F Damp=F
 DIIS: error= 7.93D-08 at cycle   8 NSaved=   8.
 NSaved= 8 IEnMin= 8 EnMin= -1682.59454313893     IErMin= 8 ErrMin= 7.93D-08
 ErrMax= 7.93D-08  0.00D+00 EMaxC= 1.00D-01 BMatC= 5.45D-12 BMatP= 5.95D-11
 IDIUse=1 WtCom= 1.00D+00 WtEn= 0.00D+00
 Coeff-Com: -0.233D-03-0.171D-02 0.169D-01 0.270D-01 0.284D-01 0.111D+00
 Coeff-Com:  0.278D+00 0.540D+00
 Coeff:     -0.233D-03-0.171D-02 0.169D-01 0.270D-01 0.284D-01 0.111D+00
 Coeff:      0.278D+00 0.540D+00
 Gap=     0.090 Goal=   None    Shift=    0.000
 RMSDP=7.69D-09 MaxDP=4.34D-07 DE=-1.78D-10 OVMax= 1.06D-06

 SCF Done:  E(RB3LYP) =  -1682.59454314     A.U. after   10 cycles
            NFock= 10  Conv=0.77D-08     -V/T= 2.0083
 KE= 1.668727531201D+03 PE=-1.007715035220D+04 EE= 3.648105781642D+03
 Leave Link  502 at Thu Mar 14 09:43:43 2024, MaxMem= 32212254720 cpu:             535.3 elap:              17.9
 (Enter /home/<user>/g16/l801.exe)
 DoSCS=F DFT=T ScalE2(SS,OS)=  1.000000  1.000000
 ExpMin= 1.17D-01 ExpMax= 2.19D+04 ExpMxC= 3.30D+03 IAcc=3 IRadAn=         5 AccDes= 0.00D+00
 HarFok:  IExCor=  205 AccDes= 0.00D+00 IRadAn=         5 IDoV=-2 UseB2=F ITyADJ=14
 ICtDFT= 12500011 ScaDFX=  1.000000  1.000000  1.000000  1.000000
 GSVD:  LWork=       -1665 too small for GESVD, short by        7400 words or        7400 for optimal perf.
 Largest valence mixing into a core orbital is  1.10D-04
 Largest core mixing into a valence orbital is  2.82D-05
 Range of M.O.s used for correlation:    38   549
 NBasis=   549 NAE=   118 NBE=   118 NFC=    37 NFV=     0
 NROrb=    512 NOA=    81 NOB=    81 NVA=   431 NVB=   431

 **** Warning!!: The smallest alpha delta epsilon is  0.90021287D-01

 Leave Link  801 at Thu Mar 14 09:43:43 2024, MaxMem= 32212254720 cpu:               2.7 elap:               0.1
 (Enter /home/<user>/g16/l914.exe)
 RHF ground state
 Two-electron integrals replicated using symmetry.
 MDV= 32212254720 DFT=T DoStab=F Mixed=T DoRPA=T DoScal=F NonHer=T
 Making orbital integer symmetry assigments:
 Orbital symmetries:
       Occupied  (A) (A) (A) (A) (A) (A) (A) (A) (A) (A) (A) (A)
                 (A) (A) (A) (A) (A) (A) (A) (A) (A) (A) (A) (A)
                 (A) (A) (A) (A) (A) (A) (A) (A) (A) (A) (A) (A)
                 (A) (A) (A) (A) (A) (A) (A) (A) (A) (A) (A) (A)
                 (A) (A) (A) (A) (A) (A) (A) (A) (A) (A) (A) (A)
                 (A) (A) (A) (A) (A) (A) (A) (A) (A) (A) (A) (A)
                 (A) (A) (A) (A) (A) (A) (A) (A) (A) (A) (A) (A)
                 (A) (A) (A) (A) (A) (A) (A) (A) (A) (A) (A) (A)
                 (A) (A) (A) (A) (A) (A) (A) (A) (A) (A) (A) (A)
                 (A) (A) (A) (A) (A) (A) (A) (A) (A) (A)
       Virtual   (A) (A) (A) (A) (A) (A) (A) (A) (A) (A) (A) (A)
                 (A) (A) (A) (A) (A) (A) (A) (A) (A) (A) (A) (A)
                 (A) (A) (A) (A) (A) (A) (A) (A) (A) (A) (A) (A)
                 (A) (A) (A) (A) (A) (A) (A) (A) (A) (A) (A) (A)
                 (A) (A) (A) (A) (A) (A) (A) (A) (A) (A) (A) (A)
                 (A) (A) (A) (A) (A) (A) (A) (A) (A) (A) (A) (A)
                 (A) (A) (A) (A) (A) (A) (A) (A) (A) (A) (A) (A)
                 (A) (A) (A) (A) (A) (A) (A) (A) (A) (A) (A) (A)
                 (A) (A) (A) (A) (A) (A) (A) (A) (A) (A) (A) (A)
                 (A) (A) (A) (A) (A) (A) (A) (A) (A) (A) (A) (A)
                 (A) (A) (A) (A) (A) (A) (A) (A) (A) (A) (A) (A)
                 (A) (A) (A) (A) (A) (A) (A) (A) (A) (A) (A) (A)
                 (A) (A) (A) (A) (A) (A) (A) (A) (A) (A) (A) (A)
                 (A) (A) (A) (A) (A) (A) (A) (A) (A) (A) (A) (A)
                 (A) (A) (A) (A) (A) (A) (A) (A) (A) (A) (A) (A)
                 (A) (A) (A) (A) (A) (A) (A) (A) (A) (A) (A) (A)
                 (A) (A) (A) (A) (A) (A) (A) (A) (A) (A) (A) (A)
                 (A) (A) (A) (A) (A) (A) (A) (A) (A) (A) (A) (A)
                 (A) (A) (A) (A) (A) (A) (A) (A) (A) (A) (A) (A)
                 (A) (A) (A) (A) (A) (A) (A) (A) (A) (A) (A) (A)
                 (A) (A) (A) (A) (A) (A) (A) (A) (A) (A) (A) (A)
                 (A) (A) (A) (A) (A) (A) (A) (A) (A) (A) (A) (A)
                 (A) (A) (A) (A) (A) (A) (A) (A) (A) (A) (A) (A)
                 (A) (A) (A) (A) (A) (A) (A) (A) (A) (A) (A) (A)
                 (A) (A) (A) (A) (A) (A) (A) (A) (A) (A) (A) (A)
                 (A) (A) (A) (A) (A) (A) (A) (A) (A) (A) (A) (A)
                 (A) (A) (A) (A) (A) (A) (A) (A) (A) (A) (A) (A)
                 (A) (A) (A) (A) (A) (A) (A) (A) (A) (A) (A) (A)
                 (A) (A) (A) (A) (A) (A) (A) (A) (A) (A) (A) (A)
                 (A) (A) (A) (A) (A) (A) (A) (A) (A) (A) (A) (A)
                 (A) (A) (A) (A) (A) (A) (A) (A) (A) (A) (A) (A)
                 (A) (A) (A) (A) (A) (A) (A) (A) (A) (A) (A) (A)
                 (A) (A) (A) (A) (A) (A) (A) (A) (A) (A) (A) (A)
                 (A) (A) (A) (A) (A) (A) (A) (A) (A) (A) (A) (A)
                 (A) (A) (A) (A) (A) (A) (A) (A) (A) (A) (A) (A)
                 (A) (A) (A) (A) (A) (A) (A) (A) (A) (A) (A)
 Generating guess from densities on rwf.
 Convergence on wavefunction:    0.000001000000000
 Davidson Disk Diagonalization:  ConvIn= 1.00D-06 SkipCon=T Conv= 1.00D-06.
 Max sub-space:  2000 roots to seek:     3 dimension of matrix:        69822
 Iteration     1 Dimension     6 NMult     0 NNew      6
 CISAX will form     6 AO SS matrices at one time.
 NMat=     6 NSing=     6 JSym2X= 0.
 FoFJK:  IHMeth= 1 ICntrl=       0 DoSepK=F KAlg= 0 I1Cent=           0 FoldK=F
 IRaf= 550000000 NMat=      12 IRICut=       1 DoRegI=T DoRafI=F ISym2E= 0 IDoP0=0 IntGTp=1.
 FoFCou: FMM=F IPFlag=           0 FMFlag=      100000 FMFlg1=           0
         NFxFlg=           0 DoJE=F BraDBF=F KetDBF=F FulRan=T
         wScrn=  0.000000 ICntrl=         0 IOpCl=  0 I1Cent=           0 NGrid=           0
         NMat0=   12 NMatS0=      6 NMatT0=    0 NMatD0=   12 NMtDS0=    0 NMtDT0=    0
 Symmetry not used in FoFCou.
 Excitation Energies [eV] at current iteration:
 Root      1 :     2.072423415976393
 Root      2 :     2.977264304487103
 Root      3 :     3.325013912265211
 Iteration     2 Dimension    12 NMult     6 NNew      6
 CISAX will form     6 AO SS matrices at one time.
 NMat=     6 NSing=     6 JSym2X= 0.
 Root      1 not converged, maximum delta is    0.000929054733696
 Root      2 not converged, maximum delta is    0.000974364049999
 Root      3 not converged, maximum delta is    0.001209755261043
 Excitation Energies [eV] at current iteration:
 Root      1 :     2.072263865030811   Change is   -0.000159550945582
 Root      2 :     2.977136206533678   Change is   -0.000128097953424
 Root      3 :     3.324938776316659   Change is   -0.000075135948552
 Iteration     3 Dimension    18 NMult    12 NNew      6
 CISAX will form     6 AO SS matrices at one time.
 NMat=     6 NSing=     6 JSym2X= 0.
 Root      1 not converged, maximum delta is    0.000214396702049
 Root      2 not converged, maximum delta is    0.000318149577089
 Root      3 not converged, maximum delta is    0.001440168478784
 Excitation Energies [eV] at current iteration:
 Root      1 :     2.072261716965470   Change is   -0.000002148065341
 Root      2 :     2.977134268762824   Change is   -0.000001937770854
 Root      3 :     3.324935904819289   Change is   -0.000002871497370
 Iteration     4 Dimension    24 NMult    18 NNew      6
 CISAX will form     6 AO SS matrices at one time.
 NMat=     6 NSing=     6 JSym2X= 0.
 Root      1 not converged, maximum delta is    0.000047229859249
 Root      2 not converged, maximum delta is    0.000107714735962
 Root      3 not converged, maximum delta is    0.001012533929574
 Excitation Energies [eV] at current iteration:
 Root      1 :     2.072261473305859   Change is   -0.000000243659611
 Root      2 :     2.977134029200097   Change is   -0.000000239562727
 Root      3 :     3.324934891132712   Change is   -0.000001013686577
 Iteration     5 Dimension    30 NMult    24 NNew      6
 CISAX will form     6 AO SS matrices at one time.
 NMat=     6 NSing=     6 JSym2X= 0.
 Root      1 not converged, maximum delta is    0.000017166104857
 Root      2 not converged, maximum delta is    0.000054584839856
 Root      3 not converged, maximum delta is    0.000407824849005
 Excitation Energies [eV] at current iteration:
 Root      1 :     2.072261445753432   Change is   -0.000000027552427
 Root      2 :     2.977133985946586   Change is   -0.000000043253510
 Root      3 :     3.324934590219582   Change is   -0.000000300913130
 Iteration     6 Dimension    36 NMult    30 NNew      6
 CISAX will form     6 AO SS matrices at one time.
 NMat=     6 NSing=     6 JSym2X= 0.
 Root      1 not converged, maximum delta is    0.000003328382652
 Root      2 not converged, maximum delta is    0.000028300820893
 Root      3 not converged, maximum delta is    0.000148146052182
 Excitation Energies [eV] at current iteration:
 Root      1 :     2.072261441415827   Change is   -0.000000004337605
 Root      2 :     2.977133978387452   Change is   -0.000000007559134
 Root      3 :     3.324934507320856   Change is   -0.000000082898727
 Iteration     7 Dimension    42 NMult    36 NNew      6
 CISAX will form     6 AO SS matrices at one time.
 NMat=     6 NSing=     6 JSym2X= 0.
 Root      1 has converged.
 Root      2 not converged, maximum delta is    0.000012611939244
 Root      3 not converged, maximum delta is    0.000237104291272
 Excitation Energies [eV] at current iteration:
 Root      1 :     2.072261440921573   Change is   -0.000000000494254
 Root      2 :     2.977133977227100   Change is   -0.000000001160352
 Root      3 :     3.324934468606757   Change is   -0.000000038714099
 Iteration     8 Dimension    46 NMult    42 NNew      4
 CISAX will form     4 AO SS matrices at one time.
 NMat=     4 NSing=     4 JSym2X= 0.
 Root      1 has converged.
 Root      2 not converged, maximum delta is    0.000001729257824
 Root      3 not converged, maximum delta is    0.000099131578491
 Excitation Energies [eV] at current iteration:
 Root      1 :     2.072261440918676   Change is   -0.000000000002896
 Root      2 :     2.977133977092377   Change is   -0.000000000134724
 Root      3 :     3.324934456933084   Change is   -0.000000011673673
 Iteration     9 Dimension    50 NMult    46 NNew      4
 CISAX will form     4 AO SS matrices at one time.
 NMat=     4 NSing=     4 JSym2X= 0.
 Root      1 has converged.
 Root      2 has converged.
 Root      3 not converged, maximum delta is    0.000019546917828
 Excitation Energies [eV] at current iteration:
 Root      1 :     2.072261440918280   Change is   -0.000000000000397
 Root      2 :     2.977133977073517   Change is   -0.000000000018859
 Root      3 :     3.324934455088163   Change is   -0.000000001844921
 Iteration    10 Dimension    52 NMult    50 NNew      2
 CISAX will form     2 AO SS matrices at one time.
 NMat=     2 NSing=     2 JSym2X= 0.
 Root      1 has converged.
 Root      2 has converged.
 Root      3 not converged, maximum delta is    0.000003355576489
 Excitation Energies [eV] at current iteration:
 Root      1 :     2.072261440914709   Change is   -0.000000000003571
 Root      2 :     2.977133977072716   Change is   -0.000000000000801
 Root      3 :     3.324934454865815   Change is   -0.000000000222348
 Iteration    11 Dimension    54 NMult    52 NNew      2
 CISAX will form     2 AO SS matrices at one time.
 NMat=     2 NSing=     2 JSym2X= 0.
 Root      1 has converged.
 Root      2 has converged.
 Root      3 has converged.
 Excitation Energies [eV] at current iteration:
 Root      1 :     2.072261440913202   Change is   -0.000000000001508
 Root      2 :     2.977133977072523   Change is   -0.000000000000193
 Root      3 :     3.324934454834859   Change is   -0.000000000030955
 Convergence achieved on expansion vectors.
 ***********************************************************************
 Excited states from <AA,BB:AA,BB> singles matrix:
 ***********************************************************************
 
 1PDM for each excited state written to RWF  633
 Ground to excited state transition densities written to RWF  633
 Ground to excited state transition electric dipole moments (Au):
       state          X           Y           Z        Dip. S.      Osc.
         1        -2.6967      0.0863      0.0540      7.2827      0.3697
         2         0.1804     -0.3097     -0.0148      0.1287      0.0094
         3         0.0585      0.0336      0.0062      0.0046      0.0004
 Ground to excited state transition velocity dipole moments (Au):
       state          X           Y           Z        Dip. S.      Osc.
         1         0.2090     -0.0061     -0.0042      0.0437      0.3829
         2        -0.0218      0.0381      0.0023      0.0019      0.0117
         3        -0.0055     -0.0053     -0.0005      0.0001      0.0003
 Ground to excited state transition magnetic dipole moments (Au):
       state          X           Y           Z
         1        -0.0148     -0.1603     -0.0395
         2         0.0048      0.0388     -0.1022
         3        -0.0139     -0.0308     -0.1806
 Ground to excited state transition velocity quadrupole moments (Au):
       state          XX          YY          ZZ          XY          XZ          YZ
         1         0.0310      0.0089      0.0052     -0.1241     -0.0343      0.0196
         2        -1.9387      0.2056      0.0007      0.1893      0.0373      0.0518
         3         0.0019      0.0175     -0.0074     -0.0540     -0.0161      0.0042
 <0|del|b> * <b|rxdel|0> + <0|del|b> * <b|delr+rdel|0>
 Rotatory Strengths (R) in cgs (10**-40 erg-esu-cm/Gauss)
       state          XX          YY          ZZ    R(velocity)    E-M Angle
         1         6.7682      2.9976    -27.8097     -6.0146       93.21
         2         0.8246     -6.1247     12.6579      2.4526       76.30
         3         0.5888      0.3507      1.0089      0.6494       76.18
 1/2[<0|r|b>*<b|rxdel|0> + (<0|rxdel|b>*<b|r|0>)*]
 Rotatory Strengths (R) in cgs (10**-40 erg-esu-cm/Gauss)
       state          XX          YY          ZZ     R(length)
         1       -28.1480      9.7793      1.5095     -5.6197
         2        -0.6164      8.4908     -1.0713      2.2677
         3         0.5742      0.7320      0.7963      0.7008
  1/2[<0|del|b>*<b|r|0> + (<0|r|b>*<b|del|0>)*] (Au)
       state          X           Y           Z        Dip. S.   Osc.(frdel)
         1        -0.5636     -0.0005     -0.0002      0.5644      0.3763
         2        -0.0039     -0.0118     -0.0000      0.0158      0.0105
         3        -0.0003     -0.0002     -0.0000      0.0005      0.0003

 Excitation energies and oscillator strengths:
 
 Excited State   1:      Singlet-A      2.0723 eV  598.30 nm  f=0.3697  <S**2>=0.000
     118 ->119         0.70185
 This state for optimization and/or second-order correction.
 Total Energy, E(TD-HF/TD-DFT) =  -1682.51838893    
 Copying the excited state density for this state as the 1-particle RhoCI density.
 
 Excited State   2:      Singlet-A      2.9771 eV  416.45 nm  f=0.0094  <S**2>=0.000
     117 ->119        -0.69759
 
 Excited State   3:      Singlet-A      3.3249 eV  372.89 nm  f=0.0004  <S**2>=0.000
     113 ->119         0.17051
     116 ->119         0.68009
 SavETr:  write IOETrn=   770 NScale= 10 NData=  16 NLR=1 NState=    3 LETran=      64.
 The selected state is a singlet.
 CISGrd: IGrad=2 NXY=2 DFT=T
 CISAX will form     1 AO SS matrices at one time.
 NMat=     1 NSing=     1 JSym2X= 0.
 Leave Link  914 at Thu Mar 14 09:45:58 2024, MaxMem= 32212254720 cpu:            4052.2 elap:             135.1
 (Enter /home/<user>/g16/l1002.exe)
 Minotr:  Closed shell wavefunction.
          Computing CIS/TDA/TD derivatives.
          Using Z-Vector for PSCF gradient.
          Skipping F1 and S1 gradient terms here.
          IDoAtm=11111111111111111111111111111111111111111111111111
          IDoAtm=11111111
          Frozen-core window.
          Direct CPHF calculation.
          Differentiating once with respect to electric field.
                with respect to dipole field.
          Differentiating once with respect to nuclear coordinates.
          Requested convergence is 1.0D-10 RMS, and 1.0D-09 maximum.
          NewPWx=F KeepS1=T KeepF1=T KeepIn=T MapXYZ=F SortEE=F KeepMc=T.
 Two-electron integral symmetry used by symmetrizing perturbed Fock matrices.
          MDV=   32212254720 using IRadAn=       5.
          Solving linear equations separately, MaxMat=     360.
          There are     1 degrees of freedom in the 1st order CPHF.  IDoFFX=0 NUNeed=     1.
 FoFJK:  IHMeth= 1 ICntrl=       0 DoSepK=F KAlg= 0 I1Cent=           0 FoldK=F
 IRaf= 580000000 NMat=       1 IRICut=       1 DoRegI=T DoRafI=F ISym2E=-1 IDoP0=0 IntGTp=1.
 FoFCou: FMM=F IPFlag=           0 FMFlag=      100000 FMFlg1=           0
         NFxFlg=           0 DoJE=F BraDBF=F KetDBF=F FulRan=T
         wScrn=  0.000000 ICntrl=         0 IOpCl=  0 I1Cent=           0 NGrid=           0
         NMat0=    1 NMatS0=      1 NMatT0=    0 NMatD0=    1 NMtDS0=    0 NMtDT0=    0
 Petite list used in FoFCou.
 LinEq1:  Iter=  0 NonCon=     1 RMS=6.32D-03 Max=7.03D-01 NDo=     1
 AX will form     1 AO Fock derivatives at one time.
 LinEq1:  Iter=  1 NonCon=     1 RMS=3.84D-03 Max=5.24D-01 NDo=     1
 LinEq1:  Iter=  2 NonCon=     1 RMS=3.16D-03 Max=3.95D-01 NDo=     1
 LinEq1:  Iter=  3 NonCon=     1 RMS=2.92D-03 Max=2.37D-01 NDo=     1
 LinEq1:  Iter=  4 NonCon=     1 RMS=2.67D-03 Max=2.04D-01 NDo=     1
 LinEq1:  Iter=  5 NonCon=     1 RMS=1.74D-03 Max=9.78D-02 NDo=     1
 LinEq1:  Iter=  6 NonCon=     1 RMS=1.14D-03 Max=5.25D-02 NDo=     1
 LinEq1:  Iter=  7 NonCon=     1 RMS=7.98D-04 Max=3.16D-02 NDo=     1
 LinEq1:  Iter=  8 NonCon=     1 RMS=5.82D-04 Max=3.46D-02 NDo=     1
 LinEq1:  Iter=  9 NonCon=     1 RMS=4.27D-04 Max=2.11D-02 NDo=     1
 LinEq1:  Iter= 10 NonCon=     1 RMS=2.70D-04 Max=1.26D-02 NDo=     1
 LinEq1:  Iter= 11 NonCon=     1 RMS=1.75D-04 Max=7.65D-03 NDo=     1
 LinEq1:  Iter= 12 NonCon=     1 RMS=1.15D-04 Max=6.44D-03 NDo=     1
 LinEq1:  Iter= 13 NonCon=     1 RMS=8.58D-05 Max=4.42D-03 NDo=     1
 LinEq1:  Iter= 14 NonCon=     1 RMS=5.65D-05 Max=2.11D-03 NDo=     1
 LinEq1:  Iter= 15 NonCon=     1 RMS=3.79D-05 Max=2.42D-03 NDo=     1
 LinEq1:  Iter= 16 NonCon=     1 RMS=1.87D-05 Max=1.24D-03 NDo=     1
 LinEq1:  Iter= 17 NonCon=     1 RMS=1.22D-05 Max=4.94D-04 NDo=     1
 LinEq1:  Iter= 18 NonCon=     1 RMS=6.90D-06 Max=4.22D-04 NDo=     1
 LinEq1:  Iter= 19 NonCon=     1 RMS=3.69D-06 Max=2.19D-04 NDo=     1
 LinEq1:  Iter= 20 NonCon=     1 RMS=2.01D-06 Max=9.78D-05 NDo=     1
 LinEq1:  Iter= 21 NonCon=     1 RMS=1.42D-06 Max=5.89D-05 NDo=     1
 LinEq1:  Iter= 22 NonCon=     1 RMS=7.84D-07 Max=3.91D-05 NDo=     1
 LinEq1:  Iter= 23 NonCon=     1 RMS=4.68D-07 Max=1.98D-05 NDo=     1
 LinEq1:  Iter= 24 NonCon=     1 RMS=2.50D-07 Max=1.11D-05 NDo=     1
 LinEq1:  Iter= 25 NonCon=     1 RMS=1.63D-07 Max=5.83D-06 NDo=     1
 LinEq1:  Iter= 26 NonCon=     1 RMS=7.43D-08 Max=3.07D-06 NDo=     1
 LinEq1:  Iter= 27 NonCon=     1 RMS=4.17D-08 Max=1.71D-06 NDo=     1
 LinEq1:  Iter= 28 NonCon=     1 RMS=2.15D-08 Max=6.88D-07 NDo=     1
 LinEq1:  Iter= 29 NonCon=     1 RMS=9.58D-09 Max=4.11D-07 NDo=     1
 LinEq1:  Iter= 30 NonCon=     1 RMS=5.58D-09 Max=2.44D-07 NDo=     1
 LinEq1:  Iter= 31 NonCon=     1 RMS=3.00D-09 Max=1.12D-07 NDo=     1
 LinEq1:  Iter= 32 NonCon=     1 RMS=1.64D-09 Max=6.42D-08 NDo=     1
 LinEq1:  Iter= 33 NonCon=     1 RMS=9.48D-10 Max=3.97D-08 NDo=     1
 LinEq1:  Iter= 34 NonCon=     1 RMS=5.22D-10 Max=1.99D-08 NDo=     1
 LinEq1:  Iter= 35 NonCon=     1 RMS=2.94D-10 Max=1.24D-08 NDo=     1
 LinEq1:  Iter= 36 NonCon=     1 RMS=1.34D-10 Max=4.52D-09 NDo=     1
 LinEq1:  Iter= 37 NonCon=     1 RMS=6.83D-11 Max=2.09D-09 NDo=     1
 LinEq1:  Iter= 38 NonCon=     0 RMS=2.72D-11 Max=7.21D-10 NDo=     1
 Linear equations converged to 1.000D-10 1.000D-09 after    38 iterations.
 End of Minotr F.D. properties file   721 does not exist.
 End of Minotr F.D. properties file   722 does not exist.
 End of Minotr F.D. properties file   788 does not exist.
 Leave Link 1002 at Thu Mar 14 09:47:35 2024, MaxMem= 32212254720 cpu:            2874.1 elap:              96.8
 (Enter /home/<user>/g16/l701.exe)
 ... and contract with generalized density number  6.
 Compute integral first derivatives.
 Leave Link  701 at Thu Mar 14 09:47:36 2024, MaxMem= 32212254720 cpu:               6.8 elap:               0.2
 (Enter /home/<user>/g16/l702.exe)
 L702 exits ... SP integral derivatives will be done elsewhere.
 Leave Link  702 at Thu Mar 14 09:47:36 2024, MaxMem= 32212254720 cpu:               1.0 elap:               0.0
 (Enter /home/<user>/g16/l703.exe)
 Integral derivatives from FoFJK, PRISM(SPDF).
 Compute integral first derivatives, UseDBF=F ICtDFT=           0.
 Calling FoFJK, ICntrl=  10005127 FMM=F ISym2X=0 I1Cent= 0 IOpClX= 0 NMat=1 NMatS=1 NMatT=0.
 FoFJK:  IHMeth= 1 ICntrl=10005127 DoSepK=F KAlg= 0 I1Cent=           0 FoldK=F
 IRaf=         0 NMat=       1 IRICut=       1 DoRegI=T DoRafI=F ISym2E= 0 IDoP0=0 IntGTp=1.
 FoFCou: FMM=F IPFlag=           0 FMFlag=      100000 FMFlg1=         800
         NFxFlg=           0 DoJE=F BraDBF=F KetDBF=F FulRan=T
         wScrn=  0.000000 ICntrl=  10005127 IOpCl=  0 I1Cent=           0 NGrid=           0
         NMat0=    1 NMatS0=      1 NMatT0=    0 NMatD0=    1 NMtDS0=    0 NMtDT0=    0
 Symmetry not used in FoFCou.
 Leave Link  703 at Thu Mar 14 09:47:44 2024, MaxMem= 32212254720 cpu:             267.0 elap:               8.9
 (Enter /home/<user>/g16/l716.exe)
 Dipole        =-1.96579571D+00-1.73365007D+00-9.39813735D-02
 ***** Axes restored to original set *****
 -------------------------------------------------------------------
 Center     Atomic                   Forces (Hartrees/Bohr)
 Number     Number              X              Y              Z
 -------------------------------------------------------------------
      1        6           0.000024223    0.000103823    0.000005989
      2        6           0.000135683    0.000065978   -0.000086034
      3        6           0.000021508   -0.000137003    0.000025203
      4        6           0.000005728    0.000014875    0.000001112
      5        6          -0.000012624    0.000047696    0.000050140
      6        6          -0.000124016    0.000013453   -0.000043012
      7        1          -0.000054221   -0.000078114    0.000010226
      8        1          -0.000072920    0.000067023   -0.000006019
      9        1           0.000034444   -0.000015894    0.000014527
     10        6           0.000008986   -0.000029903    0.000035427
     11        6          -0.000005165    0.000006137   -0.000007047
     12        6          -0.000040004   -0.000017553    0.000003164
     13        6          -0.000021522    0.000010675   -0.000005110
     14        6          -0.000063437   -0.000039681    0.000009565
     15        6           0.000085881    0.000037648   -0.000003295
     16        6          -0.000017378   -0.000046373   -0.000010990
     17        1          -0.000004032    0.000013772   -0.000003671
     18        1          -0.000011278   -0.000002817    0.000003553
     19        1           0.000007393   -0.000005124    0.000001358
     20        1          -0.000008068   -0.000021296    0.000004650
     21        6          -0.000006203    0.000036490   -0.000042135
     22        1          -0.000000565   -0.000001968   -0.000006481
     23        1          -0.000001676   -0.000001881   -0.000002518
     24        1           0.000000953   -0.000007220   -0.000003285
     25        6          -0.000004675    0.000050291    0.000012917
     26        1          -0.000000870    0.000003717    0.000001700
     27        1           0.000000606    0.000004299    0.000004300
     28        1           0.000001371   -0.000005050    0.000004042
     29        6          -0.000034495   -0.000232148    0.000048731
     30        6          -0.000216507    0.000287282    0.000040611
     31        6           0.000028700    0.000011539    0.000033046
     32        6           0.000261892    0.000178637    0.000016639
     33        6          -0.000138631   -0.000040843   -0.000101373
     34        1           0.000133559   -0.000061489   -0.000040358
     35        6          -0.000010700   -0.000091118    0.000220689
     36        1          -0.000217135    0.000032787   -0.000063694
     37        7           0.000627020    0.000052328   -0.000030441
     38        7          -0.000292199    0.000141461   -0.000103644
     39       16          -0.000066432   -0.000489321   -0.000026650
     40        6          -0.000151821    0.000111892   -0.000171795
     41        6          -0.000040114    0.000086092    0.000104026
     42        6           0.000112779   -0.000164358    0.000058481
     43        6          -0.000001511    0.000031520   -0.000011779
     44        1          -0.000053094    0.000020314    0.000014728
     45        6           0.000012686    0.000011728    0.000029123
     46        1           0.000146154    0.000071500    0.000023160
     47        6           0.000030482   -0.000032181   -0.000028491
     48        1          -0.000004940   -0.000002367    0.000010173
     49        1           0.000016290    0.000001880    0.000001615
     50        6          -0.000042602    0.000001059   -0.000007649
     51        1          -0.000003838   -0.000001030    0.000004823
     52        1           0.000005009   -0.000003984    0.000003007
     53        6           0.000041558   -0.000012802    0.000017110
     54        1          -0.000003775    0.000003856   -0.000007880
     55        1           0.000001070    0.000009325    0.000002503
     56        7          -0.000008913    0.000039291   -0.000014897
     57        1          -0.000000040   -0.000004144    0.000016042
     58        1          -0.000008575   -0.000022705   -0.000004132
 -------------------------------------------------------------------
 Cartesian Forces:  Max     0.000627020 RMS     0.000093385
 Leave Link  716 at Thu Mar 14 09:47:45 2024, MaxMem= 32212254720 cpu:               1.6 elap:               0.1
 (Enter /home/<user>/g16/l103.exe)

 GradGradGradGradGradGradGradGradGradGradGradGradGradGradGradGradGradGrad
 Berny optimization.
 Using GEDIIS/GDIIS optimizer.
 FormGI is forming the generalized inverse of G from B-inverse, IUseBI=4.
 GSVD:  received Info=                   1 from GESDD.
 Internal  Forces:  Max     0.000852823 RMS     0.000101268
 Search for a local minimum.
 Step number   6 out of a maximum of  346
 All quantities printed in internal units (Hartrees-Bohrs-Radians)
 RMS Force = .10127D-03 SwitMx=.10000D-02 MixMth= 2
 Mixed Optimization -- En-DIIS/RFO-DIIS
 Swapping is turned off.
 Update second derivatives using D2CorX and points    2    3    4    5    6
 DE= -2.12D-05 DEPred=-2.34D-05 R= 9.04D-01
 TightC=F SS=  1.41D+00  RLast= 2.33D-02 DXNew= 1.3451D+00 6.9962D-02
 Trust test= 9.04D-01 RLast= 2.33D-02 DXMaxT set to 8.00D-01
 ITU=  1  1  1  1  1  0
     Eigenvalues ---    0.00230   0.00230   0.00250   0.00609   0.00755
     Eigenvalues ---    0.00762   0.00854   0.01040   0.01252   0.01453
     Eigenvalues ---    0.01472   0.01584   0.01624   0.01639   0.01652
     Eigenvalues ---    0.01683   0.01722   0.01734   0.01809   0.01853
     Eigenvalues ---    0.01886   0.01937   0.02022   0.02040   0.02052
     Eigenvalues ---    0.02073   0.02086   0.02091   0.02094   0.02095
     Eigenvalues ---    0.02112   0.02119   0.02122   0.02123   0.02134
     Eigenvalues ---    0.02135   0.02141   0.02145   0.02149   0.02152
     Eigenvalues ---    0.02161   0.02163   0.02267   0.02317   0.04059
     Eigenvalues ---    0.04285   0.04377   0.04470   0.05420   0.05423
     Eigenvalues ---    0.05438   0.05511   0.05512   0.05562   0.06002
     Eigenvalues ---    0.08038   0.08950   0.09259   0.11578   0.12598
     Eigenvalues ---    0.12814   0.13004   0.15433   0.15972   0.15996
     Eigenvalues ---    0.15999   0.16000   0.16000   0.16000   0.16000
     Eigenvalues ---    0.16000   0.16000   0.16000   0.16000   0.16000
     Eigenvalues ---    0.16000   0.16000   0.16000   0.16001   0.16006
     Eigenvalues ---    0.16027   0.16056   0.19004   0.21049   0.21881
     Eigenvalues ---    0.21957   0.21987   0.22019   0.22360   0.22481
     Eigenvalues ---    0.22589   0.22976   0.23479   0.24110   0.24529
     Eigenvalues ---    0.24624   0.24699   0.24971   0.24979   0.24988
     Eigenvalues ---    0.24998   0.25017   0.26462   0.27965   0.28061
     Eigenvalues ---    0.28129   0.28603   0.28993   0.29326   0.31166
     Eigenvalues ---    0.33128   0.33784   0.34027   0.34090   0.34098
     Eigenvalues ---    0.34104   0.34105   0.34131   0.34275   0.34289
     Eigenvalues ---    0.34372   0.34668   0.34724   0.35033   0.35049
     Eigenvalues ---    0.35084   0.35108   0.35151   0.35159   0.35182
     Eigenvalues ---    0.35187   0.35194   0.35257   0.35469   0.35523
     Eigenvalues ---    0.36133   0.36500   0.36591   0.36779   0.37836
     Eigenvalues ---    0.38160   0.40581   0.40801   0.41537   0.41717
     Eigenvalues ---    0.41820   0.42157   0.42576   0.43503   0.43704
     Eigenvalues ---    0.44364   0.44523   0.44771   0.44826   0.44964
     Eigenvalues ---    0.45646   0.45804   0.45957   0.46111   0.46295
     Eigenvalues ---    0.46839   0.47033   0.47108   0.47936   0.49138
     Eigenvalues ---    0.54478   0.54975   0.66621
 En-DIIS/RFO-DIIS/Sim-DIIS IScMMF=       -3 using points:     6    5    4    3
 RFO step:  Lambda=-1.26366519D-05.
 NNeg= 0 NGDIIS= 4 SimSw=  2.50D-01 Rises=F DC= -2.12D-05 SmlDif=  1.00D-05
 NRisDI= 0 DoIntr=F SqrtH=F CThrHd= 10.0 CDAdj=  3.0
 RMS Error=  0.7175521525D-03 NUsed= 4 OKEnD=T EnDIS=F
 InvSVX:  RCond= 3.49D-05 Info=           0 Equed=N FErr=  3.91D-15 BErr=  1.09D-16
 DidBck=F Rises=F RFO-DIIS coefs:    0.95736    0.13789   -0.07725   -0.01800
 Iteration  1 RMS(Cart)=  0.00579861 RMS(Int)=  0.00000362
 Iteration  2 RMS(Cart)=  0.00001281 RMS(Int)=  0.00000097
 Iteration  3 RMS(Cart)=  0.00000000 RMS(Int)=  0.00000097
 ITry= 1 IFail=0 DXMaxC= 2.65D-02 DCOld= 1.00D+10 DXMaxT= 8.00D-01 DXLimC= 3.00D+00 Rises=F
 Variable       Old X    -DE/DX   Delta X   Delta X   Delta X     New X
                                 (Linear)    (Quad)   (Total)
    R1        2.70106   0.00010   0.00003   0.00003   0.00006   2.70112
    R2        2.61441   0.00009  -0.00001   0.00037   0.00036   2.61477
    R3        2.04347  -0.00010   0.00006  -0.00025  -0.00020   2.04327
    R4        2.69861   0.00013   0.00002   0.00008   0.00010   2.69871
    R5        2.75535   0.00013  -0.00026   0.00021  -0.00004   2.75531
    R6        2.60026   0.00009  -0.00012   0.00039   0.00027   2.60053
    R7        2.04966  -0.00009   0.00006  -0.00025  -0.00019   2.04947
    R8        2.68318   0.00001  -0.00007   0.00007  -0.00000   2.68318
    R9        2.88952   0.00003   0.00004   0.00007   0.00011   2.88963
   R10        2.65280  -0.00002  -0.00009  -0.00008  -0.00017   2.65263
   R11        2.73905   0.00003   0.00008   0.00039   0.00047   2.73952
   R12        2.05366  -0.00003   0.00004  -0.00011  -0.00006   2.05359
   R13        2.88693   0.00002   0.00000   0.00005   0.00005   2.88698
   R14        2.92103  -0.00006   0.00006  -0.00029  -0.00023   2.92079
   R15        2.92036  -0.00006   0.00006  -0.00032  -0.00026   2.92010
   R16        2.62307   0.00006  -0.00003   0.00018   0.00015   2.62322
   R17        2.67771  -0.00003  -0.00004  -0.00007  -0.00011   2.67760
   R18        2.64760   0.00001  -0.00001   0.00007   0.00006   2.64766
   R19        2.05436  -0.00001   0.00002  -0.00006  -0.00004   2.05432
   R20        2.65140  -0.00002  -0.00001  -0.00000  -0.00001   2.65138
   R21        2.05319   0.00001  -0.00001   0.00004   0.00003   2.05322
   R22        2.62994   0.00007  -0.00002   0.00024   0.00022   2.63016
   R23        2.05278  -0.00001   0.00001  -0.00004  -0.00003   2.05275
   R24        2.65177  -0.00001  -0.00005  -0.00011  -0.00016   2.65161
   R25        2.05311  -0.00002   0.00003  -0.00008  -0.00005   2.05306
   R26        2.07115   0.00000   0.00000  -0.00000  -0.00000   2.07115
   R27        2.07070  -0.00000   0.00001  -0.00002  -0.00001   2.07070
   R28        2.06829  -0.00001   0.00001  -0.00002  -0.00000   2.06829
   R29        2.07083  -0.00000   0.00001  -0.00003  -0.00002   2.07081
   R30        2.07111  -0.00000   0.00000  -0.00001  -0.00001   2.07110
   R31        2.06849  -0.00001   0.00001  -0.00001  -0.00000   2.06849
   R32        2.71869   0.00021   0.00037   0.00077   0.00113   2.71982
   R33        2.68420   0.00011   0.00003  -0.00023  -0.00020   2.68401
   R34        2.72552  -0.00003  -0.00020   0.00065   0.00045   2.72597
   R35        2.55491  -0.00021   0.00016  -0.00097  -0.00081   2.55410
   R36        2.61171  -0.00005  -0.00002  -0.00001  -0.00002   2.61169
   R37        2.04839  -0.00002   0.00003   0.00007   0.00010   2.04849
   R38        2.72221  -0.00017   0.00008   0.00008   0.00016   2.72237
   R39        2.55187  -0.00017   0.00012  -0.00078  -0.00066   2.55122
   R40        2.67899   0.00020   0.00005  -0.00011  -0.00006   2.67892
   R41        2.04813  -0.00010  -0.00002   0.00002  -0.00000   2.04812
   R42        2.76331   0.00002  -0.00024  -0.00027  -0.00051   2.76280
   R43        3.18816  -0.00038   0.00026  -0.00206  -0.00179   3.18637
   R44        3.18100  -0.00042   0.00019  -0.00196  -0.00177   3.17923
   R45        2.67916  -0.00000   0.00003  -0.00009  -0.00006   2.67909
   R46        2.68155   0.00022   0.00009   0.00016   0.00026   2.68181
   R47        2.62323  -0.00001  -0.00005   0.00009   0.00004   2.62326
   R48        2.04367   0.00003   0.00007   0.00004   0.00011   2.04378
   R49        2.61856   0.00004  -0.00008   0.00020   0.00012   2.61869
   R50        2.05007  -0.00014  -0.00001  -0.00019  -0.00020   2.04987
   R51        2.65262   0.00001  -0.00001   0.00006   0.00005   2.65267
   R52        2.05606  -0.00001   0.00001  -0.00002  -0.00000   2.05606
   R53        2.65672  -0.00000   0.00005   0.00005   0.00010   2.65682
   R54        2.05578   0.00000  -0.00000   0.00003   0.00003   2.05581
   R55        2.85028  -0.00002  -0.00004  -0.00006  -0.00011   2.85017
   R56        2.07103  -0.00000  -0.00001   0.00000  -0.00000   2.07102
   R57        2.07652  -0.00000  -0.00000  -0.00000  -0.00001   2.07652
   R58        2.91323   0.00002   0.00004   0.00005   0.00009   2.91331
   R59        2.08731   0.00000   0.00000   0.00001   0.00001   2.08732
   R60        2.07253  -0.00000  -0.00000  -0.00001  -0.00002   2.07251
   R61        2.77047  -0.00002  -0.00002  -0.00005  -0.00008   2.77039
   R62        1.92713  -0.00001  -0.00000  -0.00004  -0.00004   1.92710
   R63        1.92532  -0.00001  -0.00000  -0.00003  -0.00003   1.92529
    A1        2.12353   0.00007   0.00001   0.00023   0.00024   2.12377
    A2        2.05841  -0.00003   0.00006   0.00003   0.00009   2.05850
    A3        2.10121  -0.00004  -0.00007  -0.00026  -0.00033   2.10088
    A4        2.05258  -0.00012  -0.00012  -0.00001  -0.00014   2.05245
    A5        2.12624  -0.00000   0.00054  -0.00046   0.00008   2.12632
    A6        2.10433   0.00012  -0.00041   0.00047   0.00006   2.10439
    A7        2.10677   0.00001   0.00008  -0.00026  -0.00018   2.10659
    A8        2.08754   0.00003   0.00028   0.00050   0.00077   2.08832
    A9        2.08809  -0.00004  -0.00034  -0.00026  -0.00060   2.08748
   A10        2.10386   0.00005   0.00005   0.00025   0.00029   2.10415
   A11        2.24732  -0.00002  -0.00017  -0.00023  -0.00040   2.24692
   A12        1.93197  -0.00003   0.00013  -0.00002   0.00011   1.93208
   A13        2.09246  -0.00003  -0.00007  -0.00001  -0.00009   2.09238
   A14        1.89823   0.00001  -0.00005  -0.00008  -0.00013   1.89810
   A15        2.29245   0.00002   0.00012   0.00010   0.00022   2.29267
   A16        2.08696   0.00001   0.00007  -0.00019  -0.00012   2.08684
   A17        2.08982  -0.00003  -0.00014  -0.00026  -0.00040   2.08942
   A18        2.10640   0.00002   0.00007   0.00045   0.00052   2.10692
   A19        1.76229   0.00003  -0.00015   0.00009  -0.00006   1.76223
   A20        1.94472  -0.00001   0.00003   0.00010   0.00013   1.94485
   A21        1.94577  -0.00002   0.00006  -0.00013  -0.00007   1.94570
   A22        1.94261  -0.00001  -0.00001   0.00001   0.00001   1.94262
   A23        1.94388  -0.00002   0.00004  -0.00012  -0.00007   1.94380
   A24        1.92032   0.00002   0.00002   0.00004   0.00005   1.92038
   A25        2.25083   0.00002  -0.00011   0.00002  -0.00009   2.25074
   A26        1.93671  -0.00003   0.00014  -0.00003   0.00012   1.93683
   A27        2.09565   0.00001  -0.00004   0.00001  -0.00003   2.09562
   A28        2.07844   0.00001  -0.00001   0.00001  -0.00001   2.07844
   A29        2.11155   0.00000  -0.00004  -0.00002  -0.00006   2.11150
   A30        2.09319  -0.00001   0.00005   0.00001   0.00006   2.09325
   A31        2.10967  -0.00002   0.00003  -0.00007  -0.00004   2.10963
   A32        2.08736   0.00001  -0.00003   0.00001  -0.00001   2.08735
   A33        2.08615   0.00001  -0.00001   0.00006   0.00005   2.08621
   A34        2.10361   0.00001  -0.00002   0.00004   0.00002   2.10363
   A35        2.08758  -0.00000   0.00006   0.00009   0.00015   2.08772
   A36        2.09200  -0.00001  -0.00003  -0.00013  -0.00016   2.09183
   A37        2.07236   0.00001  -0.00003  -0.00003  -0.00005   2.07231
   A38        2.10390  -0.00001  -0.00001  -0.00011  -0.00013   2.10377
   A39        2.10692   0.00000   0.00004   0.00014   0.00018   2.10710
   A40        1.89553   0.00002  -0.00007   0.00003  -0.00004   1.89549
   A41        2.28103  -0.00001   0.00000  -0.00007  -0.00007   2.28096
   A42        2.10663  -0.00001   0.00007   0.00004   0.00011   2.10674
   A43        1.93096  -0.00001   0.00003  -0.00010  -0.00006   1.93089
   A44        1.92994  -0.00000   0.00004  -0.00003   0.00000   1.92994
   A45        1.94097   0.00001  -0.00001   0.00008   0.00007   1.94104
   A46        1.88253   0.00000  -0.00002  -0.00003  -0.00005   1.88248
   A47        1.88967   0.00000  -0.00002   0.00003   0.00001   1.88968
   A48        1.88797   0.00000  -0.00001   0.00004   0.00003   1.88800
   A49        1.92953  -0.00000   0.00003  -0.00007  -0.00004   1.92949
   A50        1.93151  -0.00001   0.00004  -0.00011  -0.00007   1.93144
   A51        1.94131   0.00001  -0.00002   0.00009   0.00007   1.94138
   A52        1.88192   0.00000  -0.00001   0.00004   0.00003   1.88195
   A53        1.88842  -0.00000  -0.00002   0.00002  -0.00001   1.88841
   A54        1.88932   0.00000  -0.00002   0.00003   0.00002   1.88934
   A55        2.16133  -0.00012   0.00101  -0.00129  -0.00028   2.16104
   A56        2.08651   0.00020  -0.00054   0.00148   0.00094   2.08745
   A57        2.03532  -0.00008  -0.00046  -0.00019  -0.00065   2.03467
   A58        2.10423  -0.00002   0.00013  -0.00011   0.00002   2.10425
   A59        2.17995   0.00024   0.00024   0.00049   0.00074   2.18068
   A60        1.99840  -0.00022  -0.00037  -0.00036  -0.00073   1.99766
   A61        2.14330   0.00004   0.00027   0.00023   0.00050   2.14380
   A62        2.08004   0.00013  -0.00008   0.00154   0.00146   2.08150
   A63        2.05806  -0.00017  -0.00018  -0.00178  -0.00195   2.05611
   A64        2.10912   0.00009   0.00028  -0.00010   0.00017   2.10930
   A65        2.00041   0.00006  -0.00007   0.00023   0.00015   2.00056
   A66        2.17315  -0.00015  -0.00020  -0.00011  -0.00031   2.17284
   A67        2.13732  -0.00003   0.00016   0.00011   0.00026   2.13758
   A68        2.06499  -0.00018  -0.00023  -0.00171  -0.00195   2.06304
   A69        2.07940   0.00021   0.00006   0.00165   0.00172   2.08112
   A70        2.03630  -0.00001  -0.00039   0.00002  -0.00038   2.03592
   A71        2.15766  -0.00084   0.00021  -0.00234  -0.00213   2.15553
   A72        2.08922   0.00085   0.00018   0.00232   0.00250   2.09172
   A73        1.84685   0.00015   0.00064  -0.00036   0.00029   1.84714
   A74        1.84874  -0.00001   0.00052  -0.00078  -0.00026   1.84848
   A75        1.73020   0.00002  -0.00071   0.00129   0.00058   1.73078
   A76        2.13809  -0.00060  -0.00005  -0.00141  -0.00146   2.13663
   A77        2.10459   0.00067   0.00018   0.00132   0.00150   2.10609
   A78        2.04037  -0.00007  -0.00012   0.00012   0.00000   2.04037
   A79        2.11129   0.00007   0.00008   0.00006   0.00014   2.11143
   A80        2.07270  -0.00008  -0.00009  -0.00021  -0.00030   2.07241
   A81        2.09919   0.00001   0.00001   0.00015   0.00016   2.09935
   A82        2.12129  -0.00003   0.00003  -0.00024  -0.00021   2.12108
   A83        2.09028   0.00009   0.00026   0.00033   0.00059   2.09088
   A84        2.07091  -0.00006  -0.00029  -0.00012  -0.00041   2.07050
   A85        2.12495  -0.00000   0.00003  -0.00008  -0.00004   2.12491
   A86        2.07756  -0.00000  -0.00009  -0.00006  -0.00015   2.07740
   A87        2.08067   0.00000   0.00005   0.00014   0.00020   2.08087
   A88        2.11551   0.00003   0.00006   0.00012   0.00018   2.11569
   A89        2.08489   0.00000  -0.00010  -0.00006  -0.00017   2.08472
   A90        2.08278  -0.00003   0.00004  -0.00006  -0.00002   2.08277
   A91        2.05280   0.00000  -0.00009   0.00000  -0.00008   2.05272
   A92        2.11868   0.00000   0.00004   0.00003   0.00007   2.11876
   A93        2.11101  -0.00001   0.00004  -0.00005  -0.00001   2.11100
   A94        1.93364  -0.00001   0.00000  -0.00004  -0.00004   1.93360
   A95        1.91523   0.00000   0.00000   0.00005   0.00005   1.91528
   A96        1.96519   0.00001  -0.00001   0.00007   0.00006   1.96525
   A97        1.86736   0.00000   0.00002  -0.00001   0.00001   1.86737
   A98        1.88274  -0.00000  -0.00001  -0.00003  -0.00004   1.88270
   A99        1.89661  -0.00001  -0.00000  -0.00004  -0.00005   1.89656
   A100       1.89922  -0.00000  -0.00000  -0.00003  -0.00003   1.89919
   A101       1.90045  -0.00000   0.00001  -0.00004  -0.00004   1.90042
   A102       1.92104   0.00001  -0.00003   0.00009   0.00006   1.92111
   A103       1.85956  -0.00000   0.00001  -0.00005  -0.00004   1.85952
   A104       1.99774  -0.00000   0.00001   0.00000   0.00001   1.99775
   A105       1.88293   0.00000   0.00000   0.00003   0.00003   1.88296
   A106       1.91226   0.00001   0.00003   0.00012   0.00015   1.91241
   A107       1.91444   0.00000   0.00001   0.00007   0.00008   1.91452
   A108       1.84838   0.00000   0.00001   0.00009   0.00010   1.84848
    D1       -0.02185  -0.00000   0.00018   0.00042   0.00060  -0.02125
    D2        3.11143   0.00002  -0.00038   0.00107   0.00069   3.11212
    D3        3.11039  -0.00000   0.00037   0.00036   0.00073   3.11111
    D4       -0.03952   0.00002  -0.00019   0.00101   0.00081  -0.03871
    D5        0.01479   0.00001  -0.00038   0.00015  -0.00023   0.01457
    D6       -3.12976  -0.00000  -0.00015  -0.00060  -0.00075  -3.13051
    D7       -3.11722   0.00001  -0.00057   0.00022  -0.00035  -3.11757
    D8        0.02141  -0.00000  -0.00035  -0.00053  -0.00088   0.02053
    D9        0.01229  -0.00000   0.00010  -0.00054  -0.00044   0.01185
   D10       -3.08643   0.00001  -0.00018   0.00000  -0.00018  -3.08660
   D11       -3.12110  -0.00003   0.00065  -0.00118  -0.00053  -3.12163
   D12        0.06337  -0.00001   0.00037  -0.00063  -0.00026   0.06311
   D13        0.34857  -0.00002  -0.00130   0.00080  -0.00050   0.34807
   D14       -2.78507   0.00002  -0.00174   0.00102  -0.00072  -2.78579
   D15       -2.80158   0.00001  -0.00188   0.00147  -0.00042  -2.80199
   D16        0.34797   0.00004  -0.00232   0.00169  -0.00063   0.34734
   D17        0.00386   0.00000  -0.00017   0.00009  -0.00008   0.00377
   D18       -3.12902   0.00000  -0.00029   0.00018  -0.00012  -3.12914
   D19        3.10256  -0.00001   0.00013  -0.00044  -0.00031   3.10225
   D20       -0.03032  -0.00001   0.00000  -0.00035  -0.00035  -0.03067
   D21       -0.01141   0.00000  -0.00003   0.00051   0.00047  -0.01093
   D22        3.13978  -0.00001   0.00009  -0.00031  -0.00022   3.13956
   D23        3.12292   0.00000   0.00007   0.00043   0.00050   3.12342
   D24       -0.00907  -0.00001   0.00019  -0.00038  -0.00020  -0.00927
   D25       -3.14046   0.00001  -0.00006   0.00027   0.00021  -3.14025
   D26        1.07854   0.00000   0.00002   0.00016   0.00018   1.07872
   D27       -1.07436  -0.00000  -0.00007   0.00013   0.00006  -1.07430
   D28        0.00915   0.00001  -0.00018   0.00035   0.00018   0.00933
   D29       -2.05503   0.00000  -0.00010   0.00024   0.00015  -2.05489
   D30        2.07526  -0.00000  -0.00019   0.00021   0.00003   2.07528
   D31        0.00206  -0.00001   0.00030  -0.00062  -0.00032   0.00175
   D32       -3.13654   0.00000   0.00008   0.00014   0.00022  -3.13632
   D33        3.13155   0.00000   0.00015   0.00040   0.00056   3.13211
   D34       -0.00705   0.00001  -0.00007   0.00116   0.00109  -0.00596
   D35        0.00486   0.00000  -0.00012   0.00025   0.00013   0.00499
   D36       -3.13680   0.00000  -0.00007   0.00027   0.00020  -3.13659
   D37       -3.12565  -0.00001   0.00002  -0.00069  -0.00067  -3.12632
   D38        0.01588  -0.00001   0.00007  -0.00067  -0.00060   0.01528
   D39        3.13631  -0.00000   0.00010  -0.00027  -0.00017   3.13614
   D40       -0.00615  -0.00000   0.00010  -0.00020  -0.00010  -0.00624
   D41       -1.08116   0.00000   0.00004  -0.00009  -0.00005  -1.08121
   D42        2.05957   0.00000   0.00005  -0.00002   0.00002   2.05959
   D43        1.06884   0.00001   0.00009  -0.00012  -0.00003   1.06881
   D44       -2.07362   0.00001   0.00010  -0.00005   0.00005  -2.07357
   D45        3.07497   0.00002  -0.00014   0.00023   0.00009   3.07506
   D46       -1.12365   0.00001  -0.00013   0.00011  -0.00002  -1.12367
   D47        0.97425   0.00002  -0.00013   0.00019   0.00007   0.97432
   D48        1.12252  -0.00001   0.00003   0.00005   0.00008   1.12260
   D49       -3.07611  -0.00002   0.00005  -0.00007  -0.00002  -3.07613
   D50       -0.97820  -0.00001   0.00005   0.00001   0.00006  -0.97814
   D51       -1.04089   0.00000  -0.00003   0.00016   0.00013  -1.04076
   D52        1.04367  -0.00000  -0.00001   0.00004   0.00003   1.04369
   D53        3.14157   0.00000  -0.00001   0.00013   0.00011  -3.14150
   D54        1.12446  -0.00001   0.00011   0.00006   0.00017   1.12463
   D55       -3.07483  -0.00001   0.00013  -0.00000   0.00013  -3.07470
   D56       -0.97395  -0.00001   0.00013   0.00003   0.00015  -0.97380
   D57        3.07826   0.00001  -0.00002   0.00003   0.00001   3.07827
   D58       -1.12104   0.00001   0.00001  -0.00003  -0.00002  -1.12106
   D59        0.97984   0.00001  -0.00000  -0.00000  -0.00000   0.97984
   D60       -1.04225   0.00000   0.00001  -0.00001   0.00001  -1.04224
   D61        1.04164  -0.00000   0.00004  -0.00007  -0.00002   1.04161
   D62       -3.14066  -0.00000   0.00003  -0.00004  -0.00001  -3.14067
   D63        3.14040  -0.00000   0.00003   0.00001   0.00004   3.14044
   D64       -0.00059   0.00000   0.00001   0.00006   0.00006  -0.00053
   D65       -0.00026  -0.00000   0.00002  -0.00007  -0.00004  -0.00030
   D66       -3.14125  -0.00000  -0.00000  -0.00002  -0.00002  -3.14127
   D67        0.00120   0.00000   0.00000  -0.00001  -0.00001   0.00119
   D68       -3.14033   0.00000  -0.00004  -0.00004  -0.00008  -3.14041
   D69       -3.14117   0.00000   0.00001   0.00005   0.00005  -3.14111
   D70        0.00048   0.00000  -0.00003   0.00002  -0.00001   0.00047
   D71       -0.00006   0.00000  -0.00000   0.00006   0.00006  -0.00000
   D72       -3.14135   0.00000  -0.00003   0.00010   0.00007  -3.14128
   D73        3.14094  -0.00000   0.00002   0.00001   0.00003   3.14097
   D74       -0.00035   0.00000  -0.00001   0.00005   0.00004  -0.00031
   D75        0.00016   0.00000  -0.00001  -0.00001  -0.00002   0.00014
   D76       -3.14134   0.00000  -0.00003  -0.00000  -0.00003  -3.14137
   D77        3.14145  -0.00000   0.00002  -0.00005  -0.00003   3.14142
   D78       -0.00005  -0.00000   0.00000  -0.00004  -0.00004  -0.00009
   D79        0.00006   0.00000   0.00000  -0.00003  -0.00003   0.00003
   D80       -3.14146  -0.00000  -0.00002  -0.00005  -0.00007  -3.14153
   D81        3.14156   0.00000   0.00002  -0.00004  -0.00003   3.14154
   D82        0.00004  -0.00000  -0.00000  -0.00006  -0.00006  -0.00002
   D83        3.14129  -0.00000  -0.00003  -0.00000  -0.00003   3.14125
   D84       -0.00038  -0.00000   0.00002   0.00003   0.00005  -0.00033
   D85       -0.00038   0.00000  -0.00001   0.00001   0.00000  -0.00038
   D86        3.14114  -0.00000   0.00004   0.00004   0.00008   3.14122
   D87        3.11477   0.00001  -0.00052  -0.00008  -0.00061   3.11416
   D88        0.01298  -0.00000  -0.00053  -0.00083  -0.00136   0.01161
   D89       -0.03456  -0.00002  -0.00011  -0.00029  -0.00040  -0.03496
   D90       -3.13635  -0.00003  -0.00011  -0.00103  -0.00115  -3.13750
   D91       -3.12085  -0.00002   0.00075   0.00021   0.00096  -3.11989
   D92        0.08632   0.00002   0.00047   0.00042   0.00088   0.08721
   D93        0.02813   0.00002   0.00033   0.00043   0.00076   0.02889
   D94       -3.04788   0.00005   0.00005   0.00063   0.00068  -3.04720
   D95        0.00971  -0.00001  -0.00021  -0.00111  -0.00132   0.00838
   D96       -3.09927  -0.00004  -0.00057  -0.00139  -0.00195  -3.10123
   D97        3.11543   0.00001  -0.00019  -0.00042  -0.00062   3.11481
   D98        0.00645  -0.00002  -0.00055  -0.00070  -0.00125   0.00520
   D99        3.11040   0.00001   0.00051   0.00045   0.00096   3.11135
   D100       0.00647  -0.00000   0.00049  -0.00026   0.00023   0.00670
   D101       0.00480   0.00002  -0.00024   0.00090   0.00066   0.00545
   D102      -3.07782   0.00004   0.00008  -0.00009  -0.00000  -3.07782
   D103       3.08159   0.00000   0.00004   0.00081   0.00085   3.08244
   D104      -0.00103   0.00001   0.00036  -0.00017   0.00019  -0.00084
   D105       0.02267   0.00005   0.00031   0.00232   0.00263   0.02530
   D106      -3.12298  -0.00003   0.00009   0.00045   0.00054  -3.12244
   D107       3.12828   0.00009   0.00071   0.00262   0.00333   3.13162
   D108      -0.01737   0.00001   0.00049   0.00075   0.00124  -0.01613
   D109      -0.01574   0.00003   0.00029   0.00126   0.00156  -0.01418
   D110      -3.12335  -0.00000  -0.00009   0.00098   0.00089  -3.12246
   D111      -0.03032  -0.00006  -0.00009  -0.00224  -0.00233  -0.03265
   D112       3.11516   0.00002   0.00012  -0.00043  -0.00031   3.11485
   D113       3.05183  -0.00008  -0.00042  -0.00136  -0.00179   3.05004
   D114      -0.08588  -0.00000  -0.00021   0.00045   0.00023  -0.08564
   D115      -0.40405   0.00009   0.00181   0.00235   0.00417  -0.39988
   D116       2.75623   0.00000   0.00131   0.00012   0.00143   2.75766
   D117       2.73337   0.00000   0.00158   0.00042   0.00201   2.73537
   D118      -0.38954  -0.00008   0.00108  -0.00181  -0.00073  -0.39027
   D119      -0.01384   0.00002  -0.00028   0.00087   0.00059  -0.01325
   D120       0.01728  -0.00003  -0.00001  -0.00124  -0.00126   0.01602
   D121      -3.10671  -0.00005  -0.00019  -0.00134  -0.00153  -3.10824
   D122       0.03479  -0.00005  -0.00021  -0.00138  -0.00159   0.03320
   D123       0.01684   0.00004   0.00030   0.00082   0.00113   0.01797
   D124      -3.12485   0.00004   0.00028   0.00079   0.00107  -3.12378
   D125       3.12040   0.00004  -0.00007   0.00158   0.00152   3.12192
   D126      -0.06205   0.00001  -0.00001   0.00090   0.00089  -0.06116
   D127      -0.00352  -0.00003  -0.00055  -0.00051  -0.00106  -0.00458
   D128       3.09722  -0.00006  -0.00049  -0.00120  -0.00169   3.09553
   D129      -0.01725  -0.00002   0.00009  -0.00044  -0.00035  -0.01760
   D130       3.12145  -0.00001  -0.00000   0.00022   0.00022   3.12166
   D131       3.12444  -0.00002   0.00011  -0.00040  -0.00029   3.12415
   D132      -0.02005  -0.00001   0.00001   0.00026   0.00027  -0.01978
   D133      -0.00990   0.00000   0.00040  -0.00021   0.00020  -0.00970
   D134       3.12880  -0.00000   0.00029  -0.00007   0.00023   3.12902
   D135      -3.11108   0.00003   0.00033   0.00046   0.00080  -3.11028
   D136       0.02762   0.00002   0.00023   0.00060   0.00083   0.02844
   D137       0.00355  -0.00001  -0.00025  -0.00029  -0.00054   0.00301
   D138      -3.09843   0.00001  -0.00013   0.00014   0.00002  -3.09841
   D139      -3.13514  -0.00002  -0.00016  -0.00095  -0.00110  -3.13625
   D140       0.04607  -0.00001  -0.00003  -0.00052  -0.00055   0.04552
   D141       0.00992   0.00002   0.00001   0.00061   0.00061   0.01054
   D142       3.11208   0.00000  -0.00012   0.00018   0.00006   3.11215
   D143      -3.12878   0.00002   0.00012   0.00047   0.00059  -3.12819
   D144      -0.02662   0.00001  -0.00001   0.00004   0.00003  -0.02658
   D145      -2.62621  -0.00001  -0.00016  -0.00083  -0.00099  -2.62720
   D146      -0.56807  -0.00001  -0.00013  -0.00084  -0.00097  -0.56904
   D147       1.54681  -0.00001  -0.00013  -0.00082  -0.00095   1.54586
   D148       0.55631   0.00001  -0.00002  -0.00039  -0.00041   0.55590
   D149       2.61446   0.00001   0.00001  -0.00040  -0.00039   2.61407
   D150      -1.55385   0.00000  -0.00000  -0.00037  -0.00038  -1.55423
   D151      -0.98481   0.00000  -0.00012   0.00048   0.00036  -0.98445
   D152       1.03553  -0.00000  -0.00010   0.00038   0.00028   1.03581
   D153       3.09622  -0.00000  -0.00011   0.00044   0.00033   3.09655
   D154      -3.12386   0.00000  -0.00010   0.00050   0.00040  -3.12346
   D155      -1.10352  -0.00000  -0.00008   0.00040   0.00032  -1.10320
   D156       0.95718  -0.00000  -0.00009   0.00046   0.00037   0.95754
   D157       1.14066   0.00001  -0.00012   0.00055   0.00043   1.14109
   D158      -3.12219   0.00000  -0.00010   0.00046   0.00035  -3.12184
   D159      -1.06150   0.00000  -0.00011   0.00051   0.00040  -1.06109
   D160       1.20110   0.00001   0.00020   0.00137   0.00157   1.20267
   D161      -3.06008   0.00001   0.00023   0.00159   0.00182  -3.05826
   D162      -0.94424   0.00001   0.00021   0.00134   0.00156  -0.94269
   D163       1.07776   0.00001   0.00025   0.00156   0.00181   1.07957
   D164      -3.01061   0.00001   0.00019   0.00139   0.00158  -3.00903
   D165      -0.98861   0.00001   0.00023   0.00160   0.00183  -0.98678
         Item               Value     Threshold  Converged?
 Maximum Force            0.000853     0.000450     NO 
 RMS     Force            0.000101     0.000300     YES
 Maximum Displacement     0.026538     0.001800     NO 
 RMS     Displacement     0.005797     0.001200     NO 
 Predicted change in Energy=-6.317628D-06
 Lowest energy point so far.  Saving SCF results.
 GradGradGradGradGradGradGradGradGradGradGradGradGradGradGradGradGradGrad

 Leave Link  103 at Thu Mar 14 09:47:45 2024, MaxMem= 32212254720 cpu:               4.2 elap:               0.2
 (Enter /home/<user>/g16/l202.exe)
 Stoichiometry    C29H25N3S
 Framework group  C1[X(C29H25N3S)]
 Deg. of freedom   168
 Full point group                 C1      NOp   1
 RotChk:  IX=0 Diff= 1.02D-03
 Largest Abelian subgroup         C1      NOp   1
 Largest concise Abelian subgroup C1      NOp   1
                         Standard orientation:                         
 ---------------------------------------------------------------------
 Center     Atomic      Atomic             Coordinates (Angstroms)
 Number     Number       Type             X           Y           Z
 ---------------------------------------------------------------------
      1          6           0       -2.447340    1.656939   -0.312270
      2          6           0       -1.767883    0.406764   -0.176259
      3          6           0       -2.565840   -0.763400    0.006609
      4          6           0       -3.939154   -0.679908    0.034833
      5          6           0       -4.589633    0.572407   -0.122121
      6          6           0       -3.828462    1.739131   -0.294675
      7          1           0       -1.847889    2.550080   -0.422098
      8          1           0       -2.084012   -1.722076    0.164701
      9          1           0       -4.312112    2.705292   -0.411146
     10          6           0       -4.962010   -1.799291    0.232251
     11          6           0       -6.270507   -1.014873    0.151878
     12          6           0       -7.574521   -1.479905    0.253100
     13          6           0       -8.632914   -0.567751    0.149137
     14          6           0       -8.388307    0.798726   -0.054474
     15          6           0       -7.084947    1.275983   -0.157612
     16          6           0       -6.022788    0.364939   -0.054114
     17          1           0       -7.781531   -2.535302    0.411423
     18          1           0       -9.656839   -0.922664    0.227435
     19          1           0       -9.224266    1.488049   -0.131879
     20          1           0       -6.895389    2.334075   -0.315217
     21          6           0       -4.797748   -2.477650    1.611302
     22          1           0       -5.578544   -3.230953    1.766593
     23          1           0       -3.826838   -2.980994    1.679711
     24          1           0       -4.860799   -1.745803    2.422681
     25          6           0       -4.868786   -2.855663   -0.891668
     26          1           0       -3.899361   -3.365658   -0.860820
     27          1           0       -5.650973   -3.614454   -0.775092
     28          1           0       -4.981792   -2.395630   -1.878451
     29          6           0       -0.313940    0.311883   -0.230558
     30          6           0        0.570337    1.425529   -0.008440
     31          6           0        0.297181   -0.935680   -0.526218
     32          6           0        2.001026    1.245005   -0.045975
     33          6           0        1.667880   -1.106896   -0.570043
     34          1           0       -0.326832   -1.782564   -0.787900
     35          6           0        2.575705   -0.048128   -0.316024
     36          1           0        2.053869   -2.076609   -0.862169
     37          7           0        0.172543    2.682809    0.287794
     38          7           0        2.715706    2.357465    0.226582
     39         16           0        1.587464    3.576588    0.493396
     40          6           0        4.015332   -0.301349   -0.344893
     41          6           0        4.963164    0.725992   -0.581756
     42          6           0        4.523785   -1.612181   -0.152061
     43          6           0        6.321295    0.445091   -0.641718
     44          1           0        4.609317    1.739120   -0.716110
     45          6           0        5.883344   -1.876226   -0.198771
     46          1           0        3.843719   -2.426152    0.075158
     47          6           0        6.815814   -0.854779   -0.451318
     48          1           0        7.019426    1.254737   -0.843877
     49          1           0        6.236845   -2.891877   -0.034495
     50          6           0        8.296453   -1.141767   -0.463481
     51          1           0        8.492346   -2.160193   -0.817764
     52          1           0        8.801454   -0.457121   -1.158963
     53          6           0        8.940153   -0.993428    0.929486
     54          1           0        8.735734    0.023189    1.309961
     55          1           0        8.452274   -1.689993    1.622002
     56          7           0       10.362387   -1.343427    0.866366
     57          1           0       10.864605   -0.636790    0.329353
     58          1           0       10.763580   -1.320127    1.802577
 ---------------------------------------------------------------------
 Rotational constants (GHZ):           0.3552513           0.0398656           0.0365243
 Leave Link  202 at Thu Mar 14 09:47:45 2024, MaxMem= 32212254720 cpu:               0.1 elap:               0.0
 (Enter /home/<user>/g16/l301.exe)
 Standard basis: 6-31G(d) (6D, 7F)
 Ernie: Thresh=  0.10000D-02 Tol=  0.10000D-05 Strict=F.
 There are   549 symmetry adapted cartesian basis functions of A   symmetry.
 There are   549 symmetry adapted basis functions of A   symmetry.
   549 basis functions,  1048 primitive gaussians,   549 cartesian basis functions
   118 alpha electrons      118 beta electrons
       nuclear repulsion energy      3077.8451526520 Hartrees.
 IExCor=  402 DFT=T Ex+Corr=B3LYP ExCW=0 ScaHFX=  0.200000
 ScaDFX=  0.800000  0.720000  1.000000  0.810000 ScalE2=  1.000000  1.000000
 IRadAn=      5 IRanWt=     -1 IRanGd=            0 ICorTp=0 IEmpDi=  4
 NAtoms=   58 NActive=   58 NUniq=   58 SFac= 1.00D+00 NAtFMM=   60 NAOKFM=F Big=F
 Integral buffers will be    131072 words long.
 Regular integral format.
 Two-electron integral symmetry is turned on.
 Leave Link  301 at Thu Mar 14 09:47:45 2024, MaxMem= 32212254720 cpu:               1.0 elap:               0.0
 (Enter /home/<user>/g16/l302.exe)
 NPDir=0 NMtPBC=     1 NCelOv=     1 NCel=       1 NClECP=     1 NCelD=      1
         NCelK=      1 NCelE2=     1 NClLst=     1 CellRange=     0.0.
 One-electron integrals computed using PRISM.
 One-electron integral symmetry used in STVInt
 NBasis=   549 RedAO= T EigKep=  2.68D-04  NBF=   549
 NBsUse=   549 1.00D-06 EigRej= -1.00D+00 NBFU=   549
 Precomputing XC quadrature grid using
 IXCGrd= 4 IRadAn=           5 IRanWt=          -1 IRanGd=           0 AccXCQ= 0.00D+00.
 Generated NRdTot=       0 NPtTot=           0 NUsed=           0 NTot=          32
 NSgBfM=   512   512   512   512   512 MxSgAt=    58 MxSgA2=    58.
 Leave Link  302 at Thu Mar 14 09:47:46 2024, MaxMem= 32212254720 cpu:              18.4 elap:               0.6
 (Enter /home/<user>/g16/l303.exe)
 DipDrv:  MaxL=1.
 Leave Link  303 at Thu Mar 14 09:47:46 2024, MaxMem= 32212254720 cpu:               1.8 elap:               0.1
 (Enter /home/<user>/g16/l308.exe)
 Leave Link  308 at Thu Mar 14 09:47:46 2024, MaxMem= 32212254720 cpu:               2.1 elap:               0.1
 (Enter /home/<user>/g16/l401.exe)
 Initial guess from the checkpoint file:  "FBTP_S1opt.chk"
 B after Tr=     0.000000    0.000000   -0.000000
         Rot=    1.000000    0.000058   -0.000008    0.000076 Ang=   0.01 deg.
 Guess basis will be translated and rotated to current coordinates.
 JPrj=2 DoOrth=T DoCkMO=T.
 Generating alternative initial guess.
 ExpMin= 1.17D-01 ExpMax= 2.19D+04 ExpMxC= 3.30D+03 IAcc=3 IRadAn=         5 AccDes= 0.00D+00
 Harris functional with IExCor=  402 and IRadAn=       5 diagonalized for initial guess.
 HarFok:  IExCor=  402 AccDes= 0.00D+00 IRadAn=         5 IDoV= 1 UseB2=F ITyADJ=14
 ICtDFT=  3500011 ScaDFX=  1.000000  1.000000  1.000000  1.000000
 FoFCou: FMM=F IPFlag=           0 FMFlag=      100000 FMFlg1=           0
         NFxFlg=           0 DoJE=T BraDBF=F KetDBF=T FulRan=T
         wScrn=  0.000000 ICntrl=       500 IOpCl=  0 I1Cent=   200000004 NGrid=           0
         NMat0=    1 NMatS0=      1 NMatT0=    0 NMatD0=    1 NMtDS0=    0 NMtDT0=    0
 Petite list used in FoFCou.
 Harris En= -1682.58269148610    
 Leave Link  401 at Thu Mar 14 09:47:48 2024, MaxMem= 32212254720 cpu:              55.5 elap:               1.9
 (Enter /home/<user>/g16/l502.exe)
 Integral symmetry usage will be decided dynamically.
 Closed shell SCF:
 Using DIIS extrapolation, IDIIS=  1040.
 NGot= 32212254720 LenX= 32211628124 LenY= 32211326174
 Requested convergence on RMS density matrix=1.00D-08 within 128 cycles.
 Requested convergence on MAX density matrix=1.00D-06.
 Requested convergence on             energy=1.00D-06.
 No special actions if energy rises.
 Fock matrices will be formed incrementally for  20 cycles.
 Integral accuracy reduced to 1.0D-05 until final iterations.

 Cycle   1  Pass 0  IDiag  1:
 FoFJK:  IHMeth= 1 ICntrl=       0 DoSepK=F KAlg= 0 I1Cent=           0 FoldK=F
 IRaf= 550000000 NMat=       1 IRICut=       1 DoRegI=T DoRafI=F ISym2E= 0 IDoP0=0 IntGTp=1.
 FoFCou: FMM=F IPFlag=           0 FMFlag=      100000 FMFlg1=           0
         NFxFlg=           0 DoJE=F BraDBF=F KetDBF=F FulRan=T
         wScrn=  0.000000 ICntrl=         0 IOpCl=  0 I1Cent=           0 NGrid=           0
         NMat0=    1 NMatS0=      1 NMatT0=    0 NMatD0=    1 NMtDS0=    0 NMtDT0=    0
 Symmetry not used in FoFCou.
 E= -1682.59452711600    
 DIIS: error= 1.47D-04 at cycle   1 NSaved=   1.
 NSaved= 1 IEnMin= 1 EnMin= -1682.59452711600     IErMin= 1 ErrMin= 1.47D-04
 ErrMax= 1.47D-04  0.00D+00 EMaxC= 1.00D-01 BMatC= 4.18D-05 BMatP= 4.18D-05
 IDIUse=3 WtCom= 9.99D-01 WtEn= 1.47D-03
 Coeff-Com:  0.100D+01
 Coeff-En:   0.100D+01
 Coeff:      0.100D+01
 Gap=     1.959 Goal=   None    Shift=    0.000
 RMSDP=6.60D-05 MaxDP=2.23D-03              OVMax= 1.47D-03

 Cycle   2  Pass 0  IDiag  1:
 RMSU=  6.60D-05    CP:  1.00D+00
 E= -1682.59458414637     Delta-E=       -0.000057030368 Rises=F Damp=F
 DIIS: error= 3.01D-05 at cycle   2 NSaved=   2.
 NSaved= 2 IEnMin= 2 EnMin= -1682.59458414637     IErMin= 2 ErrMin= 3.01D-05
 ErrMax= 3.01D-05  0.00D+00 EMaxC= 1.00D-01 BMatC= 1.15D-06 BMatP= 4.18D-05
 IDIUse=1 WtCom= 1.00D+00 WtEn= 0.00D+00
 Coeff-Com: -0.400D-01 0.104D+01
 Coeff:     -0.400D-01 0.104D+01
 Gap=     0.090 Goal=   None    Shift=    0.000
 RMSDP=5.97D-06 MaxDP=5.61D-04 DE=-5.70D-05 OVMax= 5.76D-04

 Initial convergence to 1.0D-05 achieved.  Increase integral accuracy.
 Cycle   3  Pass 1  IDiag  1:
 E= -1682.59462957387     Delta-E=       -0.000045427505 Rises=F Damp=F
 DIIS: error= 9.23D-05 at cycle   1 NSaved=   1.
 NSaved= 1 IEnMin= 1 EnMin= -1682.59462957387     IErMin= 1 ErrMin= 9.23D-05
 ErrMax= 9.23D-05  0.00D+00 EMaxC= 1.00D-01 BMatC= 5.78D-06 BMatP= 5.78D-06
 IDIUse=1 WtCom= 1.00D+00 WtEn= 0.00D+00
 Coeff-Com:  0.100D+01
 Coeff:      0.100D+01
 Gap=     0.090 Goal=   None    Shift=    0.000
 RMSDP=5.97D-06 MaxDP=5.61D-04 DE=-4.54D-05 OVMax= 1.71D-03

 Cycle   4  Pass 1  IDiag  1:
 RMSU=  6.20D-05    CP:  1.00D+00
 E= -1682.59461803225     Delta-E=        0.000011541617 Rises=F Damp=F
 DIIS: error= 1.42D-04 at cycle   2 NSaved=   2.
 NSaved= 2 IEnMin= 1 EnMin= -1682.59462957387     IErMin= 1 ErrMin= 9.23D-05
 ErrMax= 1.42D-04  0.00D+00 EMaxC= 1.00D-01 BMatC= 1.75D-05 BMatP= 5.78D-06
 IDIUse=3 WtCom= 4.57D-01 WtEn= 5.43D-01
 Coeff-Com:  0.654D+00 0.346D+00
 Coeff-En:   0.745D+00 0.255D+00
 Coeff:      0.704D+00 0.296D+00
 Gap=     0.090 Goal=   None    Shift=    0.000
 RMSDP=9.00D-06 MaxDP=1.04D-03 DE= 1.15D-05 OVMax= 1.58D-03

 Cycle   5  Pass 1  IDiag  1:
 RMSU=  8.91D-06    CP:  1.00D+00  9.80D-01
 E= -1682.59463379350     Delta-E=       -0.000015761247 Rises=F Damp=F
 DIIS: error= 3.83D-05 at cycle   3 NSaved=   3.
 NSaved= 3 IEnMin= 3 EnMin= -1682.59463379350     IErMin= 3 ErrMin= 3.83D-05
 ErrMax= 3.83D-05  0.00D+00 EMaxC= 1.00D-01 BMatC= 9.06D-07 BMatP= 5.78D-06
 IDIUse=1 WtCom= 1.00D+00 WtEn= 0.00D+00
 Coeff-Com:  0.271D+00 0.167D+00 0.562D+00
 Coeff:      0.271D+00 0.167D+00 0.562D+00
 Gap=     0.090 Goal=   None    Shift=    0.000
 RMSDP=3.70D-06 MaxDP=4.26D-04 DE=-1.58D-05 OVMax= 5.81D-04

 Cycle   6  Pass 1  IDiag  1:
 RMSU=  3.40D-06    CP:  1.00D+00  9.89D-01  8.51D-01
 E= -1682.59463385818     Delta-E=       -0.000000064682 Rises=F Damp=F
 DIIS: error= 3.55D-05 at cycle   4 NSaved=   4.
 NSaved= 4 IEnMin= 4 EnMin= -1682.59463385818     IErMin= 4 ErrMin= 3.55D-05
 ErrMax= 3.55D-05  0.00D+00 EMaxC= 1.00D-01 BMatC= 8.63D-07 BMatP= 9.06D-07
 IDIUse=1 WtCom= 1.00D+00 WtEn= 0.00D+00
 Coeff-Com:  0.580D-03 0.212D-01 0.492D+00 0.486D+00
 Coeff:      0.580D-03 0.212D-01 0.492D+00 0.486D+00
 Gap=     0.090 Goal=   None    Shift=    0.000
 RMSDP=1.87D-06 MaxDP=2.18D-04 DE=-6.47D-08 OVMax= 2.63D-04

 Cycle   7  Pass 1  IDiag  1:
 RMSU=  3.87D-07    CP:  1.00D+00  9.90D-01  9.13D-01  4.89D-01
 E= -1682.59463467554     Delta-E=       -0.000000817361 Rises=F Damp=F
 DIIS: error= 3.01D-06 at cycle   5 NSaved=   5.
 NSaved= 5 IEnMin= 5 EnMin= -1682.59463467554     IErMin= 5 ErrMin= 3.01D-06
 ErrMax= 3.01D-06  0.00D+00 EMaxC= 1.00D-01 BMatC= 9.76D-09 BMatP= 8.63D-07
 IDIUse=1 WtCom= 1.00D+00 WtEn= 0.00D+00
 Coeff-Com: -0.237D-02 0.116D-01 0.307D+00 0.310D+00 0.374D+00
 Coeff:     -0.237D-02 0.116D-01 0.307D+00 0.310D+00 0.374D+00
 Gap=     0.090 Goal=   None    Shift=    0.000
 RMSDP=2.48D-07 MaxDP=1.47D-05 DE=-8.17D-07 OVMax= 3.91D-05

 Cycle   8  Pass 1  IDiag  1:
 RMSU=  1.06D-07    CP:  1.00D+00  9.90D-01  9.14D-01  4.95D-01  4.25D-01
 E= -1682.59463468618     Delta-E=       -0.000000010640 Rises=F Damp=F
 DIIS: error= 6.51D-07 at cycle   6 NSaved=   6.
 NSaved= 6 IEnMin= 6 EnMin= -1682.59463468618     IErMin= 6 ErrMin= 6.51D-07
 ErrMax= 6.51D-07  0.00D+00 EMaxC= 1.00D-01 BMatC= 2.71D-10 BMatP= 9.76D-09
 IDIUse=1 WtCom= 1.00D+00 WtEn= 0.00D+00
 Coeff-Com: -0.144D-02 0.601D-02 0.161D+00 0.162D+00 0.221D+00 0.451D+00
 Coeff:     -0.144D-02 0.601D-02 0.161D+00 0.162D+00 0.221D+00 0.451D+00
 Gap=     0.090 Goal=   None    Shift=    0.000
 RMSDP=5.00D-08 MaxDP=7.28D-06 DE=-1.06D-08 OVMax= 1.07D-05

 Cycle   9  Pass 1  IDiag  1:
 RMSU=  3.52D-08    CP:  1.00D+00  9.90D-01  9.14D-01  4.96D-01  4.51D-01
                    CP:  6.81D-01
 E= -1682.59463468644     Delta-E=       -0.000000000260 Rises=F Damp=F
 DIIS: error= 1.60D-07 at cycle   7 NSaved=   7.
 NSaved= 7 IEnMin= 7 EnMin= -1682.59463468644     IErMin= 7 ErrMin= 1.60D-07
 ErrMax= 1.60D-07  0.00D+00 EMaxC= 1.00D-01 BMatC= 1.95D-11 BMatP= 2.71D-10
 IDIUse=1 WtCom= 1.00D+00 WtEn= 0.00D+00
 Coeff-Com: -0.540D-03 0.207D-02 0.562D-01 0.568D-01 0.815D-01 0.255D+00
 Coeff-Com:  0.549D+00
 Coeff:     -0.540D-03 0.207D-02 0.562D-01 0.568D-01 0.815D-01 0.255D+00
 Coeff:      0.549D+00
 Gap=     0.090 Goal=   None    Shift=    0.000
 RMSDP=1.29D-08 MaxDP=1.09D-06 DE=-2.60D-10 OVMax= 1.95D-06

 Cycle  10  Pass 1  IDiag  1:
 RMSU=  9.90D-09    CP:  1.00D+00  9.90D-01  9.14D-01  4.95D-01  4.44D-01
                    CP:  7.24D-01  8.19D-01
 E= -1682.59463468642     Delta-E=        0.000000000029 Rises=F Damp=F
 DIIS: error= 5.81D-08 at cycle   8 NSaved=   8.
 NSaved= 8 IEnMin= 7 EnMin= -1682.59463468644     IErMin= 8 ErrMin= 5.81D-08
 ErrMax= 5.81D-08  0.00D+00 EMaxC= 1.00D-01 BMatC= 2.38D-12 BMatP= 1.95D-11
 IDIUse=1 WtCom= 1.00D+00 WtEn= 0.00D+00
 Coeff-Com: -0.130D-03 0.434D-03 0.122D-01 0.123D-01 0.190D-01 0.902D-01
 Coeff-Com:  0.310D+00 0.556D+00
 Coeff:     -0.130D-03 0.434D-03 0.122D-01 0.123D-01 0.190D-01 0.902D-01
 Coeff:      0.310D+00 0.556D+00
 Gap=     0.090 Goal=   None    Shift=    0.000
 RMSDP=5.25D-09 MaxDP=2.36D-07 DE= 2.91D-11 OVMax= 6.52D-07

 SCF Done:  E(RB3LYP) =  -1682.59463469     A.U. after   10 cycles
            NFock= 10  Conv=0.52D-08     -V/T= 2.0083
 KE= 1.668730297329D+03 PE=-1.007739945950D+04 EE= 3.648229374831D+03
 Leave Link  502 at Thu Mar 14 09:48:07 2024, MaxMem= 32212254720 cpu:             583.1 elap:              19.4
 (Enter /home/<user>/g16/l801.exe)
 DoSCS=F DFT=T ScalE2(SS,OS)=  1.000000  1.000000
 ExpMin= 1.17D-01 ExpMax= 2.19D+04 ExpMxC= 3.30D+03 IAcc=3 IRadAn=         5 AccDes= 0.00D+00
 HarFok:  IExCor=  205 AccDes= 0.00D+00 IRadAn=         5 IDoV=-2 UseB2=F ITyADJ=14
 ICtDFT= 12500011 ScaDFX=  1.000000  1.000000  1.000000  1.000000
 GSVD:  LWork=       -1665 too small for GESVD, short by        7400 words or        7400 for optimal perf.
 Largest valence mixing into a core orbital is  1.10D-04
 Largest core mixing into a valence orbital is  2.83D-05
 Range of M.O.s used for correlation:    38   549
 NBasis=   549 NAE=   118 NBE=   118 NFC=    37 NFV=     0
 NROrb=    512 NOA=    81 NOB=    81 NVA=   431 NVB=   431

 **** Warning!!: The smallest alpha delta epsilon is  0.90095347D-01

 Leave Link  801 at Thu Mar 14 09:48:07 2024, MaxMem= 32212254720 cpu:               3.1 elap:               0.1
 (Enter /home/<user>/g16/l914.exe)
 RHF ground state
 Two-electron integrals replicated using symmetry.
 MDV= 32212254720 DFT=T DoStab=F Mixed=T DoRPA=T DoScal=F NonHer=T
 Making orbital integer symmetry assigments:
 Orbital symmetries:
       Occupied  (A) (A) (A) (A) (A) (A) (A) (A) (A) (A) (A) (A)
                 (A) (A) (A) (A) (A) (A) (A) (A) (A) (A) (A) (A)
                 (A) (A) (A) (A) (A) (A) (A) (A) (A) (A) (A) (A)
                 (A) (A) (A) (A) (A) (A) (A) (A) (A) (A) (A) (A)
                 (A) (A) (A) (A) (A) (A) (A) (A) (A) (A) (A) (A)
                 (A) (A) (A) (A) (A) (A) (A) (A) (A) (A) (A) (A)
                 (A) (A) (A) (A) (A) (A) (A) (A) (A) (A) (A) (A)
                 (A) (A) (A) (A) (A) (A) (A) (A) (A) (A) (A) (A)
                 (A) (A) (A) (A) (A) (A) (A) (A) (A) (A) (A) (A)
                 (A) (A) (A) (A) (A) (A) (A) (A) (A) (A)
       Virtual   (A) (A) (A) (A) (A) (A) (A) (A) (A) (A) (A) (A)
                 (A) (A) (A) (A) (A) (A) (A) (A) (A) (A) (A) (A)
                 (A) (A) (A) (A) (A) (A) (A) (A) (A) (A) (A) (A)
                 (A) (A) (A) (A) (A) (A) (A) (A) (A) (A) (A) (A)
                 (A) (A) (A) (A) (A) (A) (A) (A) (A) (A) (A) (A)
                 (A) (A) (A) (A) (A) (A) (A) (A) (A) (A) (A) (A)
                 (A) (A) (A) (A) (A) (A) (A) (A) (A) (A) (A) (A)
                 (A) (A) (A) (A) (A) (A) (A) (A) (A) (A) (A) (A)
                 (A) (A) (A) (A) (A) (A) (A) (A) (A) (A) (A) (A)
                 (A) (A) (A) (A) (A) (A) (A) (A) (A) (A) (A) (A)
                 (A) (A) (A) (A) (A) (A) (A) (A) (A) (A) (A) (A)
                 (A) (A) (A) (A) (A) (A) (A) (A) (A) (A) (A) (A)
                 (A) (A) (A) (A) (A) (A) (A) (A) (A) (A) (A) (A)
                 (A) (A) (A) (A) (A) (A) (A) (A) (A) (A) (A) (A)
                 (A) (A) (A) (A) (A) (A) (A) (A) (A) (A) (A) (A)
                 (A) (A) (A) (A) (A) (A) (A) (A) (A) (A) (A) (A)
                 (A) (A) (A) (A) (A) (A) (A) (A) (A) (A) (A) (A)
                 (A) (A) (A) (A) (A) (A) (A) (A) (A) (A) (A) (A)
                 (A) (A) (A) (A) (A) (A) (A) (A) (A) (A) (A) (A)
                 (A) (A) (A) (A) (A) (A) (A) (A) (A) (A) (A) (A)
                 (A) (A) (A) (A) (A) (A) (A) (A) (A) (A) (A) (A)
                 (A) (A) (A) (A) (A) (A) (A) (A) (A) (A) (A) (A)
                 (A) (A) (A) (A) (A) (A) (A) (A) (A) (A) (A) (A)
                 (A) (A) (A) (A) (A) (A) (A) (A) (A) (A) (A) (A)
                 (A) (A) (A) (A) (A) (A) (A) (A) (A) (A) (A) (A)
                 (A) (A) (A) (A) (A) (A) (A) (A) (A) (A) (A) (A)
                 (A) (A) (A) (A) (A) (A) (A) (A) (A) (A) (A) (A)
                 (A) (A) (A) (A) (A) (A) (A) (A) (A) (A) (A) (A)
                 (A) (A) (A) (A) (A) (A) (A) (A) (A) (A) (A) (A)
                 (A) (A) (A) (A) (A) (A) (A) (A) (A) (A) (A) (A)
                 (A) (A) (A) (A) (A) (A) (A) (A) (A) (A) (A) (A)
                 (A) (A) (A) (A) (A) (A) (A) (A) (A) (A) (A) (A)
                 (A) (A) (A) (A) (A) (A) (A) (A) (A) (A) (A) (A)
                 (A) (A) (A) (A) (A) (A) (A) (A) (A) (A) (A) (A)
                 (A) (A) (A) (A) (A) (A) (A) (A) (A) (A) (A) (A)
                 (A) (A) (A) (A) (A) (A) (A) (A) (A) (A) (A)
 Generating guess from densities on rwf.
 Convergence on wavefunction:    0.000001000000000
 Davidson Disk Diagonalization:  ConvIn= 1.00D-06 SkipCon=T Conv= 1.00D-06.
 Max sub-space:  2000 roots to seek:     3 dimension of matrix:        69822
 Iteration     1 Dimension     6 NMult     0 NNew      6
 CISAX will form     6 AO SS matrices at one time.
 NMat=     6 NSing=     6 JSym2X= 0.
 FoFJK:  IHMeth= 1 ICntrl=       0 DoSepK=F KAlg= 0 I1Cent=           0 FoldK=F
 IRaf= 550000000 NMat=      12 IRICut=       1 DoRegI=T DoRafI=F ISym2E= 0 IDoP0=0 IntGTp=1.
 FoFCou: FMM=F IPFlag=           0 FMFlag=      100000 FMFlg1=           0
         NFxFlg=           0 DoJE=F BraDBF=F KetDBF=F FulRan=T
         wScrn=  0.000000 ICntrl=         0 IOpCl=  0 I1Cent=           0 NGrid=           0
         NMat0=   12 NMatS0=      6 NMatT0=    0 NMatD0=   12 NMtDS0=    0 NMtDT0=    0
 Symmetry not used in FoFCou.
 Excitation Energies [eV] at current iteration:
 Root      1 :     2.074716207859024
 Root      2 :     2.979290422023169
 Root      3 :     3.325698274975560
 Iteration     2 Dimension    12 NMult     6 NNew      6
 CISAX will form     6 AO SS matrices at one time.
 NMat=     6 NSing=     6 JSym2X= 0.
 Root      1 not converged, maximum delta is    0.000482438813749
 Root      2 not converged, maximum delta is    0.000572998554770
 Root      3 not converged, maximum delta is    0.000890401843901
 Excitation Energies [eV] at current iteration:
 Root      1 :     2.074668691978746   Change is   -0.000047515880278
 Root      2 :     2.979240433944266   Change is   -0.000049988078903
 Root      3 :     3.325597759688258   Change is   -0.000100515287303
 Iteration     3 Dimension    18 NMult    12 NNew      6
 CISAX will form     6 AO SS matrices at one time.
 NMat=     6 NSing=     6 JSym2X= 0.
 Root      1 not converged, maximum delta is    0.000126878472273
 Root      2 not converged, maximum delta is    0.000212365889048
 Root      3 not converged, maximum delta is    0.001183584118314
 Excitation Energies [eV] at current iteration:
 Root      1 :     2.074668085733320   Change is   -0.000000606245426
 Root      2 :     2.979239281009573   Change is   -0.000001152934693
 Root      3 :     3.325596308374898   Change is   -0.000001451313360
 Iteration     4 Dimension    24 NMult    18 NNew      6
 CISAX will form     6 AO SS matrices at one time.
 NMat=     6 NSing=     6 JSym2X= 0.
 Root      1 not converged, maximum delta is    0.000021132541611
 Root      2 not converged, maximum delta is    0.000093817120115
 Root      3 not converged, maximum delta is    0.000810594029092
 Excitation Energies [eV] at current iteration:
 Root      1 :     2.074668011023340   Change is   -0.000000074709979
 Root      2 :     2.979239082432358   Change is   -0.000000198577215
 Root      3 :     3.325595767487139   Change is   -0.000000540887759
 Iteration     5 Dimension    30 NMult    24 NNew      6
 CISAX will form     6 AO SS matrices at one time.
 NMat=     6 NSing=     6 JSym2X= 0.
 Root      1 not converged, maximum delta is    0.000008502772513
 Root      2 not converged, maximum delta is    0.000033454187738
 Root      3 not converged, maximum delta is    0.000106505306986
 Excitation Energies [eV] at current iteration:
 Root      1 :     2.074668002435540   Change is   -0.000000008587800
 Root      2 :     2.979239053418828   Change is   -0.000000029013530
 Root      3 :     3.325595702588355   Change is   -0.000000064898784
 Iteration     6 Dimension    36 NMult    30 NNew      6
 CISAX will form     6 AO SS matrices at one time.
 NMat=     6 NSing=     6 JSym2X= 0.
 Root      1 not converged, maximum delta is    0.000001894554419
 Root      2 not converged, maximum delta is    0.000008436175333
 Root      3 not converged, maximum delta is    0.000029170348717
 Excitation Energies [eV] at current iteration:
 Root      1 :     2.074668001232146   Change is   -0.000000001203394
 Root      2 :     2.979239049624369   Change is   -0.000000003794460
 Root      3 :     3.325595691762835   Change is   -0.000000010825520
 Iteration     7 Dimension    42 NMult    36 NNew      6
 CISAX will form     6 AO SS matrices at one time.
 NMat=     6 NSing=     6 JSym2X= 0.
 Root      1 has converged.
 Root      2 not converged, maximum delta is    0.000002332306684
 Root      3 not converged, maximum delta is    0.000005324300174
 Excitation Energies [eV] at current iteration:
 Root      1 :     2.074668001093460   Change is   -0.000000000138686
 Root      2 :     2.979239049091980   Change is   -0.000000000532388
 Root      3 :     3.325595689644634   Change is   -0.000000002118201
 Iteration     8 Dimension    46 NMult    42 NNew      4
 CISAX will form     4 AO SS matrices at one time.
 NMat=     4 NSing=     4 JSym2X= 0.
 Root      1 has converged.
 Root      2 has converged.
 Root      3 not converged, maximum delta is    0.000001214601565
 Excitation Energies [eV] at current iteration:
 Root      1 :     2.074668001092232   Change is   -0.000000000001228
 Root      2 :     2.979239049011269   Change is   -0.000000000080711
 Root      3 :     3.325595689326072   Change is   -0.000000000318562
 Iteration     9 Dimension    48 NMult    46 NNew      2
 CISAX will form     2 AO SS matrices at one time.
 NMat=     2 NSing=     2 JSym2X= 0.
 Root      1 has converged.
 Root      2 has converged.
 Root      3 not converged, maximum delta is    0.000001808422831
 Excitation Energies [eV] at current iteration:
 Root      1 :     2.074668001092312   Change is    0.000000000000079
 Root      2 :     2.979239049009531   Change is   -0.000000000001738
 Root      3 :     3.325595689268401   Change is   -0.000000000057671
 Iteration    10 Dimension    50 NMult    48 NNew      2
 CISAX will form     2 AO SS matrices at one time.
 NMat=     2 NSing=     2 JSym2X= 0.
 Root      1 has converged.
 Root      2 has converged.
 Root      3 has converged.
 Excitation Energies [eV] at current iteration:
 Root      1 :     2.074668001092193   Change is   -0.000000000000119
 Root      2 :     2.979239049009366   Change is   -0.000000000000165
 Root      3 :     3.325595689257970   Change is   -0.000000000010432
 Convergence achieved on expansion vectors.
 ***********************************************************************
 Excited states from <AA,BB:AA,BB> singles matrix:
 ***********************************************************************
 
 1PDM for each excited state written to RWF  633
 Ground to excited state transition densities written to RWF  633
 Ground to excited state transition electric dipole moments (Au):
       state          X           Y           Z        Dip. S.      Osc.
         1        -2.7022      0.0876      0.0545      7.3123      0.3717
         2         0.1782     -0.3083     -0.0134      0.1270      0.0093
         3         0.0576      0.0347      0.0063      0.0046      0.0004
 Ground to excited state transition velocity dipole moments (Au):
       state          X           Y           Z        Dip. S.      Osc.
         1         0.2097     -0.0062     -0.0043      0.0440      0.3849
         2        -0.0216      0.0379      0.0021      0.0019      0.0116
         3        -0.0054     -0.0054     -0.0005      0.0001      0.0003
 Ground to excited state transition magnetic dipole moments (Au):
       state          X           Y           Z
         1        -0.0150     -0.1629     -0.0361
         2         0.0047      0.0392     -0.1057
         3        -0.0139     -0.0311     -0.1832
 Ground to excited state transition velocity quadrupole moments (Au):
       state          XX          YY          ZZ          XY          XZ          YZ
         1         0.0329      0.0086      0.0052     -0.1241     -0.0337      0.0195
         2        -1.9437      0.2056      0.0007      0.1900      0.0374      0.0517
         3         0.0050      0.0176     -0.0075     -0.0553     -0.0166      0.0043
 <0|del|b> * <b|rxdel|0> + <0|del|b> * <b|delr+rdel|0>
 Rotatory Strengths (R) in cgs (10**-40 erg-esu-cm/Gauss)
       state          XX          YY          ZZ    R(velocity)    E-M Angle
         1         6.8973      2.6319    -27.9243     -6.1317       93.24
         2         0.7985     -5.9516     12.6723      2.5064       76.34
         3         0.5944      0.3467      1.0315      0.6575       76.21
 1/2[<0|r|b>*<b|rxdel|0> + (<0|rxdel|b>*<b|r|0>)*]
 Rotatory Strengths (R) in cgs (10**-40 erg-esu-cm/Gauss)
       state          XX          YY          ZZ     R(length)
         1       -28.7041     10.0915      1.3909     -5.7406
         2        -0.5867      8.5559     -1.0037      2.3218
         3         0.5651      0.7617      0.8153      0.7141
  1/2[<0|del|b>*<b|r|0> + (<0|r|b>*<b|del|0>)*] (Au)
       state          X           Y           Z        Dip. S.   Osc.(frdel)
         1        -0.5666     -0.0005     -0.0002      0.5673      0.3782
         2        -0.0038     -0.0117     -0.0000      0.0156      0.0104
         3        -0.0003     -0.0002     -0.0000      0.0005      0.0003

 Excitation energies and oscillator strengths:
 
 Excited State   1:      Singlet-A      2.0747 eV  597.61 nm  f=0.3717  <S**2>=0.000
     118 ->119         0.70183
 This state for optimization and/or second-order correction.
 Total Energy, E(TD-HF/TD-DFT) =  -1682.51839204    
 Copying the excited state density for this state as the 1-particle RhoCI density.
 
 Excited State   2:      Singlet-A      2.9792 eV  416.16 nm  f=0.0093  <S**2>=0.000
     117 ->119        -0.69755
 
 Excited State   3:      Singlet-A      3.3256 eV  372.82 nm  f=0.0004  <S**2>=0.000
     113 ->119         0.17033
     116 ->119         0.67944
 SavETr:  write IOETrn=   770 NScale= 10 NData=  16 NLR=1 NState=    3 LETran=      64.
 The selected state is a singlet.
 CISGrd: IGrad=2 NXY=2 DFT=T
 CISAX will form     1 AO SS matrices at one time.
 NMat=     1 NSing=     1 JSym2X= 0.
 Leave Link  914 at Thu Mar 14 09:50:06 2024, MaxMem= 32212254720 cpu:            3556.5 elap:             118.6
 (Enter /home/<user>/g16/l1002.exe)
 Minotr:  Closed shell wavefunction.
          Computing CIS/TDA/TD derivatives.
          Using Z-Vector for PSCF gradient.
          Skipping F1 and S1 gradient terms here.
          IDoAtm=11111111111111111111111111111111111111111111111111
          IDoAtm=11111111
          Frozen-core window.
          Direct CPHF calculation.
          Differentiating once with respect to electric field.
                with respect to dipole field.
          Differentiating once with respect to nuclear coordinates.
          Requested convergence is 1.0D-10 RMS, and 1.0D-09 maximum.
          NewPWx=F KeepS1=T KeepF1=T KeepIn=T MapXYZ=F SortEE=F KeepMc=T.
 Two-electron integral symmetry used by symmetrizing perturbed Fock matrices.
          MDV=   32212254720 using IRadAn=       5.
          Solving linear equations separately, MaxMat=     360.
          There are     1 degrees of freedom in the 1st order CPHF.  IDoFFX=0 NUNeed=     1.
 FoFJK:  IHMeth= 1 ICntrl=       0 DoSepK=F KAlg= 0 I1Cent=           0 FoldK=F
 IRaf= 580000000 NMat=       1 IRICut=       1 DoRegI=T DoRafI=F ISym2E=-1 IDoP0=0 IntGTp=1.
 FoFCou: FMM=F IPFlag=           0 FMFlag=      100000 FMFlg1=           0
         NFxFlg=           0 DoJE=F BraDBF=F KetDBF=F FulRan=T
         wScrn=  0.000000 ICntrl=         0 IOpCl=  0 I1Cent=           0 NGrid=           0
         NMat0=    1 NMatS0=      1 NMatT0=    0 NMatD0=    1 NMtDS0=    0 NMtDT0=    0
 Petite list used in FoFCou.
 LinEq1:  Iter=  0 NonCon=     1 RMS=6.31D-03 Max=7.01D-01 NDo=     1
 AX will form     1 AO Fock derivatives at one time.
 LinEq1:  Iter=  1 NonCon=     1 RMS=3.83D-03 Max=5.23D-01 NDo=     1
 LinEq1:  Iter=  2 NonCon=     1 RMS=3.15D-03 Max=3.93D-01 NDo=     1
 LinEq1:  Iter=  3 NonCon=     1 RMS=2.90D-03 Max=2.35D-01 NDo=     1
 LinEq1:  Iter=  4 NonCon=     1 RMS=2.66D-03 Max=2.03D-01 NDo=     1
 LinEq1:  Iter=  5 NonCon=     1 RMS=1.73D-03 Max=9.69D-02 NDo=     1
 LinEq1:  Iter=  6 NonCon=     1 RMS=1.13D-03 Max=5.19D-02 NDo=     1
 LinEq1:  Iter=  7 NonCon=     1 RMS=7.93D-04 Max=3.15D-02 NDo=     1
 LinEq1:  Iter=  8 NonCon=     1 RMS=5.79D-04 Max=3.44D-02 NDo=     1
 LinEq1:  Iter=  9 NonCon=     1 RMS=4.24D-04 Max=2.10D-02 NDo=     1
 LinEq1:  Iter= 10 NonCon=     1 RMS=2.69D-04 Max=1.26D-02 NDo=     1
 LinEq1:  Iter= 11 NonCon=     1 RMS=1.74D-04 Max=7.60D-03 NDo=     1
 LinEq1:  Iter= 12 NonCon=     1 RMS=1.15D-04 Max=6.39D-03 NDo=     1
 LinEq1:  Iter= 13 NonCon=     1 RMS=8.53D-05 Max=4.42D-03 NDo=     1
 LinEq1:  Iter= 14 NonCon=     1 RMS=5.62D-05 Max=2.09D-03 NDo=     1
 LinEq1:  Iter= 15 NonCon=     1 RMS=3.77D-05 Max=2.40D-03 NDo=     1
 LinEq1:  Iter= 16 NonCon=     1 RMS=1.86D-05 Max=1.24D-03 NDo=     1
 LinEq1:  Iter= 17 NonCon=     1 RMS=1.21D-05 Max=4.98D-04 NDo=     1
 LinEq1:  Iter= 18 NonCon=     1 RMS=6.87D-06 Max=4.20D-04 NDo=     1
 LinEq1:  Iter= 19 NonCon=     1 RMS=3.67D-06 Max=2.17D-04 NDo=     1
 LinEq1:  Iter= 20 NonCon=     1 RMS=2.00D-06 Max=9.79D-05 NDo=     1
 LinEq1:  Iter= 21 NonCon=     1 RMS=1.41D-06 Max=5.84D-05 NDo=     1
 LinEq1:  Iter= 22 NonCon=     1 RMS=7.80D-07 Max=3.88D-05 NDo=     1
 LinEq1:  Iter= 23 NonCon=     1 RMS=4.66D-07 Max=1.97D-05 NDo=     1
 LinEq1:  Iter= 24 NonCon=     1 RMS=2.48D-07 Max=1.09D-05 NDo=     1
 LinEq1:  Iter= 25 NonCon=     1 RMS=1.62D-07 Max=5.76D-06 NDo=     1
 LinEq1:  Iter= 26 NonCon=     1 RMS=7.37D-08 Max=3.04D-06 NDo=     1
 LinEq1:  Iter= 27 NonCon=     1 RMS=4.12D-08 Max=1.70D-06 NDo=     1
 LinEq1:  Iter= 28 NonCon=     1 RMS=2.13D-08 Max=6.83D-07 NDo=     1
 LinEq1:  Iter= 29 NonCon=     1 RMS=9.42D-09 Max=4.01D-07 NDo=     1
 LinEq1:  Iter= 30 NonCon=     1 RMS=5.46D-09 Max=2.40D-07 NDo=     1
 LinEq1:  Iter= 31 NonCon=     1 RMS=2.95D-09 Max=1.10D-07 NDo=     1
 LinEq1:  Iter= 32 NonCon=     1 RMS=1.61D-09 Max=6.23D-08 NDo=     1
 LinEq1:  Iter= 33 NonCon=     1 RMS=9.20D-10 Max=3.97D-08 NDo=     1
 LinEq1:  Iter= 34 NonCon=     1 RMS=5.10D-10 Max=1.95D-08 NDo=     1
 LinEq1:  Iter= 35 NonCon=     1 RMS=2.90D-10 Max=1.21D-08 NDo=     1
 LinEq1:  Iter= 36 NonCon=     1 RMS=1.33D-10 Max=4.43D-09 NDo=     1
 LinEq1:  Iter= 37 NonCon=     1 RMS=6.78D-11 Max=2.08D-09 NDo=     1
 LinEq1:  Iter= 38 NonCon=     0 RMS=2.71D-11 Max=6.96D-10 NDo=     1
 Linear equations converged to 1.000D-10 1.000D-09 after    38 iterations.
 End of Minotr F.D. properties file   721 does not exist.
 End of Minotr F.D. properties file   722 does not exist.
 End of Minotr F.D. properties file   788 does not exist.
 Leave Link 1002 at Thu Mar 14 09:51:42 2024, MaxMem= 32212254720 cpu:            2859.9 elap:              96.3
 (Enter /home/<user>/g16/l701.exe)
 ... and contract with generalized density number  6.
 Compute integral first derivatives.
 Leave Link  701 at Thu Mar 14 09:51:43 2024, MaxMem= 32212254720 cpu:               6.0 elap:               0.2
 (Enter /home/<user>/g16/l702.exe)
 L702 exits ... SP integral derivatives will be done elsewhere.
 Leave Link  702 at Thu Mar 14 09:51:43 2024, MaxMem= 32212254720 cpu:               0.9 elap:               0.0
 (Enter /home/<user>/g16/l703.exe)
 Integral derivatives from FoFJK, PRISM(SPDF).
 Compute integral first derivatives, UseDBF=F ICtDFT=           0.
 Calling FoFJK, ICntrl=  10005127 FMM=F ISym2X=0 I1Cent= 0 IOpClX= 0 NMat=1 NMatS=1 NMatT=0.
 FoFJK:  IHMeth= 1 ICntrl=10005127 DoSepK=F KAlg= 0 I1Cent=           0 FoldK=F
 IRaf=         0 NMat=       1 IRICut=       1 DoRegI=T DoRafI=F ISym2E= 0 IDoP0=0 IntGTp=1.
 FoFCou: FMM=F IPFlag=           0 FMFlag=      100000 FMFlg1=         800
         NFxFlg=           0 DoJE=F BraDBF=F KetDBF=F FulRan=T
         wScrn=  0.000000 ICntrl=  10005127 IOpCl=  0 I1Cent=           0 NGrid=           0
         NMat0=    1 NMatS0=      1 NMatT0=    0 NMatD0=    1 NMtDS0=    0 NMtDT0=    0
 Symmetry not used in FoFCou.
 Leave Link  703 at Thu Mar 14 09:51:51 2024, MaxMem= 32212254720 cpu:             237.1 elap:               7.9
 (Enter /home/<user>/g16/l716.exe)
 Dipole        =-1.96265986D+00-1.72653065D+00-8.72260990D-02
 ***** Axes restored to original set *****
 -------------------------------------------------------------------
 Center     Atomic                   Forces (Hartrees/Bohr)
 Number     Number              X              Y              Z
 -------------------------------------------------------------------
      1        6          -0.000110016    0.000056894    0.000019828
      2        6           0.000124583   -0.000020270   -0.000112496
      3        6          -0.000165732   -0.000019249    0.000015314
      4        6           0.000109677   -0.000025472    0.000026327
      5        6          -0.000145837   -0.000042936    0.000014776
      6        6           0.000094360    0.000017383    0.000001195
      7        1           0.000001256   -0.000021318    0.000017575
      8        1           0.000055337    0.000031148   -0.000022331
      9        1          -0.000012756   -0.000024305   -0.000010543
     10        6          -0.000015859    0.000086707   -0.000001495
     11        6          -0.000082671   -0.000038807    0.000011850
     12        6           0.000006736    0.000039305   -0.000008065
     13        6          -0.000005097    0.000001061   -0.000002064
     14        6           0.000018723   -0.000017222    0.000001161
     15        6          -0.000041593    0.000001992    0.000010058
     16        6           0.000166904   -0.000005247   -0.000011305
     17        1          -0.000012930    0.000000889   -0.000000055
     18        1          -0.000002233    0.000003082   -0.000000096
     19        1          -0.000011717   -0.000010062    0.000002661
     20        1           0.000009180   -0.000005809    0.000002571
     21        6          -0.000001470    0.000014396   -0.000006775
     22        1          -0.000002264   -0.000002069    0.000001045
     23        1           0.000004437   -0.000001753    0.000002978
     24        1           0.000002420   -0.000005899   -0.000003183
     25        6          -0.000004480    0.000008117   -0.000012999
     26        1           0.000005366   -0.000008001   -0.000002837
     27        1           0.000001788   -0.000005569   -0.000002750
     28        1           0.000000072   -0.000003939    0.000005261
     29        6           0.000178747    0.000175708    0.000107303
     30        6          -0.000110136   -0.000251454   -0.000026000
     31        6           0.000044636   -0.000148545    0.000027704
     32        6           0.000003670   -0.000293664   -0.000089157
     33        6          -0.000054590   -0.000152240    0.000002893
     34        1          -0.000053387    0.000063779   -0.000008657
     35        6          -0.000064488    0.000090530    0.000012054
     36        1           0.000077125    0.000042477    0.000003330
     37        7           0.000186181    0.000119291    0.000002248
     38        7          -0.000321635    0.000206553    0.000098251
     39       16          -0.000058635    0.000258213    0.000020919
     40        6          -0.000094131   -0.000023558    0.000018485
     41        6           0.000211020    0.000082114   -0.000075347
     42        6           0.000108264   -0.000070436   -0.000014880
     43        6          -0.000030478   -0.000010087    0.000019067
     44        1           0.000066260   -0.000102839   -0.000001647
     45        6          -0.000053276   -0.000009681   -0.000000645
     46        1          -0.000040962    0.000021761   -0.000030835
     47        6          -0.000008597    0.000009356    0.000009236
     48        1           0.000011421   -0.000020752   -0.000012703
     49        1           0.000019903    0.000012405    0.000000778
     50        6          -0.000014772   -0.000012609   -0.000008337
     51        1           0.000002184    0.000000775    0.000001800
     52        1           0.000002225   -0.000001579    0.000001794
     53        6           0.000016922    0.000003710    0.000014794
     54        1          -0.000000805    0.000000565   -0.000006524
     55        1           0.000001462    0.000003741    0.000003714
     56        7          -0.000003941    0.000014678   -0.000013060
     57        1          -0.000000303    0.000000222    0.000008602
     58        1          -0.000006066   -0.000011484   -0.000000785
 -------------------------------------------------------------------
 Cartesian Forces:  Max     0.000321635 RMS     0.000071177
 Leave Link  716 at Thu Mar 14 09:51:51 2024, MaxMem= 32212254720 cpu:               1.6 elap:               0.1
 (Enter /home/<user>/g16/l103.exe)

 GradGradGradGradGradGradGradGradGradGradGradGradGradGradGradGradGradGrad
 Berny optimization.
 Using GEDIIS/GDIIS optimizer.
 FormGI is forming the generalized inverse of G from B-inverse, IUseBI=4.
 GSVD:  received Info=                   1 from GESDD.
 Internal  Forces:  Max     0.000529870 RMS     0.000071967
 Search for a local minimum.
 Step number   7 out of a maximum of  346
 All quantities printed in internal units (Hartrees-Bohrs-Radians)
 RMS Force = .71967D-04 SwitMx=.10000D-02 MixMth= 2
 Mixed Optimization -- En-DIIS/RFO-DIIS
 Swapping is turned off.
 Update second derivatives using D2CorX and points    2    3    4    5    6
                                                      7
 DE= -3.11D-06 DEPred=-6.32D-06 R= 4.92D-01
 Trust test= 4.92D-01 RLast= 1.30D-02 DXMaxT set to 8.00D-01
 ITU=  0  1  1  1  1  1  0
     Eigenvalues ---    0.00230   0.00230   0.00250   0.00606   0.00733
     Eigenvalues ---    0.00755   0.00863   0.01050   0.01252   0.01452
     Eigenvalues ---    0.01472   0.01587   0.01627   0.01640   0.01654
     Eigenvalues ---    0.01685   0.01722   0.01733   0.01830   0.01859
     Eigenvalues ---    0.01886   0.01941   0.02026   0.02040   0.02052
     Eigenvalues ---    0.02075   0.02089   0.02090   0.02094   0.02094
     Eigenvalues ---    0.02112   0.02119   0.02120   0.02125   0.02134
     Eigenvalues ---    0.02135   0.02142   0.02145   0.02150   0.02156
     Eigenvalues ---    0.02161   0.02168   0.02273   0.02312   0.04059
     Eigenvalues ---    0.04285   0.04377   0.04466   0.05419   0.05423
     Eigenvalues ---    0.05438   0.05511   0.05512   0.05561   0.06001
     Eigenvalues ---    0.08058   0.08950   0.09258   0.11576   0.12395
     Eigenvalues ---    0.12598   0.12818   0.15386   0.15972   0.15996
     Eigenvalues ---    0.15999   0.16000   0.16000   0.16000   0.16000
     Eigenvalues ---    0.16000   0.16000   0.16000   0.16000   0.16000
     Eigenvalues ---    0.16000   0.16000   0.16001   0.16003   0.16013
     Eigenvalues ---    0.16028   0.16054   0.19095   0.20893   0.21881
     Eigenvalues ---    0.21957   0.21997   0.22021   0.22315   0.22501
     Eigenvalues ---    0.22599   0.22983   0.23422   0.24090   0.24410
     Eigenvalues ---    0.24586   0.24702   0.24974   0.24979   0.24990
     Eigenvalues ---    0.24998   0.25025   0.26249   0.28057   0.28113
     Eigenvalues ---    0.28585   0.28613   0.29009   0.31159   0.33128
     Eigenvalues ---    0.33728   0.33785   0.34027   0.34089   0.34098
     Eigenvalues ---    0.34104   0.34105   0.34130   0.34275   0.34288
     Eigenvalues ---    0.34489   0.34702   0.35033   0.35049   0.35084
     Eigenvalues ---    0.35102   0.35151   0.35158   0.35178   0.35186
     Eigenvalues ---    0.35191   0.35257   0.35318   0.35449   0.35817
     Eigenvalues ---    0.36131   0.36324   0.36538   0.37311   0.37713
     Eigenvalues ---    0.38157   0.40665   0.41354   0.41548   0.41596
     Eigenvalues ---    0.42078   0.42483   0.42611   0.43451   0.44362
     Eigenvalues ---    0.44490   0.44526   0.44788   0.44856   0.44984
     Eigenvalues ---    0.45801   0.45903   0.46108   0.46149   0.46594
     Eigenvalues ---    0.46963   0.47045   0.47152   0.47926   0.53677
     Eigenvalues ---    0.54572   0.58868   0.66738
 En-DIIS/RFO-DIIS/Sim-DIIS IScMMF=       -3 using points:     7    6    5    4    3
 RFO step:  Lambda=-3.89214783D-06.
 NNeg= 0 NGDIIS= 5 SimSw=  2.50D-01 Rises=F DC= -3.11D-06 SmlDif=  1.00D-05
 NRisDI= 0 DoIntr=F SqrtH=F CThrHd= 10.0 CDAdj=  3.0
 RMS Error=  0.3107387837D-03 NUsed= 5 OKEnD=F EnDIS=F
 InvSVX:  RCond= 2.84D-05 Info=           0 Equed=N FErr=  3.70D-15 BErr=  4.03D-17
 DidBck=F Rises=F RFO-DIIS coefs:    0.86027    0.20466   -0.10406    0.04822   -0.00910
 Iteration  1 RMS(Cart)=  0.00175916 RMS(Int)=  0.00000109
 Iteration  2 RMS(Cart)=  0.00000201 RMS(Int)=  0.00000048
 Iteration  3 RMS(Cart)=  0.00000000 RMS(Int)=  0.00000048
 ITry= 1 IFail=0 DXMaxC= 8.59D-03 DCOld= 1.00D+10 DXMaxT= 8.00D-01 DXLimC= 3.00D+00 Rises=F
 Variable       Old X    -DE/DX   Delta X   Delta X   Delta X     New X
                                 (Linear)    (Quad)   (Total)
    R1        2.70112   0.00004  -0.00005   0.00018   0.00013   2.70125
    R2        2.61477  -0.00005  -0.00003  -0.00003  -0.00006   2.61471
    R3        2.04327  -0.00002   0.00005  -0.00012  -0.00008   2.04319
    R4        2.69871   0.00005   0.00004   0.00009   0.00013   2.69884
    R5        2.75531   0.00001   0.00004   0.00004   0.00007   2.75538
    R6        2.60053  -0.00003   0.00001  -0.00004  -0.00003   2.60049
    R7        2.04947  -0.00001  -0.00003  -0.00002  -0.00005   2.04942
    R8        2.68318  -0.00001  -0.00002   0.00001  -0.00001   2.68317
    R9        2.88963   0.00001  -0.00001   0.00002   0.00001   2.88964
   R10        2.65263   0.00002   0.00001   0.00002   0.00003   2.65265
   R11        2.73952  -0.00009  -0.00003  -0.00013  -0.00016   2.73936
   R12        2.05359  -0.00001  -0.00000  -0.00003  -0.00003   2.05356
   R13        2.88698   0.00001  -0.00000   0.00003   0.00002   2.88700
   R14        2.92079  -0.00001   0.00001  -0.00005  -0.00004   2.92076
   R15        2.92010   0.00002   0.00001   0.00001   0.00001   2.92012
   R16        2.62322   0.00000   0.00001   0.00001   0.00001   2.62323
   R17        2.67760  -0.00001  -0.00001   0.00000  -0.00001   2.67759
   R18        2.64766  -0.00002  -0.00002  -0.00001  -0.00003   2.64763
   R19        2.05432   0.00000   0.00000  -0.00001  -0.00000   2.05432
   R20        2.65138  -0.00003  -0.00001  -0.00003  -0.00004   2.65134
   R21        2.05322   0.00000   0.00000   0.00000   0.00001   2.05322
   R22        2.63016  -0.00000   0.00000   0.00001   0.00001   2.63017
   R23        2.05275   0.00000   0.00000  -0.00000   0.00000   2.05276
   R24        2.65161   0.00003   0.00001   0.00003   0.00004   2.65166
   R25        2.05306  -0.00000   0.00000  -0.00002  -0.00002   2.05304
   R26        2.07115   0.00000  -0.00000   0.00001   0.00001   2.07115
   R27        2.07070   0.00000   0.00000   0.00001   0.00001   2.07070
   R28        2.06829  -0.00001  -0.00000  -0.00001  -0.00001   2.06827
   R29        2.07081   0.00001   0.00000   0.00001   0.00001   2.07082
   R30        2.07110   0.00000  -0.00000   0.00000   0.00000   2.07110
   R31        2.06849  -0.00001  -0.00000  -0.00001  -0.00001   2.06847
   R32        2.71982  -0.00019  -0.00032   0.00006  -0.00026   2.71956
   R33        2.68401   0.00003   0.00005   0.00007   0.00012   2.68413
   R34        2.72597  -0.00004   0.00002  -0.00012  -0.00010   2.72587
   R35        2.55410   0.00019   0.00001   0.00019   0.00020   2.55430
   R36        2.61169  -0.00002   0.00002  -0.00011  -0.00009   2.61160
   R37        2.04849  -0.00002  -0.00007   0.00002  -0.00005   2.04844
   R38        2.72237   0.00022   0.00003   0.00025   0.00028   2.72265
   R39        2.55122   0.00022   0.00001   0.00023   0.00024   2.55146
   R40        2.67892   0.00008   0.00001   0.00020   0.00021   2.67914
   R41        2.04812  -0.00001  -0.00001  -0.00006  -0.00007   2.04805
   R42        2.76280   0.00020   0.00012   0.00026   0.00038   2.76318
   R43        3.18637  -0.00009   0.00017  -0.00031  -0.00014   3.18623
   R44        3.17923   0.00006   0.00022  -0.00016   0.00006   3.17928
   R45        2.67909   0.00019   0.00005   0.00024   0.00029   2.67938
   R46        2.68181   0.00006  -0.00001   0.00019   0.00018   2.68199
   R47        2.62326  -0.00001   0.00001  -0.00002  -0.00001   2.62325
   R48        2.04378  -0.00012  -0.00005  -0.00015  -0.00019   2.04358
   R49        2.61869  -0.00005  -0.00001  -0.00006  -0.00007   2.61861
   R50        2.04987   0.00000   0.00002  -0.00007  -0.00005   2.04982
   R51        2.65267  -0.00003  -0.00002  -0.00003  -0.00004   2.65262
   R52        2.05606  -0.00000  -0.00000  -0.00001  -0.00001   2.05604
   R53        2.65682  -0.00004  -0.00002  -0.00005  -0.00007   2.65675
   R54        2.05581  -0.00000  -0.00000  -0.00000  -0.00001   2.05580
   R55        2.85017  -0.00000   0.00001  -0.00003  -0.00001   2.85015
   R56        2.07102  -0.00000   0.00000  -0.00000  -0.00000   2.07102
   R57        2.07652  -0.00000  -0.00000  -0.00000  -0.00000   2.07651
   R58        2.91331   0.00001  -0.00001   0.00004   0.00004   2.91335
   R59        2.08732  -0.00000  -0.00000  -0.00000  -0.00000   2.08732
   R60        2.07251  -0.00000   0.00000  -0.00000  -0.00000   2.07251
   R61        2.77039  -0.00001   0.00001  -0.00004  -0.00002   2.77036
   R62        1.92710  -0.00001   0.00000  -0.00001  -0.00001   1.92709
   R63        1.92529  -0.00000   0.00000  -0.00001  -0.00001   1.92528
    A1        2.12377   0.00001   0.00002   0.00005   0.00007   2.12384
    A2        2.05850  -0.00002  -0.00012   0.00001  -0.00011   2.05839
    A3        2.10088   0.00001   0.00010  -0.00007   0.00004   2.10092
    A4        2.05245  -0.00005  -0.00003  -0.00018  -0.00021   2.05223
    A5        2.12632   0.00004  -0.00046   0.00062   0.00015   2.12647
    A6        2.10439   0.00001   0.00050  -0.00044   0.00006   2.10445
    A7        2.10659   0.00003   0.00001   0.00012   0.00013   2.10671
    A8        2.08832  -0.00008  -0.00004  -0.00027  -0.00031   2.08800
    A9        2.08748   0.00005   0.00003   0.00015   0.00018   2.08766
   A10        2.10415  -0.00000   0.00000   0.00002   0.00002   2.10418
   A11        2.24692   0.00005   0.00007   0.00008   0.00016   2.24708
   A12        1.93208  -0.00004  -0.00008  -0.00010  -0.00018   1.93190
   A13        2.09238  -0.00002  -0.00003  -0.00006  -0.00009   2.09229
   A14        1.89810   0.00003   0.00005   0.00005   0.00009   1.89819
   A15        2.29267  -0.00001  -0.00002   0.00001  -0.00001   2.29266
   A16        2.08684   0.00003   0.00002   0.00006   0.00008   2.08692
   A17        2.08942   0.00001   0.00007  -0.00002   0.00004   2.08946
   A18        2.10692  -0.00003  -0.00009  -0.00003  -0.00012   2.10680
   A19        1.76223   0.00003   0.00008   0.00009   0.00017   1.76239
   A20        1.94485  -0.00001  -0.00002  -0.00002  -0.00004   1.94481
   A21        1.94570  -0.00001  -0.00002  -0.00004  -0.00006   1.94564
   A22        1.94262  -0.00001  -0.00001  -0.00000  -0.00001   1.94261
   A23        1.94380  -0.00001  -0.00001  -0.00003  -0.00004   1.94376
   A24        1.92038   0.00001  -0.00002   0.00002  -0.00000   1.92038
   A25        2.25074   0.00004   0.00004   0.00010   0.00014   2.25088
   A26        1.93683  -0.00005  -0.00007  -0.00011  -0.00018   1.93665
   A27        2.09562   0.00001   0.00002   0.00002   0.00004   2.09566
   A28        2.07844   0.00001   0.00001   0.00002   0.00004   2.07847
   A29        2.11150   0.00001   0.00002   0.00003   0.00004   2.11154
   A30        2.09325  -0.00002  -0.00003  -0.00005  -0.00008   2.09317
   A31        2.10963  -0.00001  -0.00003  -0.00002  -0.00005   2.10958
   A32        2.08735   0.00001   0.00002   0.00002   0.00004   2.08739
   A33        2.08621   0.00000   0.00000   0.00000   0.00001   2.08621
   A34        2.10363   0.00001   0.00001   0.00001   0.00002   2.10365
   A35        2.08772  -0.00002  -0.00004  -0.00004  -0.00008   2.08764
   A36        2.09183   0.00001   0.00003   0.00002   0.00006   2.09189
   A37        2.07231   0.00001   0.00003   0.00002   0.00005   2.07236
   A38        2.10377   0.00000   0.00002   0.00000   0.00002   2.10379
   A39        2.10710  -0.00002  -0.00005  -0.00002  -0.00007   2.10703
   A40        1.89549   0.00003   0.00002   0.00008   0.00010   1.89559
   A41        2.28096  -0.00000   0.00002  -0.00003  -0.00001   2.28095
   A42        2.10674  -0.00003  -0.00005  -0.00005  -0.00010   2.10664
   A43        1.93089  -0.00000   0.00000  -0.00001  -0.00001   1.93089
   A44        1.92994   0.00000  -0.00000   0.00001   0.00001   1.92995
   A45        1.94104   0.00000  -0.00001   0.00002   0.00001   1.94105
   A46        1.88248  -0.00000   0.00001  -0.00001  -0.00000   1.88248
   A47        1.88968  -0.00000   0.00001  -0.00000   0.00000   1.88968
   A48        1.88800  -0.00000   0.00000  -0.00001  -0.00001   1.88799
   A49        1.92949   0.00001  -0.00000   0.00002   0.00002   1.92951
   A50        1.93144   0.00001  -0.00000   0.00002   0.00002   1.93146
   A51        1.94138   0.00000  -0.00001   0.00002   0.00001   1.94139
   A52        1.88195  -0.00001   0.00000  -0.00003  -0.00003   1.88192
   A53        1.88841  -0.00000   0.00001  -0.00002  -0.00001   1.88840
   A54        1.88934  -0.00000   0.00000  -0.00002  -0.00001   1.88933
   A55        2.16104  -0.00004  -0.00051   0.00045  -0.00006   2.16098
   A56        2.08745  -0.00005   0.00045  -0.00056  -0.00010   2.08735
   A57        2.03467   0.00009   0.00005   0.00011   0.00016   2.03483
   A58        2.10425   0.00003   0.00009  -0.00006   0.00003   2.10428
   A59        2.18068  -0.00003  -0.00045   0.00050   0.00005   2.18073
   A60        1.99766  -0.00000   0.00036  -0.00044  -0.00008   1.99759
   A61        2.14380  -0.00004  -0.00008  -0.00003  -0.00011   2.14369
   A62        2.08150  -0.00006  -0.00013  -0.00009  -0.00022   2.08128
   A63        2.05611   0.00010   0.00020   0.00009   0.00029   2.05640
   A64        2.10930  -0.00003  -0.00006   0.00003  -0.00003   2.10927
   A65        2.00056  -0.00031  -0.00001  -0.00065  -0.00066   1.99990
   A66        2.17284   0.00034   0.00006   0.00062   0.00068   2.17352
   A67        2.13758   0.00001   0.00003   0.00000   0.00003   2.13761
   A68        2.06304   0.00008   0.00026  -0.00004   0.00022   2.06326
   A69        2.08112  -0.00010  -0.00029   0.00002  -0.00027   2.08085
   A70        2.03592  -0.00005  -0.00002  -0.00005  -0.00007   2.03585
   A71        2.15553   0.00053   0.00046   0.00041   0.00087   2.15640
   A72        2.09172  -0.00048  -0.00044  -0.00036  -0.00080   2.09092
   A73        1.84714   0.00023  -0.00041   0.00102   0.00061   1.84775
   A74        1.84848   0.00035  -0.00022   0.00109   0.00087   1.84935
   A75        1.73078  -0.00027   0.00027  -0.00103  -0.00076   1.73002
   A76        2.13663   0.00046   0.00031   0.00049   0.00081   2.13743
   A77        2.10609  -0.00033  -0.00027  -0.00021  -0.00048   2.10560
   A78        2.04037  -0.00012  -0.00005  -0.00028  -0.00033   2.04004
   A79        2.11143  -0.00000  -0.00000   0.00007   0.00007   2.11150
   A80        2.07241   0.00003   0.00002   0.00002   0.00004   2.07245
   A81        2.09935  -0.00003  -0.00002  -0.00009  -0.00011   2.09924
   A82        2.12108   0.00009   0.00006   0.00018   0.00024   2.12131
   A83        2.09088  -0.00009  -0.00011  -0.00015  -0.00026   2.09062
   A84        2.07050   0.00001   0.00005  -0.00004   0.00001   2.07052
   A85        2.12491   0.00003   0.00002   0.00006   0.00008   2.12499
   A86        2.07740   0.00001   0.00002   0.00003   0.00005   2.07745
   A87        2.08087  -0.00004  -0.00004  -0.00008  -0.00013   2.08074
   A88        2.11569  -0.00000  -0.00002  -0.00001  -0.00003   2.11566
   A89        2.08472   0.00002   0.00003   0.00009   0.00012   2.08485
   A90        2.08277  -0.00002  -0.00001  -0.00008  -0.00009   2.08268
   A91        2.05272   0.00001  -0.00000  -0.00002  -0.00002   2.05270
   A92        2.11876   0.00000   0.00000   0.00003   0.00003   2.11879
   A93        2.11100  -0.00001   0.00000  -0.00000   0.00000   2.11100
   A94        1.93360   0.00000   0.00001   0.00000   0.00001   1.93362
   A95        1.91528   0.00000  -0.00000   0.00002   0.00001   1.91529
   A96        1.96525   0.00000  -0.00001   0.00001   0.00001   1.96525
   A97        1.86737  -0.00000   0.00000  -0.00000  -0.00000   1.86737
   A98        1.88270   0.00000  -0.00000   0.00000   0.00000   1.88270
   A99        1.89656  -0.00000   0.00000  -0.00004  -0.00004   1.89653
   A100       1.89919  -0.00000  -0.00000  -0.00000  -0.00000   1.89919
   A101       1.90042   0.00000   0.00000  -0.00001  -0.00001   1.90041
   A102       1.92111  -0.00000  -0.00000  -0.00000  -0.00001   1.92110
   A103       1.85952  -0.00000   0.00000  -0.00000   0.00000   1.85952
   A104       1.99775   0.00000   0.00000   0.00002   0.00002   1.99777
   A105       1.88296   0.00000  -0.00000  -0.00000  -0.00000   1.88296
   A106       1.91241   0.00000  -0.00002   0.00004   0.00003   1.91244
   A107       1.91452  -0.00000  -0.00001   0.00001  -0.00000   1.91452
   A108       1.84848   0.00000  -0.00001   0.00004   0.00003   1.84850
    D1       -0.02125  -0.00001  -0.00044   0.00015  -0.00030  -0.02155
    D2        3.11212   0.00001   0.00025   0.00034   0.00059   3.11271
    D3        3.11111  -0.00001  -0.00051   0.00016  -0.00035   3.11076
    D4       -0.03871   0.00001   0.00018   0.00035   0.00054  -0.03817
    D5        0.01457   0.00001   0.00024   0.00013   0.00037   0.01494
    D6       -3.13051   0.00001   0.00018   0.00011   0.00029  -3.13022
    D7       -3.11757   0.00001   0.00031   0.00012   0.00043  -3.11714
    D8        0.02053   0.00001   0.00025   0.00010   0.00035   0.02089
    D9        0.01185   0.00000   0.00036  -0.00033   0.00003   0.01188
   D10       -3.08660  -0.00000   0.00052  -0.00041   0.00011  -3.08650
   D11       -3.12163  -0.00002  -0.00032  -0.00053  -0.00085  -3.12248
   D12        0.06311  -0.00002  -0.00016  -0.00061  -0.00077   0.06234
   D13        0.34807  -0.00003  -0.00105  -0.00076  -0.00181   0.34625
   D14       -2.78579  -0.00002  -0.00055  -0.00051  -0.00106  -2.78684
   D15       -2.80199  -0.00001  -0.00034  -0.00056  -0.00090  -2.80289
   D16        0.34734  -0.00000   0.00017  -0.00031  -0.00014   0.34720
   D17        0.00377   0.00000  -0.00008   0.00024   0.00016   0.00393
   D18       -3.12914   0.00000   0.00001  -0.00004  -0.00003  -3.12917
   D19        3.10225   0.00000  -0.00025   0.00031   0.00006   3.10231
   D20       -0.03067  -0.00000  -0.00015   0.00003  -0.00012  -0.03079
   D21       -0.01093  -0.00000  -0.00013   0.00004  -0.00009  -0.01102
   D22        3.13956  -0.00000  -0.00001  -0.00010  -0.00010   3.13946
   D23        3.12342   0.00000  -0.00021   0.00028   0.00007   3.12349
   D24       -0.00927   0.00000  -0.00009   0.00014   0.00005  -0.00922
   D25       -3.14025   0.00000  -0.00000   0.00012   0.00012  -3.14013
   D26        1.07872   0.00000  -0.00003   0.00009   0.00006   1.07877
   D27       -1.07430  -0.00000   0.00002   0.00011   0.00013  -1.07416
   D28        0.00933  -0.00000   0.00009  -0.00014  -0.00005   0.00928
   D29       -2.05489  -0.00000   0.00006  -0.00017  -0.00011  -2.05500
   D30        2.07528  -0.00000   0.00011  -0.00015  -0.00004   2.07525
   D31        0.00175  -0.00000   0.00005  -0.00023  -0.00017   0.00157
   D32       -3.13632  -0.00000   0.00011  -0.00021  -0.00009  -3.13642
   D33        3.13211  -0.00000  -0.00010  -0.00005  -0.00016   3.13196
   D34       -0.00596  -0.00000  -0.00005  -0.00003  -0.00008  -0.00603
   D35        0.00499  -0.00000   0.00005  -0.00008  -0.00003   0.00496
   D36       -3.13659  -0.00000   0.00001  -0.00013  -0.00011  -3.13671
   D37       -3.12632  -0.00000   0.00019  -0.00024  -0.00005  -3.12637
   D38        0.01528  -0.00000   0.00016  -0.00029  -0.00013   0.01515
   D39        3.13614   0.00000  -0.00003   0.00005   0.00002   3.13616
   D40       -0.00624   0.00000  -0.00006   0.00009   0.00003  -0.00621
   D41       -1.08121  -0.00000  -0.00002   0.00008   0.00006  -1.08115
   D42        2.05959  -0.00000  -0.00004   0.00011   0.00007   2.05966
   D43        1.06881   0.00000  -0.00005   0.00007   0.00002   1.06883
   D44       -2.07357   0.00000  -0.00008   0.00011   0.00003  -2.07354
   D45        3.07506   0.00001   0.00004  -0.00000   0.00004   3.07510
   D46       -1.12367   0.00001   0.00005  -0.00001   0.00004  -1.12363
   D47        0.97432   0.00001   0.00004  -0.00001   0.00004   0.97435
   D48        1.12260  -0.00001  -0.00004  -0.00009  -0.00013   1.12247
   D49       -3.07613  -0.00001  -0.00003  -0.00011  -0.00013  -3.07626
   D50       -0.97814  -0.00001  -0.00003  -0.00010  -0.00014  -0.97828
   D51       -1.04076  -0.00000  -0.00001  -0.00006  -0.00007  -1.04083
   D52        1.04369  -0.00000   0.00001  -0.00007  -0.00007   1.04362
   D53       -3.14150  -0.00000  -0.00000  -0.00007  -0.00007  -3.14157
   D54        1.12463  -0.00001  -0.00005  -0.00015  -0.00020   1.12443
   D55       -3.07470  -0.00001  -0.00005  -0.00016  -0.00021  -3.07491
   D56       -0.97380  -0.00001  -0.00005  -0.00015  -0.00021  -0.97400
   D57        3.07827   0.00001   0.00003  -0.00009  -0.00006   3.07821
   D58       -1.12106   0.00001   0.00003  -0.00010  -0.00007  -1.12113
   D59        0.97984   0.00001   0.00003  -0.00009  -0.00006   0.97977
   D60       -1.04224   0.00000   0.00000  -0.00011  -0.00010  -1.04235
   D61        1.04161   0.00000   0.00000  -0.00011  -0.00011   1.04150
   D62       -3.14067   0.00000  -0.00000  -0.00011  -0.00011  -3.14078
   D63        3.14044   0.00000  -0.00003   0.00004   0.00001   3.14045
   D64       -0.00053  -0.00000  -0.00002   0.00002  -0.00001  -0.00054
   D65       -0.00030   0.00000  -0.00000  -0.00000  -0.00000  -0.00030
   D66       -3.14127  -0.00000   0.00001  -0.00002  -0.00002  -3.14129
   D67        0.00119   0.00000   0.00001  -0.00002  -0.00000   0.00119
   D68       -3.14041   0.00000   0.00004   0.00003   0.00007  -3.14034
   D69       -3.14111   0.00000  -0.00001   0.00002   0.00001  -3.14111
   D70        0.00047   0.00000   0.00002   0.00006   0.00008   0.00055
   D71       -0.00000  -0.00000  -0.00001  -0.00003  -0.00004  -0.00005
   D72       -3.14128  -0.00000   0.00000  -0.00000  -0.00000  -3.14129
   D73        3.14097  -0.00000  -0.00002  -0.00001  -0.00003   3.14094
   D74       -0.00031   0.00000  -0.00001   0.00002   0.00001  -0.00030
   D75        0.00014   0.00000   0.00001   0.00000   0.00001   0.00015
   D76       -3.14137   0.00000   0.00001   0.00002   0.00003  -3.14133
   D77        3.14142  -0.00000  -0.00000  -0.00003  -0.00003   3.14139
   D78       -0.00009  -0.00000   0.00000  -0.00001  -0.00001  -0.00009
   D79        0.00003   0.00000   0.00001   0.00006   0.00007   0.00009
   D80       -3.14153   0.00000   0.00001   0.00001   0.00002  -3.14151
   D81        3.14154   0.00000   0.00000   0.00004   0.00004   3.14158
   D82       -0.00002  -0.00000   0.00001  -0.00001  -0.00000  -0.00002
   D83        3.14125  -0.00000   0.00002  -0.00004  -0.00002   3.14123
   D84       -0.00033  -0.00000  -0.00002  -0.00009  -0.00011  -0.00044
   D85       -0.00038   0.00000   0.00001   0.00002   0.00003  -0.00035
   D86        3.14122  -0.00000  -0.00003  -0.00004  -0.00006   3.14116
   D87        3.11416   0.00002   0.00032   0.00035   0.00068   3.11484
   D88        0.01161   0.00001   0.00021   0.00025   0.00046   0.01207
   D89       -0.03496   0.00000  -0.00017   0.00011  -0.00006  -0.03502
   D90       -3.13750  -0.00000  -0.00028  -0.00000  -0.00028  -3.13778
   D91       -3.11989  -0.00002  -0.00032  -0.00043  -0.00075  -3.12065
   D92        0.08721  -0.00000  -0.00014   0.00009  -0.00005   0.08715
   D93        0.02889  -0.00000   0.00015  -0.00020  -0.00005   0.02884
   D94       -3.04720   0.00001   0.00033   0.00032   0.00065  -3.04655
   D95        0.00838   0.00001   0.00021  -0.00008   0.00012   0.00851
   D96       -3.10123   0.00002   0.00046   0.00011   0.00056  -3.10066
   D97        3.11481   0.00001   0.00029   0.00003   0.00033   3.11514
   D98        0.00520   0.00002   0.00054   0.00022   0.00077   0.00597
   D99        3.11135  -0.00000  -0.00028   0.00005  -0.00022   3.11113
   D100       0.00670  -0.00001  -0.00038  -0.00005  -0.00044   0.00626
   D101       0.00545   0.00000  -0.00019   0.00028   0.00009   0.00554
   D102      -3.07782   0.00001  -0.00010   0.00057   0.00047  -3.07735
   D103       3.08244  -0.00002  -0.00038  -0.00024  -0.00062   3.08182
   D104      -0.00084  -0.00001  -0.00029   0.00005  -0.00023  -0.00107
   D105       0.02530  -0.00001  -0.00022   0.00014  -0.00009   0.02521
   D106      -3.12244   0.00001   0.00009  -0.00016  -0.00007  -3.12251
   D107       3.13162  -0.00004  -0.00050  -0.00010  -0.00060   3.13102
   D108      -0.01613  -0.00002  -0.00018  -0.00039  -0.00058  -0.01670
   D109      -0.01418  -0.00003  -0.00039  -0.00027  -0.00066  -0.01484
   D110      -3.12246  -0.00000  -0.00013  -0.00006  -0.00019  -3.12265
   D111      -0.03265   0.00001   0.00021  -0.00023  -0.00002  -0.03267
   D112       3.11485  -0.00001  -0.00009   0.00005  -0.00004   3.11481
   D113       3.05004   0.00001   0.00014  -0.00053  -0.00039   3.04965
   D114      -0.08564  -0.00001  -0.00016  -0.00025  -0.00042  -0.08606
   D115      -0.39988  -0.00005  -0.00054  -0.00091  -0.00145  -0.40134
   D116       2.75766  -0.00002   0.00005  -0.00101  -0.00096   2.75670
   D117       2.73537  -0.00003  -0.00022  -0.00121  -0.00143   2.73394
   D118      -0.39027   0.00001   0.00037  -0.00131  -0.00094  -0.39121
   D119      -0.01325  -0.00000   0.00014  -0.00009   0.00005  -0.01320
   D120       0.01602   0.00002   0.00015   0.00021   0.00036   0.01638
   D121      -3.10824   0.00001   0.00029  -0.00021   0.00007  -3.10817
   D122       0.03320   0.00000   0.00029  -0.00043  -0.00014   0.03306
   D123       0.01797  -0.00002  -0.00028  -0.00012  -0.00040   0.01757
   D124      -3.12378  -0.00003  -0.00028  -0.00034  -0.00062  -3.12439
   D125       3.12192  -0.00000  -0.00022   0.00039   0.00017   3.12209
   D126      -0.06116   0.00000  -0.00020   0.00019  -0.00002  -0.06118
   D127      -0.00458   0.00003   0.00034   0.00029   0.00063  -0.00395
   D128       3.09553   0.00003   0.00035   0.00008   0.00044   3.09596
   D129      -0.01760   0.00000   0.00005  -0.00012  -0.00007  -0.01767
   D130       3.12166  -0.00000  -0.00000  -0.00018  -0.00019   3.12148
   D131       3.12415   0.00001   0.00005   0.00010   0.00015   3.12430
   D132      -0.01978   0.00000  -0.00001   0.00004   0.00004  -0.01974
   D133      -0.00970  -0.00001  -0.00016  -0.00023  -0.00039  -0.01009
   D134       3.12902  -0.00001  -0.00012  -0.00022  -0.00034   3.12868
   D135      -3.11028  -0.00001  -0.00016  -0.00003  -0.00019  -3.11047
   D136       0.02844  -0.00001  -0.00013  -0.00002  -0.00015   0.02830
   D137       0.00301   0.00001   0.00014   0.00018   0.00033   0.00333
   D138      -3.09841   0.00000   0.00001   0.00016   0.00018  -3.09824
   D139      -3.13625   0.00002   0.00020   0.00024   0.00044  -3.13580
   D140       0.04552   0.00001   0.00007   0.00022   0.00029   0.04581
   D141       0.01054  -0.00001  -0.00009  -0.00001  -0.00010   0.01044
   D142       3.11215   0.00000   0.00004   0.00001   0.00005   3.11220
   D143      -3.12819  -0.00001  -0.00013  -0.00001  -0.00014  -3.12833
   D144      -0.02658  -0.00000   0.00000   0.00001   0.00001  -0.02658
   D145      -2.62720   0.00000   0.00014  -0.00038  -0.00024  -2.62745
   D146      -0.56904   0.00000   0.00015  -0.00037  -0.00023  -0.56926
   D147       1.54586  -0.00000   0.00014  -0.00040  -0.00026   1.54560
   D148       0.55590  -0.00001   0.00001  -0.00040  -0.00040   0.55550
   D149       2.61407  -0.00000   0.00001  -0.00039  -0.00038   2.61369
   D150      -1.55423  -0.00001   0.00001  -0.00042  -0.00041  -1.55464
   D151      -0.98445   0.00000  -0.00001   0.00002   0.00001  -0.98444
   D152       1.03581   0.00000  -0.00001   0.00001   0.00001   1.03582
   D153       3.09655  -0.00000  -0.00001   0.00000  -0.00001   3.09655
   D154      -3.12346  -0.00000  -0.00002   0.00000  -0.00001  -3.12347
   D155      -1.10320  -0.00000  -0.00001  -0.00000  -0.00002  -1.10322
   D156       0.95754  -0.00000  -0.00002  -0.00001  -0.00003   0.95751
   D157       1.14109   0.00000  -0.00002   0.00003   0.00001   1.14109
   D158      -3.12184   0.00000  -0.00001   0.00002   0.00000  -3.12183
   D159      -1.06109   0.00000  -0.00002   0.00001  -0.00001  -1.06110
   D160       1.20267   0.00000  -0.00017   0.00071   0.00054   1.20321
   D161      -3.05826   0.00001  -0.00019   0.00078   0.00059  -3.05767
   D162      -0.94269   0.00001  -0.00017   0.00070   0.00053  -0.94215
   D163       1.07957   0.00001  -0.00019   0.00077   0.00058   1.08015
   D164      -3.00903   0.00000  -0.00017   0.00070   0.00053  -3.00851
   D165      -0.98678   0.00001  -0.00020   0.00077   0.00058  -0.98620
         Item               Value     Threshold  Converged?
 Maximum Force            0.000530     0.000450     NO 
 RMS     Force            0.000072     0.000300     YES
 Maximum Displacement     0.008592     0.001800     NO 
 RMS     Displacement     0.001759     0.001200     NO 
 Predicted change in Energy=-1.944619D-06
 Lowest energy point so far.  Saving SCF results.
 GradGradGradGradGradGradGradGradGradGradGradGradGradGradGradGradGradGrad

 Leave Link  103 at Thu Mar 14 09:51:51 2024, MaxMem= 32212254720 cpu:               4.2 elap:               0.2
 (Enter /home/<user>/g16/l202.exe)
 Stoichiometry    C29H25N3S
 Framework group  C1[X(C29H25N3S)]
 Deg. of freedom   168
 Full point group                 C1      NOp   1
 RotChk:  IX=0 Diff= 5.90D-05
 Largest Abelian subgroup         C1      NOp   1
 Largest concise Abelian subgroup C1      NOp   1
                         Standard orientation:                         
 ---------------------------------------------------------------------
 Center     Atomic      Atomic             Coordinates (Angstroms)
 Number     Number       Type             X           Y           Z
 ---------------------------------------------------------------------
      1          6           0       -2.447688    1.657036   -0.311549
      2          6           0       -1.767715    0.406975   -0.176353
      3          6           0       -2.565499   -0.763468    0.006022
      4          6           0       -3.938814   -0.680381    0.034512
      5          6           0       -4.589703    0.571789   -0.121859
      6          6           0       -3.828807    1.738770   -0.293997
      7          1           0       -1.848503    2.550395   -0.420654
      8          1           0       -2.083204   -1.721969    0.163588
      9          1           0       -4.312800    2.704782   -0.410103
     10          6           0       -4.961504   -1.800008    0.231450
     11          6           0       -6.270258   -1.015946    0.151548
     12          6           0       -7.574196   -1.481240    0.252640
     13          6           0       -8.632766   -0.569262    0.149157
     14          6           0       -8.388382    0.797329   -0.053801
     15          6           0       -7.085103    1.274867   -0.156766
     16          6           0       -6.022723    0.363982   -0.053842
     17          1           0       -7.781069   -2.536735    0.410487
     18          1           0       -9.656634   -0.924373    0.227356
     19          1           0       -9.224505    1.486496   -0.130808
     20          1           0       -6.895714    2.333059   -0.313849
     21          6           0       -4.796974   -2.479009    1.610130
     22          1           0       -5.577617   -3.232536    1.765123
     23          1           0       -3.825960   -2.982209    1.678196
     24          1           0       -4.860071   -1.747587    2.421879
     25          6           0       -4.868102   -2.855801   -0.893009
     26          1           0       -3.898507   -3.365514   -0.862570
     27          1           0       -5.650016   -3.614917   -0.776704
     28          1           0       -4.981403   -2.395330   -1.879546
     29          6           0       -0.313674    0.312576   -0.229868
     30          6           0        0.569940    1.426676   -0.008265
     31          6           0        0.297921   -0.934924   -0.525119
     32          6           0        2.000676    1.246939   -0.045753
     33          6           0        1.668654   -1.105468   -0.569040
     34          1           0       -0.325938   -1.781836   -0.786969
     35          6           0        2.576085   -0.046107   -0.315449
     36          1           0        2.055303   -2.074862   -0.861214
     37          7           0        0.171519    2.684043    0.287232
     38          7           0        2.714049    2.360315    0.227122
     39         16           0        1.585393    3.579286    0.493068
     40          6           0        4.015821   -0.299830   -0.344611
     41          6           0        4.964777    0.726173   -0.583672
     42          6           0        4.523359   -1.610894   -0.150260
     43          6           0        6.322587    0.443781   -0.643727
     44          1           0        4.612042    1.739338   -0.719831
     45          6           0        5.882613   -1.876326   -0.196834
     46          1           0        3.842546   -2.423846    0.078236
     47          6           0        6.815960   -0.856190   -0.451228
     48          1           0        7.021482    1.252292   -0.847751
     49          1           0        6.235286   -2.892015   -0.031054
     50          6           0        8.296316   -1.144599   -0.463319
     51          1           0        8.491143   -2.163902   -0.815659
     52          1           0        8.801745   -0.461797   -1.160299
     53          6           0        8.940645   -0.994103    0.929147
     54          1           0        8.737309    0.023455    1.307677
     55          1           0        8.452346   -1.688837    1.623203
     56          7           0       10.362509   -1.345579    0.866227
     57          1           0       10.865321   -0.640236    0.328079
     58          1           0       10.763919   -1.321349    1.802317
 ---------------------------------------------------------------------
 Rotational constants (GHZ):           0.3549588           0.0398664           0.0365215
 Leave Link  202 at Thu Mar 14 09:51:51 2024, MaxMem= 32212254720 cpu:               0.1 elap:               0.0
 (Enter /home/<user>/g16/l301.exe)
 Standard basis: 6-31G(d) (6D, 7F)
 Ernie: Thresh=  0.10000D-02 Tol=  0.10000D-05 Strict=F.
 There are   549 symmetry adapted cartesian basis functions of A   symmetry.
 There are   549 symmetry adapted basis functions of A   symmetry.
   549 basis functions,  1048 primitive gaussians,   549 cartesian basis functions
   118 alpha electrons      118 beta electrons
       nuclear repulsion energy      3077.6942451195 Hartrees.
 IExCor=  402 DFT=T Ex+Corr=B3LYP ExCW=0 ScaHFX=  0.200000
 ScaDFX=  0.800000  0.720000  1.000000  0.810000 ScalE2=  1.000000  1.000000
 IRadAn=      5 IRanWt=     -1 IRanGd=            0 ICorTp=0 IEmpDi=  4
 NAtoms=   58 NActive=   58 NUniq=   58 SFac= 1.00D+00 NAtFMM=   60 NAOKFM=F Big=F
 Integral buffers will be    131072 words long.
 Regular integral format.
 Two-electron integral symmetry is turned on.
 Leave Link  301 at Thu Mar 14 09:51:51 2024, MaxMem= 32212254720 cpu:               1.0 elap:               0.0
 (Enter /home/<user>/g16/l302.exe)
 NPDir=0 NMtPBC=     1 NCelOv=     1 NCel=       1 NClECP=     1 NCelD=      1
         NCelK=      1 NCelE2=     1 NClLst=     1 CellRange=     0.0.
 One-electron integrals computed using PRISM.
 One-electron integral symmetry used in STVInt
 NBasis=   549 RedAO= T EigKep=  2.68D-04  NBF=   549
 NBsUse=   549 1.00D-06 EigRej= -1.00D+00 NBFU=   549
 Precomputing XC quadrature grid using
 IXCGrd= 4 IRadAn=           5 IRanWt=          -1 IRanGd=           0 AccXCQ= 0.00D+00.
 Generated NRdTot=       0 NPtTot=           0 NUsed=           0 NTot=          32
 NSgBfM=   512   512   512   512   512 MxSgAt=    58 MxSgA2=    58.
 Leave Link  302 at Thu Mar 14 09:51:52 2024, MaxMem= 32212254720 cpu:              18.1 elap:               0.6
 (Enter /home/<user>/g16/l303.exe)
 DipDrv:  MaxL=1.
 Leave Link  303 at Thu Mar 14 09:51:52 2024, MaxMem= 32212254720 cpu:               1.8 elap:               0.1
 (Enter /home/<user>/g16/l308.exe)
 Leave Link  308 at Thu Mar 14 09:51:52 2024, MaxMem= 32212254720 cpu:               2.1 elap:               0.1
 (Enter /home/<user>/g16/l401.exe)
 Initial guess from the checkpoint file:  "FBTP_S1opt.chk"
 B after Tr=     0.000000    0.000000    0.000000
         Rot=    1.000000   -0.000009    0.000004   -0.000029 Ang=  -0.00 deg.
 Guess basis will be translated and rotated to current coordinates.
 JPrj=2 DoOrth=T DoCkMO=T.
 Leave Link  401 at Thu Mar 14 09:51:53 2024, MaxMem= 32212254720 cpu:              15.7 elap:               0.5
 (Enter /home/<user>/g16/l502.exe)
 Integral symmetry usage will be decided dynamically.
 Closed shell SCF:
 Using DIIS extrapolation, IDIIS=  1040.
 NGot= 32212254720 LenX= 32211628124 LenY= 32211326174
 Requested convergence on RMS density matrix=1.00D-08 within 128 cycles.
 Requested convergence on MAX density matrix=1.00D-06.
 Requested convergence on             energy=1.00D-06.
 No special actions if energy rises.
 Fock matrices will be formed incrementally for  20 cycles.

 Cycle   1  Pass 1  IDiag  1:
 FoFJK:  IHMeth= 1 ICntrl=       0 DoSepK=F KAlg= 0 I1Cent=           0 FoldK=F
 IRaf= 550000000 NMat=       1 IRICut=       1 DoRegI=T DoRafI=F ISym2E= 0 IDoP0=0 IntGTp=1.
 FoFCou: FMM=F IPFlag=           0 FMFlag=      100000 FMFlg1=           0
         NFxFlg=           0 DoJE=F BraDBF=F KetDBF=F FulRan=T
         wScrn=  0.000000 ICntrl=         0 IOpCl=  0 I1Cent=           0 NGrid=           0
         NMat0=    1 NMatS0=      1 NMatT0=    0 NMatD0=    1 NMtDS0=    0 NMtDT0=    0
 Symmetry not used in FoFCou.
 E= -1682.59462519897    
 DIIS: error= 8.08D-05 at cycle   1 NSaved=   1.
 NSaved= 1 IEnMin= 1 EnMin= -1682.59462519897     IErMin= 1 ErrMin= 8.08D-05
 ErrMax= 8.08D-05  0.00D+00 EMaxC= 1.00D-01 BMatC= 6.16D-06 BMatP= 6.16D-06
 IDIUse=1 WtCom= 1.00D+00 WtEn= 0.00D+00
 Coeff-Com:  0.100D+01
 Coeff:      0.100D+01
 Gap=     1.960 Goal=   None    Shift=    0.000
 RMSDP=9.34D-06 MaxDP=4.24D-04              OVMax= 7.05D-04

 Cycle   2  Pass 1  IDiag  1:
 RMSU=  9.34D-06    CP:  1.00D+00
 E= -1682.59463752190     Delta-E=       -0.000012322927 Rises=F Damp=F
 DIIS: error= 1.18D-05 at cycle   2 NSaved=   2.
 NSaved= 2 IEnMin= 2 EnMin= -1682.59463752190     IErMin= 2 ErrMin= 1.18D-05
 ErrMax= 1.18D-05  0.00D+00 EMaxC= 1.00D-01 BMatC= 1.75D-07 BMatP= 6.16D-06
 IDIUse=1 WtCom= 1.00D+00 WtEn= 0.00D+00
 Coeff-Com: -0.481D-01 0.105D+01
 Coeff:     -0.481D-01 0.105D+01
 Gap=     0.090 Goal=   None    Shift=    0.000
 RMSDP=2.81D-06 MaxDP=2.72D-04 DE=-1.23D-05 OVMax= 4.37D-04

 Cycle   3  Pass 1  IDiag  1:
 RMSU=  2.81D-06    CP:  1.00D+00  1.01D+00
 E= -1682.59463683545     Delta-E=        0.000000686444 Rises=F Damp=F
 DIIS: error= 3.65D-05 at cycle   3 NSaved=   3.
 NSaved= 3 IEnMin= 2 EnMin= -1682.59463752190     IErMin= 2 ErrMin= 1.18D-05
 ErrMax= 3.65D-05  0.00D+00 EMaxC= 1.00D-01 BMatC= 9.50D-07 BMatP= 1.75D-07
 IDIUse=1 WtCom= 1.00D+00 WtEn= 0.00D+00
 Coeff-Com: -0.573D-01 0.772D+00 0.285D+00
 Coeff:     -0.573D-01 0.772D+00 0.285D+00
 Gap=     0.090 Goal=   None    Shift=    0.000
 RMSDP=2.19D-06 MaxDP=2.26D-04 DE= 6.86D-07 OVMax= 4.06D-04

 Cycle   4  Pass 1  IDiag  1:
 RMSU=  8.15D-07    CP:  1.00D+00  1.06D+00  2.94D-01
 E= -1682.59463773868     Delta-E=       -0.000000903233 Rises=F Damp=F
 DIIS: error= 8.32D-06 at cycle   4 NSaved=   4.
 NSaved= 4 IEnMin= 4 EnMin= -1682.59463773868     IErMin= 4 ErrMin= 8.32D-06
 ErrMax= 8.32D-06  0.00D+00 EMaxC= 1.00D-01 BMatC= 4.33D-08 BMatP= 1.75D-07
 IDIUse=1 WtCom= 1.00D+00 WtEn= 0.00D+00
 Coeff-Com: -0.333D-01 0.409D+00 0.197D+00 0.428D+00
 Coeff:     -0.333D-01 0.409D+00 0.197D+00 0.428D+00
 Gap=     0.090 Goal=   None    Shift=    0.000
 RMSDP=5.25D-07 MaxDP=5.29D-05 DE=-9.03D-07 OVMax= 9.47D-05

 Cycle   5  Pass 1  IDiag  1:
 RMSU=  3.44D-07    CP:  1.00D+00  1.06D+00  3.57D-01  5.65D-01
 E= -1682.59463777822     Delta-E=       -0.000000039532 Rises=F Damp=F
 DIIS: error= 1.80D-06 at cycle   5 NSaved=   5.
 NSaved= 5 IEnMin= 5 EnMin= -1682.59463777822     IErMin= 5 ErrMin= 1.80D-06
 ErrMax= 1.80D-06  0.00D+00 EMaxC= 1.00D-01 BMatC= 4.17D-09 BMatP= 4.33D-08
 IDIUse=1 WtCom= 1.00D+00 WtEn= 0.00D+00
 Coeff-Com: -0.724D-02 0.767D-01 0.580D-01 0.265D+00 0.607D+00
 Coeff:     -0.724D-02 0.767D-01 0.580D-01 0.265D+00 0.607D+00
 Gap=     0.090 Goal=   None    Shift=    0.000
 RMSDP=1.76D-07 MaxDP=1.33D-05 DE=-3.95D-08 OVMax= 2.07D-05

 Cycle   6  Pass 1  IDiag  1:
 RMSU=  1.17D-07    CP:  1.00D+00  1.06D+00  3.59D-01  6.50D-01  6.78D-01
 E= -1682.59463778223     Delta-E=       -0.000000004014 Rises=F Damp=F
 DIIS: error= 6.49D-07 at cycle   6 NSaved=   6.
 NSaved= 6 IEnMin= 6 EnMin= -1682.59463778223     IErMin= 6 ErrMin= 6.49D-07
 ErrMax= 6.49D-07  0.00D+00 EMaxC= 1.00D-01 BMatC= 5.02D-10 BMatP= 4.17D-09
 IDIUse=1 WtCom= 1.00D+00 WtEn= 0.00D+00
 Coeff-Com: -0.127D-02 0.753D-02 0.160D-01 0.113D+00 0.353D+00 0.512D+00
 Coeff:     -0.127D-02 0.753D-02 0.160D-01 0.113D+00 0.353D+00 0.512D+00
 Gap=     0.090 Goal=   None    Shift=    0.000
 RMSDP=6.55D-08 MaxDP=5.71D-06 DE=-4.01D-09 OVMax= 6.72D-06

 Cycle   7  Pass 1  IDiag  1:
 RMSU=  3.91D-08    CP:  1.00D+00  1.06D+00  3.61D-01  6.59D-01  7.47D-01
                    CP:  6.07D-01
 E= -1682.59463778274     Delta-E=       -0.000000000509 Rises=F Damp=F
 DIIS: error= 3.28D-07 at cycle   7 NSaved=   7.
 NSaved= 7 IEnMin= 7 EnMin= -1682.59463778274     IErMin= 7 ErrMin= 3.28D-07
 ErrMax= 3.28D-07  0.00D+00 EMaxC= 1.00D-01 BMatC= 8.20D-11 BMatP= 5.02D-10
 IDIUse=1 WtCom= 1.00D+00 WtEn= 0.00D+00
 Coeff-Com:  0.471D-03-0.921D-02-0.232D-04 0.257D-01 0.122D+00 0.319D+00
 Coeff-Com:  0.543D+00
 Coeff:      0.471D-03-0.921D-02-0.232D-04 0.257D-01 0.122D+00 0.319D+00
 Coeff:      0.543D+00
 Gap=     0.090 Goal=   None    Shift=    0.000
 RMSDP=2.67D-08 MaxDP=1.04D-06 DE=-5.09D-10 OVMax= 2.95D-06

 Cycle   8  Pass 1  IDiag  1:
 RMSU=  1.47D-08    CP:  1.00D+00  1.06D+00  3.62D-01  6.63D-01  7.45D-01
                    CP:  6.74D-01  4.81D-01
 E= -1682.59463778277     Delta-E=       -0.000000000033 Rises=F Damp=F
 DIIS: error= 1.36D-07 at cycle   8 NSaved=   8.
 NSaved= 8 IEnMin= 8 EnMin= -1682.59463778277     IErMin= 8 ErrMin= 1.36D-07
 ErrMax= 1.36D-07  0.00D+00 EMaxC= 1.00D-01 BMatC= 1.53D-11 BMatP= 8.20D-11
 IDIUse=1 WtCom= 1.00D+00 WtEn= 0.00D+00
 Coeff-Com:  0.439D-03-0.684D-02-0.174D-02 0.433D-02 0.414D-01 0.153D+00
 Coeff-Com:  0.364D+00 0.446D+00
 Coeff:      0.439D-03-0.684D-02-0.174D-02 0.433D-02 0.414D-01 0.153D+00
 Coeff:      0.364D+00 0.446D+00
 Gap=     0.090 Goal=   None    Shift=    0.000
 RMSDP=9.67D-09 MaxDP=4.77D-07 DE=-3.27D-11 OVMax= 1.19D-06

 SCF Done:  E(RB3LYP) =  -1682.59463778     A.U. after    8 cycles
            NFock=  8  Conv=0.97D-08     -V/T= 2.0083
 KE= 1.668727898684D+03 PE=-1.007709609005D+04 EE= 3.648079308465D+03
 Leave Link  502 at Thu Mar 14 09:52:08 2024, MaxMem= 32212254720 cpu:             465.8 elap:              15.5
 (Enter /home/<user>/g16/l801.exe)
 DoSCS=F DFT=T ScalE2(SS,OS)=  1.000000  1.000000
 ExpMin= 1.17D-01 ExpMax= 2.19D+04 ExpMxC= 3.30D+03 IAcc=3 IRadAn=         5 AccDes= 0.00D+00
 HarFok:  IExCor=  205 AccDes= 0.00D+00 IRadAn=         5 IDoV=-2 UseB2=F ITyADJ=14
 ICtDFT= 12500011 ScaDFX=  1.000000  1.000000  1.000000  1.000000
 GSVD:  LWork=       -1665 too small for GESVD, short by        7400 words or        7400 for optimal perf.
 Largest valence mixing into a core orbital is  1.10D-04
 Largest core mixing into a valence orbital is  2.83D-05
 Range of M.O.s used for correlation:    38   549
 NBasis=   549 NAE=   118 NBE=   118 NFC=    37 NFV=     0
 NROrb=    512 NOA=    81 NOB=    81 NVA=   431 NVB=   431

 **** Warning!!: The smallest alpha delta epsilon is  0.90083609D-01

 Leave Link  801 at Thu Mar 14 09:52:08 2024, MaxMem= 32212254720 cpu:               2.7 elap:               0.1
 (Enter /home/<user>/g16/l914.exe)
 RHF ground state
 Two-electron integrals replicated using symmetry.
 MDV= 32212254720 DFT=T DoStab=F Mixed=T DoRPA=T DoScal=F NonHer=T
 Making orbital integer symmetry assigments:
 Orbital symmetries:
       Occupied  (A) (A) (A) (A) (A) (A) (A) (A) (A) (A) (A) (A)
                 (A) (A) (A) (A) (A) (A) (A) (A) (A) (A) (A) (A)
                 (A) (A) (A) (A) (A) (A) (A) (A) (A) (A) (A) (A)
                 (A) (A) (A) (A) (A) (A) (A) (A) (A) (A) (A) (A)
                 (A) (A) (A) (A) (A) (A) (A) (A) (A) (A) (A) (A)
                 (A) (A) (A) (A) (A) (A) (A) (A) (A) (A) (A) (A)
                 (A) (A) (A) (A) (A) (A) (A) (A) (A) (A) (A) (A)
                 (A) (A) (A) (A) (A) (A) (A) (A) (A) (A) (A) (A)
                 (A) (A) (A) (A) (A) (A) (A) (A) (A) (A) (A) (A)
                 (A) (A) (A) (A) (A) (A) (A) (A) (A) (A)
       Virtual   (A) (A) (A) (A) (A) (A) (A) (A) (A) (A) (A) (A)
                 (A) (A) (A) (A) (A) (A) (A) (A) (A) (A) (A) (A)
                 (A) (A) (A) (A) (A) (A) (A) (A) (A) (A) (A) (A)
                 (A) (A) (A) (A) (A) (A) (A) (A) (A) (A) (A) (A)
                 (A) (A) (A) (A) (A) (A) (A) (A) (A) (A) (A) (A)
                 (A) (A) (A) (A) (A) (A) (A) (A) (A) (A) (A) (A)
                 (A) (A) (A) (A) (A) (A) (A) (A) (A) (A) (A) (A)
                 (A) (A) (A) (A) (A) (A) (A) (A) (A) (A) (A) (A)
                 (A) (A) (A) (A) (A) (A) (A) (A) (A) (A) (A) (A)
                 (A) (A) (A) (A) (A) (A) (A) (A) (A) (A) (A) (A)
                 (A) (A) (A) (A) (A) (A) (A) (A) (A) (A) (A) (A)
                 (A) (A) (A) (A) (A) (A) (A) (A) (A) (A) (A) (A)
                 (A) (A) (A) (A) (A) (A) (A) (A) (A) (A) (A) (A)
                 (A) (A) (A) (A) (A) (A) (A) (A) (A) (A) (A) (A)
                 (A) (A) (A) (A) (A) (A) (A) (A) (A) (A) (A) (A)
                 (A) (A) (A) (A) (A) (A) (A) (A) (A) (A) (A) (A)
                 (A) (A) (A) (A) (A) (A) (A) (A) (A) (A) (A) (A)
                 (A) (A) (A) (A) (A) (A) (A) (A) (A) (A) (A) (A)
                 (A) (A) (A) (A) (A) (A) (A) (A) (A) (A) (A) (A)
                 (A) (A) (A) (A) (A) (A) (A) (A) (A) (A) (A) (A)
                 (A) (A) (A) (A) (A) (A) (A) (A) (A) (A) (A) (A)
                 (A) (A) (A) (A) (A) (A) (A) (A) (A) (A) (A) (A)
                 (A) (A) (A) (A) (A) (A) (A) (A) (A) (A) (A) (A)
                 (A) (A) (A) (A) (A) (A) (A) (A) (A) (A) (A) (A)
                 (A) (A) (A) (A) (A) (A) (A) (A) (A) (A) (A) (A)
                 (A) (A) (A) (A) (A) (A) (A) (A) (A) (A) (A) (A)
                 (A) (A) (A) (A) (A) (A) (A) (A) (A) (A) (A) (A)
                 (A) (A) (A) (A) (A) (A) (A) (A) (A) (A) (A) (A)
                 (A) (A) (A) (A) (A) (A) (A) (A) (A) (A) (A) (A)
                 (A) (A) (A) (A) (A) (A) (A) (A) (A) (A) (A) (A)
                 (A) (A) (A) (A) (A) (A) (A) (A) (A) (A) (A) (A)
                 (A) (A) (A) (A) (A) (A) (A) (A) (A) (A) (A) (A)
                 (A) (A) (A) (A) (A) (A) (A) (A) (A) (A) (A) (A)
                 (A) (A) (A) (A) (A) (A) (A) (A) (A) (A) (A) (A)
                 (A) (A) (A) (A) (A) (A) (A) (A) (A) (A) (A) (A)
                 (A) (A) (A) (A) (A) (A) (A) (A) (A) (A) (A)
 Generating guess from densities on rwf.
 Convergence on wavefunction:    0.000001000000000
 Davidson Disk Diagonalization:  ConvIn= 1.00D-06 SkipCon=T Conv= 1.00D-06.
 Max sub-space:  2000 roots to seek:     3 dimension of matrix:        69822
 Iteration     1 Dimension     6 NMult     0 NNew      6
 CISAX will form     6 AO SS matrices at one time.
 NMat=     6 NSing=     6 JSym2X= 0.
 FoFJK:  IHMeth= 1 ICntrl=       0 DoSepK=F KAlg= 0 I1Cent=           0 FoldK=F
 IRaf= 550000000 NMat=      12 IRICut=       1 DoRegI=T DoRafI=F ISym2E= 0 IDoP0=0 IntGTp=1.
 FoFCou: FMM=F IPFlag=           0 FMFlag=      100000 FMFlg1=           0
         NFxFlg=           0 DoJE=F BraDBF=F KetDBF=F FulRan=T
         wScrn=  0.000000 ICntrl=         0 IOpCl=  0 I1Cent=           0 NGrid=           0
         NMat0=   12 NMatS0=      6 NMatT0=    0 NMatD0=   12 NMtDS0=    0 NMtDT0=    0
 Symmetry not used in FoFCou.
 Excitation Energies [eV] at current iteration:
 Root      1 :     2.074707165774770
 Root      2 :     2.979453904742797
 Root      3 :     3.326017498026907
 Iteration     2 Dimension    12 NMult     6 NNew      6
 CISAX will form     6 AO SS matrices at one time.
 NMat=     6 NSing=     6 JSym2X= 0.
 Root      1 not converged, maximum delta is    0.000209036970114
 Root      2 not converged, maximum delta is    0.000244837420243
 Root      3 not converged, maximum delta is    0.000545523742080
 Excitation Energies [eV] at current iteration:
 Root      1 :     2.074701742208618   Change is   -0.000005423566153
 Root      2 :     2.979447857275087   Change is   -0.000006047467710
 Root      3 :     3.325999490991433   Change is   -0.000018007035474
 Iteration     3 Dimension    18 NMult    12 NNew      6
 CISAX will form     6 AO SS matrices at one time.
 NMat=     6 NSing=     6 JSym2X= 0.
 Root      1 not converged, maximum delta is    0.000035839652337
 Root      2 not converged, maximum delta is    0.000075308503245
 Root      3 not converged, maximum delta is    0.000499485622755
 Excitation Energies [eV] at current iteration:
 Root      1 :     2.074701633235823   Change is   -0.000000108972795
 Root      2 :     2.979447658445267   Change is   -0.000000198829820
 Root      3 :     3.325999206324942   Change is   -0.000000284666492
 Iteration     4 Dimension    24 NMult    18 NNew      6
 CISAX will form     6 AO SS matrices at one time.
 NMat=     6 NSing=     6 JSym2X= 0.
 Root      1 not converged, maximum delta is    0.000008954477584
 Root      2 not converged, maximum delta is    0.000027083207463
 Root      3 not converged, maximum delta is    0.000381385340108
 Excitation Energies [eV] at current iteration:
 Root      1 :     2.074701622658255   Change is   -0.000000010577567
 Root      2 :     2.979447631927462   Change is   -0.000000026517805
 Root      3 :     3.325999072098818   Change is   -0.000000134226123
 Iteration     5 Dimension    30 NMult    24 NNew      6
 CISAX will form     6 AO SS matrices at one time.
 NMat=     6 NSing=     6 JSym2X= 0.
 Root      1 not converged, maximum delta is    0.000003910045175
 Root      2 not converged, maximum delta is    0.000015512233693
 Root      3 not converged, maximum delta is    0.000160468180221
 Excitation Energies [eV] at current iteration:
 Root      1 :     2.074701621373811   Change is   -0.000000001284444
 Root      2 :     2.979447627719920   Change is   -0.000000004207542
 Root      3 :     3.325999029720560   Change is   -0.000000042378258
 Iteration     6 Dimension    36 NMult    30 NNew      6
 CISAX will form     6 AO SS matrices at one time.
 NMat=     6 NSing=     6 JSym2X= 0.
 Root      1 not converged, maximum delta is    0.000001121630818
 Root      2 not converged, maximum delta is    0.000005503814207
 Root      3 not converged, maximum delta is    0.000129596497287
 Excitation Energies [eV] at current iteration:
 Root      1 :     2.074701621212265   Change is   -0.000000000161546
 Root      2 :     2.979447626928347   Change is   -0.000000000791573
 Root      3 :     3.325999011854484   Change is   -0.000000017866076
 Iteration     7 Dimension    42 NMult    36 NNew      6
 CISAX will form     6 AO SS matrices at one time.
 NMat=     6 NSing=     6 JSym2X= 0.
 Root      1 has converged.
 Root      2 not converged, maximum delta is    0.000001274013222
 Root      3 not converged, maximum delta is    0.000095477008634
 Excitation Energies [eV] at current iteration:
 Root      1 :     2.074701621193800   Change is   -0.000000000018465
 Root      2 :     2.979447626815193   Change is   -0.000000000113153
 Root      3 :     3.325999004773537   Change is   -0.000000007080947
 Iteration     8 Dimension    46 NMult    42 NNew      4
 CISAX will form     4 AO SS matrices at one time.
 NMat=     4 NSing=     4 JSym2X= 0.
 Root      1 has converged.
 Root      2 has converged.
 Root      3 not converged, maximum delta is    0.000020542586178
 Excitation Energies [eV] at current iteration:
 Root      1 :     2.074701621192809   Change is   -0.000000000000991
 Root      2 :     2.979447626794582   Change is   -0.000000000020611
 Root      3 :     3.325999003168834   Change is   -0.000000001604703
 Iteration     9 Dimension    48 NMult    46 NNew      2
 CISAX will form     2 AO SS matrices at one time.
 NMat=     2 NSing=     2 JSym2X= 0.
 Root      1 has converged.
 Root      2 has converged.
 Root      3 not converged, maximum delta is    0.000005363526389
 Excitation Energies [eV] at current iteration:
 Root      1 :     2.074701621192809   Change is    0.000000000000000
 Root      2 :     2.979447626793644   Change is   -0.000000000000938
 Root      3 :     3.325999002886496   Change is   -0.000000000282338
 Iteration    10 Dimension    50 NMult    48 NNew      2
 CISAX will form     2 AO SS matrices at one time.
 NMat=     2 NSing=     2 JSym2X= 0.
 Root      1 has converged.
 Root      2 has converged.
 Root      3 not converged, maximum delta is    0.000001059089775
 Excitation Energies [eV] at current iteration:
 Root      1 :     2.074701621192770   Change is   -0.000000000000040
 Root      2 :     2.979447626793507   Change is   -0.000000000000138
 Root      3 :     3.325999002845268   Change is   -0.000000000041227
 Iteration    11 Dimension    52 NMult    50 NNew      2
 CISAX will form     2 AO SS matrices at one time.
 NMat=     2 NSing=     2 JSym2X= 0.
 Root      1 has converged.
 Root      2 has converged.
 Root      3 has converged.
 Excitation Energies [eV] at current iteration:
 Root      1 :     2.074701621192691   Change is   -0.000000000000079
 Root      2 :     2.979447626793424   Change is   -0.000000000000083
 Root      3 :     3.325999002838175   Change is   -0.000000000007093
 Convergence achieved on expansion vectors.
 ***********************************************************************
 Excited states from <AA,BB:AA,BB> singles matrix:
 ***********************************************************************
 
 1PDM for each excited state written to RWF  633
 Ground to excited state transition densities written to RWF  633
 Ground to excited state transition electric dipole moments (Au):
       state          X           Y           Z        Dip. S.      Osc.
         1        -2.7038      0.0873      0.0545      7.3212      0.3721
         2         0.1801     -0.3089     -0.0135      0.1280      0.0093
         3         0.0582      0.0343      0.0064      0.0046      0.0004
 Ground to excited state transition velocity dipole moments (Au):
       state          X           Y           Z        Dip. S.      Osc.
         1         0.2098     -0.0062     -0.0043      0.0441      0.3854
         2        -0.0218      0.0380      0.0021      0.0019      0.0117
         3        -0.0055     -0.0054     -0.0005      0.0001      0.0003
 Ground to excited state transition magnetic dipole moments (Au):
       state          X           Y           Z
         1        -0.0150     -0.1626     -0.0375
         2         0.0047      0.0394     -0.1041
         3        -0.0139     -0.0312     -0.1829
 Ground to excited state transition velocity quadrupole moments (Au):
       state          XX          YY          ZZ          XY          XZ          YZ
         1         0.0320      0.0087      0.0053     -0.1243     -0.0336      0.0194
         2        -1.9446      0.2058      0.0007      0.1902      0.0374      0.0517
         3         0.0041      0.0174     -0.0075     -0.0551     -0.0166      0.0042
 <0|del|b> * <b|rxdel|0> + <0|del|b> * <b|delr+rdel|0>
 Rotatory Strengths (R) in cgs (10**-40 erg-esu-cm/Gauss)
       state          XX          YY          ZZ    R(velocity)    E-M Angle
         1         6.9048      2.5611    -27.8944     -6.1428       93.24
         2         0.8312     -5.9877     12.7232      2.5223       76.12
         3         0.6037      0.3552      1.0308      0.6632       76.10
 1/2[<0|r|b>*<b|rxdel|0> + (<0|rxdel|b>*<b|r|0>)*]
 Rotatory Strengths (R) in cgs (10**-40 erg-esu-cm/Gauss)
       state          XX          YY          ZZ     R(length)
         1       -28.7284     10.0424      1.4468     -5.7464
         2        -0.6005      8.6005     -0.9974      2.3342
         3         0.5716      0.7560      0.8225      0.7167
  1/2[<0|del|b>*<b|r|0> + (<0|r|b>*<b|del|0>)*] (Au)
       state          X           Y           Z        Dip. S.   Osc.(frdel)
         1        -0.5673     -0.0005     -0.0002      0.5680      0.3787
         2        -0.0039     -0.0117     -0.0000      0.0157      0.0105
         3        -0.0003     -0.0002     -0.0000      0.0005      0.0003

 Excitation energies and oscillator strengths:
 
 Excited State   1:      Singlet-A      2.0747 eV  597.60 nm  f=0.3721  <S**2>=0.000
     118 ->119         0.70183
 This state for optimization and/or second-order correction.
 Total Energy, E(TD-HF/TD-DFT) =  -1682.51839390    
 Copying the excited state density for this state as the 1-particle RhoCI density.
 
 Excited State   2:      Singlet-A      2.9794 eV  416.13 nm  f=0.0093  <S**2>=0.000
     117 ->119        -0.69754
 
 Excited State   3:      Singlet-A      3.3260 eV  372.77 nm  f=0.0004  <S**2>=0.000
     113 ->119         0.17091
     116 ->119         0.67962
 SavETr:  write IOETrn=   770 NScale= 10 NData=  16 NLR=1 NState=    3 LETran=      64.
 The selected state is a singlet.
 CISGrd: IGrad=2 NXY=2 DFT=T
 CISAX will form     1 AO SS matrices at one time.
 NMat=     1 NSing=     1 JSym2X= 0.
 Leave Link  914 at Thu Mar 14 09:54:18 2024, MaxMem= 32212254720 cpu:            3906.6 elap:             130.3
 (Enter /home/<user>/g16/l1002.exe)
 Minotr:  Closed shell wavefunction.
          Computing CIS/TDA/TD derivatives.
          Using Z-Vector for PSCF gradient.
          Skipping F1 and S1 gradient terms here.
          IDoAtm=11111111111111111111111111111111111111111111111111
          IDoAtm=11111111
          Frozen-core window.
          Direct CPHF calculation.
          Differentiating once with respect to electric field.
                with respect to dipole field.
          Differentiating once with respect to nuclear coordinates.
          Requested convergence is 1.0D-10 RMS, and 1.0D-09 maximum.
          NewPWx=F KeepS1=T KeepF1=T KeepIn=T MapXYZ=F SortEE=F KeepMc=T.
 Two-electron integral symmetry used by symmetrizing perturbed Fock matrices.
          MDV=   32212254720 using IRadAn=       5.
          Solving linear equations separately, MaxMat=     360.
          There are     1 degrees of freedom in the 1st order CPHF.  IDoFFX=0 NUNeed=     1.
 FoFJK:  IHMeth= 1 ICntrl=       0 DoSepK=F KAlg= 0 I1Cent=           0 FoldK=F
 IRaf= 580000000 NMat=       1 IRICut=       1 DoRegI=T DoRafI=F ISym2E=-1 IDoP0=0 IntGTp=1.
 FoFCou: FMM=F IPFlag=           0 FMFlag=      100000 FMFlg1=           0
         NFxFlg=           0 DoJE=F BraDBF=F KetDBF=F FulRan=T
         wScrn=  0.000000 ICntrl=         0 IOpCl=  0 I1Cent=           0 NGrid=           0
         NMat0=    1 NMatS0=      1 NMatT0=    0 NMatD0=    1 NMtDS0=    0 NMtDT0=    0
 Petite list used in FoFCou.
 LinEq1:  Iter=  0 NonCon=     1 RMS=6.31D-03 Max=7.01D-01 NDo=     1
 AX will form     1 AO Fock derivatives at one time.
 LinEq1:  Iter=  1 NonCon=     1 RMS=3.83D-03 Max=5.23D-01 NDo=     1
 LinEq1:  Iter=  2 NonCon=     1 RMS=3.15D-03 Max=3.94D-01 NDo=     1
 LinEq1:  Iter=  3 NonCon=     1 RMS=2.91D-03 Max=2.35D-01 NDo=     1
 LinEq1:  Iter=  4 NonCon=     1 RMS=2.66D-03 Max=2.03D-01 NDo=     1
 LinEq1:  Iter=  5 NonCon=     1 RMS=1.73D-03 Max=9.70D-02 NDo=     1
 LinEq1:  Iter=  6 NonCon=     1 RMS=1.13D-03 Max=5.22D-02 NDo=     1
 LinEq1:  Iter=  7 NonCon=     1 RMS=7.93D-04 Max=3.14D-02 NDo=     1
 LinEq1:  Iter=  8 NonCon=     1 RMS=5.79D-04 Max=3.44D-02 NDo=     1
 LinEq1:  Iter=  9 NonCon=     1 RMS=4.24D-04 Max=2.09D-02 NDo=     1
 LinEq1:  Iter= 10 NonCon=     1 RMS=2.69D-04 Max=1.26D-02 NDo=     1
 LinEq1:  Iter= 11 NonCon=     1 RMS=1.74D-04 Max=7.60D-03 NDo=     1
 LinEq1:  Iter= 12 NonCon=     1 RMS=1.15D-04 Max=6.38D-03 NDo=     1
 LinEq1:  Iter= 13 NonCon=     1 RMS=8.53D-05 Max=4.41D-03 NDo=     1
 LinEq1:  Iter= 14 NonCon=     1 RMS=5.62D-05 Max=2.09D-03 NDo=     1
 LinEq1:  Iter= 15 NonCon=     1 RMS=3.77D-05 Max=2.40D-03 NDo=     1
 LinEq1:  Iter= 16 NonCon=     1 RMS=1.86D-05 Max=1.24D-03 NDo=     1
 LinEq1:  Iter= 17 NonCon=     1 RMS=1.21D-05 Max=4.98D-04 NDo=     1
 LinEq1:  Iter= 18 NonCon=     1 RMS=6.88D-06 Max=4.20D-04 NDo=     1
 LinEq1:  Iter= 19 NonCon=     1 RMS=3.68D-06 Max=2.18D-04 NDo=     1
 LinEq1:  Iter= 20 NonCon=     1 RMS=2.00D-06 Max=9.81D-05 NDo=     1
 LinEq1:  Iter= 21 NonCon=     1 RMS=1.42D-06 Max=5.85D-05 NDo=     1
 LinEq1:  Iter= 22 NonCon=     1 RMS=7.81D-07 Max=3.89D-05 NDo=     1
 LinEq1:  Iter= 23 NonCon=     1 RMS=4.66D-07 Max=1.97D-05 NDo=     1
 LinEq1:  Iter= 24 NonCon=     1 RMS=2.49D-07 Max=1.09D-05 NDo=     1
 LinEq1:  Iter= 25 NonCon=     1 RMS=1.62D-07 Max=5.76D-06 NDo=     1
 LinEq1:  Iter= 26 NonCon=     1 RMS=7.38D-08 Max=3.04D-06 NDo=     1
 LinEq1:  Iter= 27 NonCon=     1 RMS=4.13D-08 Max=1.70D-06 NDo=     1
 LinEq1:  Iter= 28 NonCon=     1 RMS=2.13D-08 Max=6.84D-07 NDo=     1
 LinEq1:  Iter= 29 NonCon=     1 RMS=9.46D-09 Max=4.05D-07 NDo=     1
 LinEq1:  Iter= 30 NonCon=     1 RMS=5.49D-09 Max=2.42D-07 NDo=     1
 LinEq1:  Iter= 31 NonCon=     1 RMS=2.96D-09 Max=1.10D-07 NDo=     1
 LinEq1:  Iter= 32 NonCon=     1 RMS=1.61D-09 Max=6.28D-08 NDo=     1
 LinEq1:  Iter= 33 NonCon=     1 RMS=9.29D-10 Max=3.96D-08 NDo=     1
 LinEq1:  Iter= 34 NonCon=     1 RMS=5.13D-10 Max=1.96D-08 NDo=     1
 LinEq1:  Iter= 35 NonCon=     1 RMS=2.91D-10 Max=1.22D-08 NDo=     1
 LinEq1:  Iter= 36 NonCon=     1 RMS=1.33D-10 Max=4.48D-09 NDo=     1
 LinEq1:  Iter= 37 NonCon=     1 RMS=6.78D-11 Max=2.08D-09 NDo=     1
 LinEq1:  Iter= 38 NonCon=     0 RMS=2.71D-11 Max=7.09D-10 NDo=     1
 Linear equations converged to 1.000D-10 1.000D-09 after    38 iterations.
 End of Minotr F.D. properties file   721 does not exist.
 End of Minotr F.D. properties file   722 does not exist.
 End of Minotr F.D. properties file   788 does not exist.
 Leave Link 1002 at Thu Mar 14 09:55:56 2024, MaxMem= 32212254720 cpu:            2893.7 elap:              97.5
 (Enter /home/<user>/g16/l701.exe)
 ... and contract with generalized density number  6.
 Compute integral first derivatives.
 Leave Link  701 at Thu Mar 14 09:55:57 2024, MaxMem= 32212254720 cpu:               6.9 elap:               0.2
 (Enter /home/<user>/g16/l702.exe)
 L702 exits ... SP integral derivatives will be done elsewhere.
 Leave Link  702 at Thu Mar 14 09:55:57 2024, MaxMem= 32212254720 cpu:               0.9 elap:               0.0
 (Enter /home/<user>/g16/l703.exe)
 Integral derivatives from FoFJK, PRISM(SPDF).
 Compute integral first derivatives, UseDBF=F ICtDFT=           0.
 Calling FoFJK, ICntrl=  10005127 FMM=F ISym2X=0 I1Cent= 0 IOpClX= 0 NMat=1 NMatS=1 NMatT=0.
 FoFJK:  IHMeth= 1 ICntrl=10005127 DoSepK=F KAlg= 0 I1Cent=           0 FoldK=F
 IRaf=         0 NMat=       1 IRICut=       1 DoRegI=T DoRafI=F ISym2E= 0 IDoP0=0 IntGTp=1.
 FoFCou: FMM=F IPFlag=           0 FMFlag=      100000 FMFlg1=         800
         NFxFlg=           0 DoJE=F BraDBF=F KetDBF=F FulRan=T
         wScrn=  0.000000 ICntrl=  10005127 IOpCl=  0 I1Cent=           0 NGrid=           0
         NMat0=    1 NMatS0=      1 NMatT0=    0 NMatD0=    1 NMtDS0=    0 NMtDT0=    0
 Symmetry not used in FoFCou.
 Leave Link  703 at Thu Mar 14 09:56:06 2024, MaxMem= 32212254720 cpu:             267.0 elap:               8.9
 (Enter /home/<user>/g16/l716.exe)
 Dipole        =-1.96157952D+00-1.72706474D+00-8.79555917D-02
 ***** Axes restored to original set *****
 -------------------------------------------------------------------
 Center     Atomic                   Forces (Hartrees/Bohr)
 Number     Number              X              Y              Z
 -------------------------------------------------------------------
      1        6          -0.000073979    0.000013776   -0.000003020
      2        6           0.000047111   -0.000003551   -0.000011844
      3        6          -0.000097175   -0.000001905    0.000006244
      4        6           0.000056966   -0.000023556    0.000005894
      5        6          -0.000080753   -0.000020017    0.000001396
      6        6           0.000065466    0.000005633    0.000009314
      7        1           0.000010188    0.000001835    0.000000147
      8        1           0.000027636    0.000002933   -0.000011582
      9        1          -0.000008340   -0.000004575   -0.000006062
     10        6          -0.000004572    0.000032499    0.000002594
     11        6          -0.000037872   -0.000029623    0.000007278
     12        6           0.000018888    0.000015682   -0.000003049
     13        6           0.000000299   -0.000001417    0.000000482
     14        6           0.000021544    0.000006246   -0.000002145
     15        6          -0.000038960    0.000001538    0.000001958
     16        6           0.000088036    0.000008142   -0.000005453
     17        1          -0.000003875   -0.000002279    0.000000785
     18        1           0.000001894    0.000000907   -0.000000744
     19        1          -0.000004865   -0.000001947    0.000000810
     20        1           0.000003542    0.000001554    0.000000541
     21        6          -0.000001503   -0.000000478   -0.000000704
     22        1          -0.000000591   -0.000001487    0.000002894
     23        1           0.000002024   -0.000000792    0.000002242
     24        1           0.000000944   -0.000001356    0.000000188
     25        6          -0.000000700   -0.000003028   -0.000007659
     26        1           0.000002137   -0.000003811   -0.000001731
     27        1          -0.000000047   -0.000003786   -0.000002056
     28        1           0.000000119   -0.000000601    0.000000999
     29        6           0.000062088    0.000119643    0.000025261
     30        6          -0.000114842   -0.000069561   -0.000027311
     31        6           0.000007105   -0.000061175    0.000000136
     32        6           0.000074591   -0.000063184    0.000007156
     33        6          -0.000023945   -0.000061542    0.000003615
     34        1          -0.000032696    0.000032639    0.000003575
     35        6          -0.000029183    0.000111454    0.000010551
     36        1           0.000052249    0.000022515    0.000001593
     37        7           0.000043268    0.000053831    0.000016113
     38        7           0.000037386    0.000027794   -0.000003997
     39       16          -0.000025157   -0.000125866   -0.000021912
     40        6          -0.000013133    0.000001948   -0.000011285
     41        6           0.000008021   -0.000004219    0.000008959
     42        6           0.000035652   -0.000006528    0.000009414
     43        6          -0.000025566    0.000018547    0.000007398
     44        1          -0.000007312    0.000015212    0.000004957
     45        6          -0.000013558    0.000001578   -0.000011055
     46        1          -0.000029532    0.000006032   -0.000008471
     47        6          -0.000009477   -0.000009763    0.000003136
     48        1           0.000003258   -0.000005013   -0.000005946
     49        1           0.000005100    0.000004536    0.000000142
     50        6          -0.000006880   -0.000002929   -0.000003076
     51        1           0.000001165    0.000002341    0.000002391
     52        1           0.000003289   -0.000001594   -0.000001442
     53        6           0.000007261   -0.000001670    0.000007823
     54        1          -0.000000197    0.000000469   -0.000005203
     55        1           0.000000818    0.000003856    0.000003024
     56        7          -0.000001725    0.000011770   -0.000009426
     57        1           0.000001444    0.000000748    0.000006425
     58        1          -0.000003055   -0.000008404   -0.000000263
 -------------------------------------------------------------------
 Cartesian Forces:  Max     0.000125866 RMS     0.000029529
 Leave Link  716 at Thu Mar 14 09:56:06 2024, MaxMem= 32212254720 cpu:               1.8 elap:               0.1
 (Enter /home/<user>/g16/l103.exe)

 GradGradGradGradGradGradGradGradGradGradGradGradGradGradGradGradGradGrad
 Berny optimization.
 Using GEDIIS/GDIIS optimizer.
 FormGI is forming the generalized inverse of G from B-inverse, IUseBI=4.
 GSVD:  received Info=                   1 from GESDD.
 Internal  Forces:  Max     0.000137534 RMS     0.000017512
 Search for a local minimum.
 Step number   8 out of a maximum of  346
 All quantities printed in internal units (Hartrees-Bohrs-Radians)
 RMS Force = .17512D-04 SwitMx=.10000D-02 MixMth= 2
 Mixed Optimization -- En-DIIS/RFO-DIIS
 Swapping is turned off.
 Update second derivatives using D2CorX and points    2    3    4    5    6
                                                      7    8
 DE= -1.86D-06 DEPred=-1.94D-06 R= 9.57D-01
 TightC=F SS=  1.41D+00  RLast= 5.57D-03 DXNew= 1.3451D+00 1.6710D-02
 Trust test= 9.57D-01 RLast= 5.57D-03 DXMaxT set to 8.00D-01
 ITU=  1  0  1  1  1  1  1  0
     Eigenvalues ---    0.00230   0.00230   0.00250   0.00597   0.00709
     Eigenvalues ---    0.00756   0.00863   0.01077   0.01251   0.01452
     Eigenvalues ---    0.01472   0.01599   0.01628   0.01642   0.01654
     Eigenvalues ---    0.01684   0.01721   0.01730   0.01831   0.01860
     Eigenvalues ---    0.01885   0.01924   0.02026   0.02040   0.02057
     Eigenvalues ---    0.02074   0.02087   0.02092   0.02094   0.02095
     Eigenvalues ---    0.02112   0.02119   0.02124   0.02125   0.02134
     Eigenvalues ---    0.02137   0.02144   0.02145   0.02150   0.02156
     Eigenvalues ---    0.02161   0.02162   0.02259   0.02317   0.04059
     Eigenvalues ---    0.04285   0.04377   0.04465   0.05419   0.05423
     Eigenvalues ---    0.05438   0.05512   0.05512   0.05561   0.05999
     Eigenvalues ---    0.08056   0.08950   0.09257   0.11581   0.12598
     Eigenvalues ---    0.12813   0.14480   0.15366   0.15963   0.15973
     Eigenvalues ---    0.15998   0.15999   0.16000   0.16000   0.16000
     Eigenvalues ---    0.16000   0.16000   0.16000   0.16000   0.16000
     Eigenvalues ---    0.16000   0.16000   0.16000   0.16004   0.16012
     Eigenvalues ---    0.16020   0.16072   0.19035   0.21245   0.21886
     Eigenvalues ---    0.21958   0.21998   0.22033   0.22388   0.22498
     Eigenvalues ---    0.22623   0.22976   0.23480   0.24098   0.24126
     Eigenvalues ---    0.24591   0.24669   0.24978   0.24979   0.24995
     Eigenvalues ---    0.25001   0.25038   0.26795   0.28057   0.28107
     Eigenvalues ---    0.28460   0.28612   0.29007   0.31158   0.33128
     Eigenvalues ---    0.33784   0.33788   0.34027   0.34088   0.34098
     Eigenvalues ---    0.34103   0.34105   0.34130   0.34274   0.34287
     Eigenvalues ---    0.34495   0.34552   0.35033   0.35049   0.35083
     Eigenvalues ---    0.35103   0.35146   0.35152   0.35163   0.35187
     Eigenvalues ---    0.35190   0.35257   0.35340   0.35515   0.35956
     Eigenvalues ---    0.36113   0.36389   0.36443   0.37114   0.38006
     Eigenvalues ---    0.39239   0.40264   0.41040   0.41467   0.41675
     Eigenvalues ---    0.42115   0.42404   0.42588   0.43327   0.44319
     Eigenvalues ---    0.44384   0.44524   0.44803   0.44873   0.45080
     Eigenvalues ---    0.45795   0.45920   0.46039   0.46193   0.46346
     Eigenvalues ---    0.47024   0.47111   0.47362   0.48016   0.54071
     Eigenvalues ---    0.54581   0.64612   0.66905
 En-DIIS/RFO-DIIS/Sim-DIIS IScMMF=       -3 using points:     8    7    6    5    4    3
 RFO step:  Lambda=-3.76739428D-07.
 NNeg= 0 NGDIIS= 6 SimSw=  2.50D-01 Rises=F DC= -1.86D-06 SmlDif=  1.00D-05
 NRisDI= 0 DoIntr=F SqrtH=F CThrHd= 10.0 CDAdj=  3.0
 RMS Error=  0.1673980687D-03 NUsed= 6 OKEnD=F EnDIS=F
 InvSVX:  RCond= 1.61D-06 Info=           0 Equed=N FErr=  5.10D-15 BErr=  2.35D-16
 DidBck=F Rises=F RFO-DIIS coefs:    1.04197   -0.04291    0.00847    0.00145   -0.00115
                  RFO-DIIS coefs:   -0.00782
 Iteration  1 RMS(Cart)=  0.00049085 RMS(Int)=  0.00000018
 Iteration  2 RMS(Cart)=  0.00000018 RMS(Int)=  0.00000016
 ITry= 1 IFail=0 DXMaxC= 3.67D-03 DCOld= 1.00D+10 DXMaxT= 8.00D-01 DXLimC= 3.00D+00 Rises=F
 Variable       Old X    -DE/DX   Delta X   Delta X   Delta X     New X
                                 (Linear)    (Quad)   (Total)
    R1        2.70125   0.00002  -0.00000   0.00003   0.00003   2.70128
    R2        2.61471  -0.00004   0.00000  -0.00008  -0.00008   2.61464
    R3        2.04319   0.00001   0.00002   0.00000   0.00002   2.04321
    R4        2.69884   0.00003   0.00003   0.00003   0.00006   2.69890
    R5        2.75538   0.00001  -0.00004   0.00006   0.00002   2.75540
    R6        2.60049  -0.00004  -0.00002  -0.00006  -0.00007   2.60042
    R7        2.04942   0.00001  -0.00001   0.00002   0.00001   2.04943
    R8        2.68317   0.00000  -0.00003   0.00003  -0.00000   2.68317
    R9        2.88964  -0.00000   0.00001  -0.00001   0.00000   2.88964
   R10        2.65265   0.00002  -0.00003   0.00006   0.00003   2.65269
   R11        2.73936  -0.00006   0.00002  -0.00017  -0.00014   2.73921
   R12        2.05356   0.00000   0.00001  -0.00001  -0.00000   2.05356
   R13        2.88700   0.00000   0.00000   0.00001   0.00001   2.88701
   R14        2.92076   0.00001   0.00000   0.00001   0.00001   2.92077
   R15        2.92012   0.00001   0.00001   0.00004   0.00005   2.92017
   R16        2.62323  -0.00002   0.00000  -0.00004  -0.00003   2.62320
   R17        2.67759   0.00001  -0.00002   0.00004   0.00002   2.67761
   R18        2.64763  -0.00000  -0.00001  -0.00000  -0.00001   2.64762
   R19        2.05432   0.00000   0.00000   0.00000   0.00001   2.05432
   R20        2.65134  -0.00000  -0.00001  -0.00000  -0.00001   2.65132
   R21        2.05322  -0.00000  -0.00000  -0.00000  -0.00000   2.05322
   R22        2.63017  -0.00002   0.00001  -0.00004  -0.00003   2.63014
   R23        2.05276   0.00000   0.00000   0.00000   0.00001   2.05276
   R24        2.65166   0.00002  -0.00001   0.00005   0.00004   2.65170
   R25        2.05304   0.00000   0.00000   0.00000   0.00000   2.05304
   R26        2.07115   0.00000   0.00000   0.00000   0.00001   2.07116
   R27        2.07070   0.00000   0.00000   0.00000   0.00001   2.07071
   R28        2.06827  -0.00000   0.00000  -0.00000  -0.00000   2.06827
   R29        2.07082   0.00000   0.00000   0.00001   0.00001   2.07083
   R30        2.07110   0.00000   0.00000   0.00001   0.00001   2.07111
   R31        2.06847  -0.00000   0.00000  -0.00000  -0.00000   2.06847
   R32        2.71956  -0.00008   0.00001  -0.00025  -0.00024   2.71933
   R33        2.68413   0.00004   0.00003   0.00006   0.00009   2.68421
   R34        2.72587   0.00004  -0.00003   0.00011   0.00008   2.72595
   R35        2.55430  -0.00001   0.00002  -0.00001   0.00001   2.55431
   R36        2.61160   0.00003  -0.00000   0.00009   0.00008   2.61169
   R37        2.04844  -0.00001  -0.00002  -0.00001  -0.00003   2.04841
   R38        2.72265  -0.00014   0.00004  -0.00030  -0.00026   2.72239
   R39        2.55146  -0.00001   0.00002  -0.00001   0.00001   2.55147
   R40        2.67914   0.00001   0.00003   0.00001   0.00004   2.67918
   R41        2.04805  -0.00000  -0.00001   0.00000  -0.00001   2.04804
   R42        2.76318  -0.00005  -0.00002  -0.00005  -0.00006   2.76312
   R43        3.18623  -0.00006   0.00005  -0.00020  -0.00015   3.18608
   R44        3.17928  -0.00006   0.00006  -0.00017  -0.00011   3.17917
   R45        2.67938  -0.00001   0.00003  -0.00002   0.00001   2.67939
   R46        2.68199  -0.00001   0.00004  -0.00005  -0.00001   2.68198
   R47        2.62325  -0.00003  -0.00001  -0.00004  -0.00005   2.62320
   R48        2.04358   0.00002  -0.00000   0.00002   0.00001   2.04359
   R49        2.61861  -0.00001  -0.00002  -0.00001  -0.00004   2.61858
   R50        2.04982   0.00001  -0.00001   0.00003   0.00002   2.04984
   R51        2.65262   0.00001  -0.00001   0.00002   0.00001   2.65264
   R52        2.05604  -0.00000   0.00000  -0.00000  -0.00000   2.05604
   R53        2.65675  -0.00000   0.00000  -0.00001  -0.00001   2.65674
   R54        2.05580  -0.00000  -0.00000  -0.00001  -0.00001   2.05579
   R55        2.85015   0.00000  -0.00001   0.00001   0.00000   2.85016
   R56        2.07102  -0.00000  -0.00000  -0.00000  -0.00001   2.07102
   R57        2.07651   0.00000  -0.00000   0.00000   0.00000   2.07652
   R58        2.91335   0.00001   0.00001   0.00001   0.00002   2.91337
   R59        2.08732  -0.00000  -0.00000  -0.00000  -0.00000   2.08732
   R60        2.07251  -0.00000  -0.00000  -0.00000  -0.00000   2.07251
   R61        2.77036  -0.00000  -0.00001  -0.00001  -0.00001   2.77035
   R62        1.92709  -0.00000  -0.00000  -0.00001  -0.00001   1.92708
   R63        1.92528  -0.00000  -0.00000  -0.00000  -0.00001   1.92527
    A1        2.12384  -0.00000   0.00003  -0.00003  -0.00001   2.12384
    A2        2.05839  -0.00001  -0.00004  -0.00001  -0.00005   2.05834
    A3        2.10092   0.00001   0.00001   0.00004   0.00005   2.10097
    A4        2.05223  -0.00001  -0.00007   0.00000  -0.00007   2.05217
    A5        2.12647   0.00004  -0.00002   0.00010   0.00008   2.12656
    A6        2.10445  -0.00002   0.00009  -0.00010  -0.00002   2.10444
    A7        2.10671   0.00002   0.00003   0.00005   0.00008   2.10679
    A8        2.08800  -0.00004   0.00007  -0.00027  -0.00021   2.08780
    A9        2.08766   0.00002  -0.00009   0.00023   0.00013   2.08780
   A10        2.10418  -0.00001   0.00003  -0.00006  -0.00003   2.10414
   A11        2.24708   0.00002  -0.00002   0.00011   0.00009   2.24717
   A12        1.93190  -0.00001  -0.00000  -0.00005  -0.00006   1.93185
   A13        2.09229  -0.00000  -0.00004   0.00001  -0.00002   2.09226
   A14        1.89819   0.00001   0.00001   0.00004   0.00004   1.89824
   A15        2.29266  -0.00001   0.00003  -0.00005  -0.00002   2.29264
   A16        2.08692   0.00001   0.00002   0.00003   0.00005   2.08697
   A17        2.08946   0.00000  -0.00002   0.00005   0.00003   2.08949
   A18        2.10680  -0.00001  -0.00000  -0.00008  -0.00008   2.10672
   A19        1.76239   0.00000  -0.00000   0.00004   0.00004   1.76243
   A20        1.94481  -0.00000   0.00000  -0.00001  -0.00001   1.94480
   A21        1.94564  -0.00000   0.00000  -0.00003  -0.00002   1.94562
   A22        1.94261  -0.00000  -0.00000   0.00001   0.00000   1.94262
   A23        1.94376  -0.00000   0.00000  -0.00001  -0.00001   1.94375
   A24        1.92038   0.00000  -0.00000   0.00000   0.00000   1.92038
   A25        2.25088   0.00001  -0.00001   0.00006   0.00006   2.25094
   A26        1.93665  -0.00001   0.00000  -0.00007  -0.00007   1.93658
   A27        2.09566   0.00000   0.00000   0.00001   0.00001   2.09567
   A28        2.07847   0.00000   0.00000   0.00001   0.00001   2.07849
   A29        2.11154   0.00000  -0.00000   0.00002   0.00002   2.11156
   A30        2.09317  -0.00000  -0.00000  -0.00003  -0.00003   2.09314
   A31        2.10958   0.00000  -0.00001   0.00001  -0.00000   2.10958
   A32        2.08739  -0.00000   0.00000   0.00000   0.00001   2.08740
   A33        2.08621  -0.00000   0.00000  -0.00001  -0.00000   2.08621
   A34        2.10365   0.00000  -0.00000   0.00000   0.00000   2.10365
   A35        2.08764  -0.00000  -0.00000  -0.00003  -0.00003   2.08761
   A36        2.09189   0.00000   0.00000   0.00003   0.00003   2.09192
   A37        2.07236   0.00000   0.00000   0.00001   0.00001   2.07237
   A38        2.10379   0.00000   0.00000   0.00002   0.00002   2.10381
   A39        2.10703  -0.00000  -0.00000  -0.00002  -0.00003   2.10700
   A40        1.89559   0.00001  -0.00000   0.00005   0.00004   1.89563
   A41        2.28095  -0.00000   0.00001  -0.00002  -0.00001   2.28094
   A42        2.10664  -0.00001  -0.00000  -0.00003  -0.00003   2.10661
   A43        1.93089   0.00000   0.00000   0.00002   0.00002   1.93091
   A44        1.92995   0.00000   0.00001   0.00000   0.00001   1.92996
   A45        1.94105   0.00000  -0.00000   0.00000  -0.00000   1.94105
   A46        1.88248  -0.00000  -0.00000  -0.00000  -0.00000   1.88247
   A47        1.88968  -0.00000  -0.00000  -0.00001  -0.00001   1.88967
   A48        1.88799  -0.00000  -0.00000  -0.00002  -0.00002   1.88797
   A49        1.92951   0.00000   0.00001   0.00002   0.00002   1.92953
   A50        1.93146   0.00000   0.00001   0.00002   0.00003   1.93149
   A51        1.94139  -0.00000  -0.00001  -0.00000  -0.00001   1.94138
   A52        1.88192  -0.00000  -0.00000  -0.00002  -0.00002   1.88190
   A53        1.88840  -0.00000  -0.00000  -0.00001  -0.00001   1.88839
   A54        1.88933  -0.00000  -0.00000  -0.00001  -0.00001   1.88932
   A55        2.16098   0.00003   0.00006  -0.00002   0.00003   2.16102
   A56        2.08735  -0.00005   0.00006  -0.00018  -0.00012   2.08723
   A57        2.03483   0.00002  -0.00012   0.00020   0.00008   2.03491
   A58        2.10428  -0.00001   0.00007  -0.00009  -0.00003   2.10425
   A59        2.18073   0.00003  -0.00006   0.00014   0.00008   2.18082
   A60        1.99759  -0.00003  -0.00000  -0.00006  -0.00006   1.99753
   A61        2.14369  -0.00002   0.00006  -0.00011  -0.00006   2.14363
   A62        2.08128  -0.00004  -0.00002  -0.00023  -0.00025   2.08103
   A63        2.05640   0.00006  -0.00004   0.00034   0.00030   2.05670
   A64        2.10927   0.00001   0.00006  -0.00006  -0.00000   2.10926
   A65        1.99990   0.00004  -0.00004   0.00009   0.00005   1.99995
   A66        2.17352  -0.00005  -0.00002  -0.00002  -0.00004   2.17348
   A67        2.13761  -0.00004   0.00006  -0.00017  -0.00012   2.13749
   A68        2.06326   0.00008  -0.00004   0.00044   0.00040   2.06366
   A69        2.08085  -0.00004  -0.00003  -0.00026  -0.00029   2.08057
   A70        2.03585   0.00005  -0.00012   0.00024   0.00012   2.03597
   A71        2.15640  -0.00006   0.00014  -0.00021  -0.00007   2.15633
   A72        2.09092   0.00002  -0.00002  -0.00004  -0.00005   2.09087
   A73        1.84775  -0.00003   0.00005  -0.00008  -0.00003   1.84773
   A74        1.84935  -0.00006   0.00007  -0.00017  -0.00010   1.84925
   A75        1.73002   0.00007  -0.00009   0.00022   0.00013   1.73015
   A76        2.13743  -0.00003   0.00005  -0.00002   0.00003   2.13746
   A77        2.10560   0.00000   0.00001  -0.00008  -0.00007   2.10554
   A78        2.04004   0.00002  -0.00007   0.00010   0.00004   2.04008
   A79        2.11150  -0.00001   0.00003  -0.00007  -0.00004   2.11146
   A80        2.07245   0.00000  -0.00003   0.00004   0.00002   2.07247
   A81        2.09924   0.00001  -0.00000   0.00002   0.00002   2.09926
   A82        2.12131  -0.00001   0.00003  -0.00004  -0.00000   2.12131
   A83        2.09062  -0.00002   0.00004  -0.00020  -0.00016   2.09046
   A84        2.07052   0.00003  -0.00007   0.00024   0.00017   2.07069
   A85        2.12499  -0.00000   0.00002  -0.00002   0.00000   2.12499
   A86        2.07745   0.00001  -0.00002   0.00005   0.00004   2.07749
   A87        2.08074  -0.00000  -0.00000  -0.00004  -0.00004   2.08070
   A88        2.11566  -0.00001   0.00001  -0.00004  -0.00003   2.11563
   A89        2.08485   0.00001  -0.00001   0.00007   0.00006   2.08491
   A90        2.08268  -0.00000  -0.00000  -0.00003  -0.00003   2.08265
   A91        2.05270   0.00001  -0.00003   0.00006   0.00003   2.05273
   A92        2.11879  -0.00001   0.00002  -0.00005  -0.00003   2.11876
   A93        2.11100  -0.00000   0.00001  -0.00001  -0.00000   2.11099
   A94        1.93362   0.00000   0.00000   0.00001   0.00002   1.93363
   A95        1.91529   0.00000   0.00000   0.00002   0.00002   1.91531
   A96        1.96525  -0.00000  -0.00000   0.00000  -0.00000   1.96525
   A97        1.86737  -0.00000   0.00001  -0.00002  -0.00001   1.86736
   A98        1.88270   0.00000  -0.00000   0.00001   0.00000   1.88270
   A99        1.89653  -0.00000  -0.00000  -0.00002  -0.00003   1.89650
   A100       1.89919  -0.00000  -0.00000  -0.00001  -0.00001   1.89918
   A101       1.90041   0.00000  -0.00000   0.00000   0.00000   1.90041
   A102       1.92110   0.00000  -0.00001   0.00001   0.00000   1.92110
   A103       1.85952  -0.00000   0.00000  -0.00001  -0.00000   1.85952
   A104       1.99777   0.00000   0.00000  -0.00000   0.00000   1.99777
   A105       1.88296   0.00000   0.00000   0.00000   0.00000   1.88296
   A106       1.91244   0.00000   0.00001   0.00002   0.00003   1.91247
   A107       1.91452  -0.00000   0.00000   0.00000   0.00001   1.91453
   A108       1.84850  -0.00000   0.00000   0.00001   0.00002   1.84852
    D1       -0.02155   0.00000  -0.00011   0.00011   0.00001  -0.02154
    D2        3.11271   0.00000   0.00006   0.00012   0.00018   3.11289
    D3        3.11076   0.00000  -0.00008   0.00005  -0.00003   3.11073
    D4       -0.03817   0.00000   0.00008   0.00006   0.00015  -0.03803
    D5        0.01494  -0.00000   0.00001   0.00001   0.00002   0.01496
    D6       -3.13022   0.00000   0.00001   0.00012   0.00013  -3.13009
    D7       -3.11714  -0.00000  -0.00002   0.00007   0.00005  -3.11709
    D8        0.02089   0.00000  -0.00001   0.00018   0.00017   0.02105
    D9        0.01188  -0.00000   0.00013  -0.00017  -0.00004   0.01184
   D10       -3.08650  -0.00001   0.00014  -0.00030  -0.00016  -3.08665
   D11       -3.12248  -0.00000  -0.00003  -0.00018  -0.00021  -3.12268
   D12        0.06234  -0.00001  -0.00001  -0.00031  -0.00033   0.06201
   D13        0.34625  -0.00001  -0.00081   0.00017  -0.00064   0.34561
   D14       -2.78684  -0.00000  -0.00068   0.00028  -0.00040  -2.78725
   D15       -2.80289  -0.00001  -0.00064   0.00018  -0.00046  -2.80335
   D16        0.34720  -0.00001  -0.00052   0.00029  -0.00022   0.34697
   D17        0.00393   0.00000  -0.00006   0.00011   0.00004   0.00397
   D18       -3.12917   0.00000  -0.00007   0.00003  -0.00004  -3.12921
   D19        3.10231   0.00000  -0.00007   0.00022   0.00015   3.10247
   D20       -0.03079   0.00000  -0.00008   0.00015   0.00007  -0.03072
   D21       -0.01102  -0.00000  -0.00004   0.00002  -0.00002  -0.01104
   D22        3.13946   0.00000   0.00000   0.00002   0.00002   3.13947
   D23        3.12349   0.00000  -0.00003   0.00009   0.00005   3.12354
   D24       -0.00922   0.00000   0.00001   0.00008   0.00009  -0.00913
   D25       -3.14013  -0.00000   0.00000  -0.00002  -0.00002  -3.14015
   D26        1.07877  -0.00000   0.00001  -0.00004  -0.00004   1.07873
   D27       -1.07416  -0.00000   0.00000  -0.00002  -0.00002  -1.07419
   D28        0.00928  -0.00000  -0.00001  -0.00009  -0.00009   0.00918
   D29       -2.05500  -0.00000  -0.00000  -0.00012  -0.00012  -2.05512
   D30        2.07525  -0.00000  -0.00000  -0.00009  -0.00010   2.07515
   D31        0.00157  -0.00000   0.00007  -0.00008  -0.00001   0.00156
   D32       -3.13642  -0.00000   0.00006  -0.00019  -0.00013  -3.13655
   D33        3.13196  -0.00000   0.00001  -0.00007  -0.00006   3.13190
   D34       -0.00603  -0.00000   0.00001  -0.00018  -0.00017  -0.00621
   D35        0.00496  -0.00000  -0.00001  -0.00003  -0.00004   0.00492
   D36       -3.13671  -0.00000  -0.00001  -0.00008  -0.00009  -3.13680
   D37       -3.12637  -0.00000   0.00004  -0.00004   0.00000  -3.12637
   D38        0.01515  -0.00000   0.00004  -0.00009  -0.00005   0.01510
   D39        3.13616   0.00000   0.00001   0.00007   0.00007   3.13623
   D40       -0.00621   0.00000   0.00000   0.00007   0.00007  -0.00614
   D41       -1.08115   0.00000   0.00000   0.00008   0.00008  -1.08107
   D42        2.05966   0.00000   0.00000   0.00008   0.00008   2.05974
   D43        1.06883   0.00000   0.00000   0.00008   0.00008   1.06891
   D44       -2.07354   0.00000  -0.00000   0.00008   0.00008  -2.07347
   D45        3.07510   0.00000  -0.00001  -0.00000  -0.00001   3.07509
   D46       -1.12363   0.00000  -0.00001   0.00001   0.00000  -1.12363
   D47        0.97435   0.00000  -0.00001  -0.00001  -0.00001   0.97434
   D48        1.12247  -0.00000  -0.00001  -0.00005  -0.00006   1.12241
   D49       -3.07626  -0.00000  -0.00001  -0.00004  -0.00004  -3.07631
   D50       -0.97828  -0.00000  -0.00001  -0.00005  -0.00006  -0.97834
   D51       -1.04083  -0.00000  -0.00001  -0.00004  -0.00005  -1.04087
   D52        1.04362   0.00000  -0.00000  -0.00003  -0.00003   1.04359
   D53       -3.14157  -0.00000  -0.00000  -0.00004  -0.00005   3.14156
   D54        1.12443  -0.00000   0.00000  -0.00004  -0.00004   1.12439
   D55       -3.07491  -0.00000   0.00001  -0.00004  -0.00003  -3.07494
   D56       -0.97400  -0.00000   0.00001  -0.00004  -0.00004  -0.97404
   D57        3.07821   0.00000   0.00000  -0.00002  -0.00001   3.07819
   D58       -1.12113   0.00000   0.00001  -0.00002  -0.00001  -1.12114
   D59        0.97977   0.00000   0.00001  -0.00002  -0.00001   0.97976
   D60       -1.04235  -0.00000  -0.00000  -0.00002  -0.00002  -1.04236
   D61        1.04150   0.00000   0.00000  -0.00001  -0.00001   1.04149
   D62       -3.14078   0.00000   0.00000  -0.00001  -0.00001  -3.14079
   D63        3.14045  -0.00000  -0.00000   0.00001   0.00001   3.14045
   D64       -0.00054  -0.00000  -0.00000   0.00000  -0.00000  -0.00054
   D65       -0.00030   0.00000   0.00000   0.00001   0.00001  -0.00029
   D66       -3.14129  -0.00000  -0.00000  -0.00000  -0.00000  -3.14129
   D67        0.00119   0.00000   0.00000  -0.00002  -0.00002   0.00117
   D68       -3.14034   0.00000   0.00001   0.00002   0.00003  -3.14031
   D69       -3.14111   0.00000  -0.00000  -0.00002  -0.00002  -3.14113
   D70        0.00055   0.00000   0.00000   0.00002   0.00002   0.00058
   D71       -0.00005  -0.00000  -0.00000  -0.00002  -0.00002  -0.00007
   D72       -3.14129  -0.00000  -0.00000  -0.00001  -0.00002  -3.14130
   D73        3.14094  -0.00000  -0.00000  -0.00001  -0.00001   3.14093
   D74       -0.00030  -0.00000  -0.00000  -0.00000  -0.00000  -0.00030
   D75        0.00015   0.00000   0.00000   0.00001   0.00001   0.00016
   D76       -3.14133   0.00000  -0.00000   0.00002   0.00002  -3.14132
   D77        3.14139   0.00000   0.00000  -0.00000  -0.00000   3.14139
   D78       -0.00009   0.00000  -0.00000   0.00001   0.00001  -0.00008
   D79        0.00009   0.00000   0.00000   0.00002   0.00002   0.00012
   D80       -3.14151   0.00000  -0.00000   0.00003   0.00003  -3.14149
   D81        3.14158   0.00000   0.00001   0.00001   0.00001  -3.14159
   D82       -0.00002   0.00000  -0.00000   0.00002   0.00002  -0.00001
   D83        3.14123  -0.00000  -0.00000   0.00002   0.00002   3.14125
   D84       -0.00044  -0.00000  -0.00001  -0.00003  -0.00004  -0.00048
   D85       -0.00035  -0.00000   0.00000   0.00001   0.00002  -0.00033
   D86        3.14116  -0.00000   0.00000  -0.00004  -0.00004   3.14112
   D87        3.11484  -0.00000   0.00000   0.00009   0.00009   3.11493
   D88        0.01207   0.00000  -0.00009   0.00020   0.00011   0.01218
   D89       -0.03502  -0.00000  -0.00012  -0.00003  -0.00014  -0.03516
   D90       -3.13778   0.00000  -0.00020   0.00008  -0.00012  -3.13790
   D91       -3.12065  -0.00000   0.00006  -0.00022  -0.00016  -3.12081
   D92        0.08715  -0.00000   0.00010  -0.00013  -0.00003   0.08712
   D93        0.02884   0.00000   0.00017  -0.00011   0.00006   0.02890
   D94       -3.04655   0.00000   0.00022  -0.00003   0.00019  -3.04636
   D95        0.00851   0.00000  -0.00003   0.00018   0.00016   0.00867
   D96       -3.10066  -0.00000  -0.00005  -0.00007  -0.00012  -3.10079
   D97        3.11514   0.00000   0.00005   0.00009   0.00014   3.11528
   D98        0.00597  -0.00000   0.00003  -0.00017  -0.00014   0.00583
   D99        3.11113   0.00000   0.00006   0.00008   0.00014   3.11127
   D100       0.00626   0.00001  -0.00002   0.00019   0.00016   0.00642
   D101       0.00554   0.00000  -0.00008   0.00009   0.00001   0.00556
   D102      -3.07735   0.00000   0.00004   0.00007   0.00010  -3.07724
   D103       3.08182  -0.00000  -0.00012  -0.00002  -0.00014   3.08168
   D104      -0.00107   0.00000  -0.00001  -0.00004  -0.00004  -0.00111
   D105       0.02521  -0.00000   0.00012  -0.00020  -0.00008   0.02513
   D106      -3.12251  -0.00000   0.00004  -0.00015  -0.00011  -3.12261
   D107       3.13102   0.00001   0.00015   0.00008   0.00023   3.13125
   D108      -0.01670   0.00001   0.00007   0.00013   0.00020  -0.01650
   D109      -0.01484   0.00000  -0.00002   0.00005   0.00004  -0.01481
   D110      -3.12265  -0.00001  -0.00004  -0.00022  -0.00026  -3.12290
   D111      -0.03267  -0.00000  -0.00007   0.00007  -0.00000  -0.03267
   D112       3.11481   0.00000   0.00000   0.00002   0.00003   3.11483
   D113       3.04965  -0.00000  -0.00019   0.00012  -0.00007   3.04958
   D114      -0.08606   0.00000  -0.00011   0.00007  -0.00005  -0.08610
   D115      -0.40134   0.00002   0.00042   0.00052   0.00094  -0.40040
   D116       2.75670   0.00001   0.00037   0.00043   0.00079   2.75749
   D117       2.73394   0.00002   0.00034   0.00057   0.00091   2.73485
   D118      -0.39121   0.00001   0.00029   0.00048   0.00076  -0.39044
   D119      -0.01320  -0.00000   0.00001  -0.00014  -0.00013  -0.01333
   D120       0.01638   0.00000   0.00000   0.00005   0.00005   0.01644
   D121      -3.10817  -0.00000  -0.00002  -0.00009  -0.00011  -3.10828
   D122       0.03306   0.00000  -0.00004   0.00001  -0.00003   0.03302
   D123       0.01757   0.00000   0.00003  -0.00000   0.00003   0.01759
   D124      -3.12439   0.00000   0.00001   0.00009   0.00010  -3.12429
   D125       3.12209   0.00000   0.00000   0.00010   0.00010   3.12219
   D126      -0.06118   0.00001  -0.00003   0.00032   0.00029  -0.06089
   D127      -0.00395  -0.00000  -0.00005   0.00002  -0.00003  -0.00398
   D128       3.09596   0.00000  -0.00008   0.00023   0.00015   3.09612
   D129      -0.01767  -0.00000   0.00001  -0.00005  -0.00004  -0.01771
   D130       3.12148  -0.00000  -0.00001  -0.00010  -0.00011   3.12137
   D131       3.12430  -0.00000   0.00003  -0.00015  -0.00012   3.12418
   D132      -0.01974  -0.00001   0.00001  -0.00020  -0.00019  -0.01993
   D133      -0.01009   0.00000   0.00004   0.00002   0.00006  -0.01003
   D134       3.12868   0.00000   0.00002  -0.00003  -0.00001   3.12867
   D135      -3.11047  -0.00000   0.00006  -0.00018  -0.00012  -3.11059
   D136       0.02830  -0.00000   0.00005  -0.00023  -0.00018   0.02811
   D137       0.00333   0.00000  -0.00002   0.00009   0.00006   0.00340
   D138      -3.09824   0.00000  -0.00001   0.00010   0.00009  -3.09814
   D139      -3.13580   0.00000  -0.00000   0.00014   0.00013  -3.13567
   D140       0.04581   0.00000   0.00001   0.00015   0.00016   0.04597
   D141       0.01044  -0.00000   0.00000  -0.00007  -0.00007   0.01037
   D142       3.11220  -0.00000  -0.00001  -0.00009  -0.00010   3.11210
   D143      -3.12833   0.00000   0.00002  -0.00002  -0.00000  -3.12834
   D144      -0.02658  -0.00000   0.00000  -0.00004  -0.00003  -0.02661
   D145      -2.62745  -0.00000  -0.00005  -0.00037  -0.00042  -2.62786
   D146      -0.56926  -0.00000  -0.00004  -0.00037  -0.00041  -0.56967
   D147       1.54560  -0.00000  -0.00004  -0.00039  -0.00043   1.54517
   D148       0.55550  -0.00000  -0.00003  -0.00035  -0.00039   0.55512
   D149       2.61369  -0.00000  -0.00002  -0.00036  -0.00038   2.61331
   D150      -1.55464  -0.00000  -0.00003  -0.00037  -0.00040  -1.55504
   D151      -0.98444   0.00000  -0.00002   0.00003   0.00002  -0.98442
   D152       1.03582  -0.00000  -0.00001   0.00002   0.00001   1.03583
   D153       3.09655   0.00000  -0.00002   0.00004   0.00002   3.09656
   D154      -3.12347  -0.00000  -0.00002   0.00001  -0.00000  -3.12348
   D155      -1.10322  -0.00000  -0.00001   0.00000  -0.00001  -1.10322
   D156       0.95751  -0.00000  -0.00002   0.00001  -0.00000   0.95751
   D157       1.14109   0.00000  -0.00002   0.00004   0.00002   1.14112
   D158      -3.12183   0.00000  -0.00002   0.00003   0.00002  -3.12182
   D159      -1.06110   0.00000  -0.00002   0.00004   0.00003  -1.06108
   D160       1.20321   0.00000   0.00008   0.00041   0.00049   1.20371
   D161      -3.05767   0.00000   0.00009   0.00045   0.00054  -3.05713
   D162      -0.94215   0.00000   0.00008   0.00042   0.00050  -0.94165
   D163       1.08015   0.00001   0.00010   0.00045   0.00055   1.08069
   D164      -3.00851   0.00000   0.00008   0.00043   0.00050  -3.00800
   D165      -0.98620   0.00001   0.00009   0.00046   0.00055  -0.98566
         Item               Value     Threshold  Converged?
 Maximum Force            0.000138     0.000450     YES
 RMS     Force            0.000018     0.000300     YES
 Maximum Displacement     0.003675     0.001800     NO 
 RMS     Displacement     0.000491     0.001200     YES
 Predicted change in Energy=-1.881359D-07
 Lowest energy point so far.  Saving SCF results.
 GradGradGradGradGradGradGradGradGradGradGradGradGradGradGradGradGradGrad

 Leave Link  103 at Thu Mar 14 09:56:06 2024, MaxMem= 32212254720 cpu:               4.4 elap:               0.2
 (Enter /home/<user>/g16/l202.exe)
 Stoichiometry    C29H25N3S
 Framework group  C1[X(C29H25N3S)]
 Deg. of freedom   168
 Full point group                 C1      NOp   1
 RotChk:  IX=0 Diff= 3.31D-04
 Largest Abelian subgroup         C1      NOp   1
 Largest concise Abelian subgroup C1      NOp   1
                         Standard orientation:                         
 ---------------------------------------------------------------------
 Center     Atomic      Atomic             Coordinates (Angstroms)
 Number     Number       Type             X           Y           Z
 ---------------------------------------------------------------------
      1          6           0       -2.447689    1.657141   -0.311135
      2          6           0       -1.767649    0.407060   -0.176308
      3          6           0       -2.565468   -0.763440    0.005800
      4          6           0       -3.938746   -0.680430    0.034432
      5          6           0       -4.589670    0.571766   -0.121579
      6          6           0       -3.828770    1.738802   -0.293476
      7          1           0       -1.848499    2.550537   -0.420009
      8          1           0       -2.082984   -1.721922    0.162931
      9          1           0       -4.312847    2.704791   -0.409419
     10          6           0       -4.961467   -1.800080    0.231080
     11          6           0       -6.270229   -1.015983    0.151560
     12          6           0       -7.574169   -1.481214    0.252676
     13          6           0       -8.632697   -0.569153    0.149563
     14          6           0       -8.388261    0.797475   -0.053024
     15          6           0       -7.084984    1.274968   -0.155992
     16          6           0       -6.022614    0.363992   -0.053477
     17          1           0       -7.781116   -2.536739    0.410252
     18          1           0       -9.656575   -0.924225    0.227770
     19          1           0       -9.224381    1.486687   -0.129727
     20          1           0       -6.895537    2.333197   -0.312766
     21          6           0       -4.796820   -2.479569    1.609514
     22          1           0       -5.577480   -3.233114    1.764356
     23          1           0       -3.825819   -2.982837    1.677318
     24          1           0       -4.859786   -1.748423    2.421519
     25          6           0       -4.868180   -2.855495   -0.893779
     26          1           0       -3.898583   -3.365236   -0.863639
     27          1           0       -5.650078   -3.614664   -0.777689
     28          1           0       -4.981579   -2.394669   -1.880136
     29          6           0       -0.313595    0.312644   -0.229701
     30          6           0        0.569965    1.426682   -0.008395
     31          6           0        0.297883   -0.934988   -0.524854
     32          6           0        2.000734    1.246867   -0.045865
     33          6           0        1.668651   -1.105587   -0.568857
     34          1           0       -0.326280   -1.781679   -0.786629
     35          6           0        2.576023   -0.046109   -0.315428
     36          1           0        2.055649   -2.074850   -0.860981
     37          7           0        0.171678    2.684161    0.286835
     38          7           0        2.714222    2.360280    0.226579
     39         16           0        1.585606    3.579288    0.492156
     40          6           0        4.015734   -0.299779   -0.344673
     41          6           0        4.964728    0.726403   -0.582838
     42          6           0        4.523198   -1.610989   -0.151141
     43          6           0        6.322516    0.444017   -0.642857
     44          1           0        4.612032    1.739687   -0.718258
     45          6           0        5.882433   -1.876423   -0.197677
     46          1           0        3.842162   -2.424008    0.076512
     47          6           0        6.815822   -0.856103   -0.451152
     48          1           0        7.021495    1.252606   -0.846281
     49          1           0        6.235112   -2.892211   -0.032537
     50          6           0        8.296185   -1.144485   -0.463082
     51          1           0        8.491104   -2.163674   -0.815692
     52          1           0        8.801741   -0.461469   -1.159763
     53          6           0        8.940285   -0.994380    0.929544
     54          1           0        8.736852    0.023061    1.308333
     55          1           0        8.451893   -1.689328    1.623319
     56          7           0       10.362166   -1.345788    0.866755
     57          1           0       10.865147   -0.640040    0.329304
     58          1           0       10.763303   -1.322319    1.802978
 ---------------------------------------------------------------------
 Rotational constants (GHZ):           0.3549577           0.0398679           0.0365224
 Leave Link  202 at Thu Mar 14 09:56:06 2024, MaxMem= 32212254720 cpu:               0.1 elap:               0.0
 (Enter /home/<user>/g16/l301.exe)
 Standard basis: 6-31G(d) (6D, 7F)
 Ernie: Thresh=  0.10000D-02 Tol=  0.10000D-05 Strict=F.
 There are   549 symmetry adapted cartesian basis functions of A   symmetry.
 There are   549 symmetry adapted basis functions of A   symmetry.
   549 basis functions,  1048 primitive gaussians,   549 cartesian basis functions
   118 alpha electrons      118 beta electrons
       nuclear repulsion energy      3077.7351976900 Hartrees.
 IExCor=  402 DFT=T Ex+Corr=B3LYP ExCW=0 ScaHFX=  0.200000
 ScaDFX=  0.800000  0.720000  1.000000  0.810000 ScalE2=  1.000000  1.000000
 IRadAn=      5 IRanWt=     -1 IRanGd=            0 ICorTp=0 IEmpDi=  4
 NAtoms=   58 NActive=   58 NUniq=   58 SFac= 1.00D+00 NAtFMM=   60 NAOKFM=F Big=F
 Integral buffers will be    131072 words long.
 Regular integral format.
 Two-electron integral symmetry is turned on.
 Leave Link  301 at Thu Mar 14 09:56:06 2024, MaxMem= 32212254720 cpu:               1.0 elap:               0.0
 (Enter /home/<user>/g16/l302.exe)
 NPDir=0 NMtPBC=     1 NCelOv=     1 NCel=       1 NClECP=     1 NCelD=      1
         NCelK=      1 NCelE2=     1 NClLst=     1 CellRange=     0.0.
 One-electron integrals computed using PRISM.
 One-electron integral symmetry used in STVInt
 NBasis=   549 RedAO= T EigKep=  2.68D-04  NBF=   549
 NBsUse=   549 1.00D-06 EigRej= -1.00D+00 NBFU=   549
 Precomputing XC quadrature grid using
 IXCGrd= 4 IRadAn=           5 IRanWt=          -1 IRanGd=           0 AccXCQ= 0.00D+00.
 Generated NRdTot=       0 NPtTot=           0 NUsed=           0 NTot=          32
 NSgBfM=   512   512   512   512   512 MxSgAt=    58 MxSgA2=    58.
 Leave Link  302 at Thu Mar 14 09:56:07 2024, MaxMem= 32212254720 cpu:              19.5 elap:               0.7
 (Enter /home/<user>/g16/l303.exe)
 DipDrv:  MaxL=1.
 Leave Link  303 at Thu Mar 14 09:56:07 2024, MaxMem= 32212254720 cpu:               2.0 elap:               0.1
 (Enter /home/<user>/g16/l308.exe)
 Leave Link  308 at Thu Mar 14 09:56:07 2024, MaxMem= 32212254720 cpu:               2.2 elap:               0.1
 (Enter /home/<user>/g16/l401.exe)
 Initial guess from the checkpoint file:  "FBTP_S1opt.chk"
 B after Tr=    -0.000000   -0.000000    0.000000
         Rot=    1.000000   -0.000028   -0.000000    0.000004 Ang=  -0.00 deg.
 Guess basis will be translated and rotated to current coordinates.
 JPrj=2 DoOrth=T DoCkMO=T.
 Leave Link  401 at Thu Mar 14 09:56:07 2024, MaxMem= 32212254720 cpu:              17.3 elap:               0.6
 (Enter /home/<user>/g16/l502.exe)
 Integral symmetry usage will be decided dynamically.
 Closed shell SCF:
 Using DIIS extrapolation, IDIIS=  1040.
 NGot= 32212254720 LenX= 32211628124 LenY= 32211326174
 Requested convergence on RMS density matrix=1.00D-08 within 128 cycles.
 Requested convergence on MAX density matrix=1.00D-06.
 Requested convergence on             energy=1.00D-06.
 No special actions if energy rises.
 Fock matrices will be formed incrementally for  20 cycles.

 Cycle   1  Pass 1  IDiag  1:
 FoFJK:  IHMeth= 1 ICntrl=       0 DoSepK=F KAlg= 0 I1Cent=           0 FoldK=F
 IRaf= 550000000 NMat=       1 IRICut=       1 DoRegI=T DoRafI=F ISym2E= 0 IDoP0=0 IntGTp=1.
 FoFCou: FMM=F IPFlag=           0 FMFlag=      100000 FMFlg1=           0
         NFxFlg=           0 DoJE=F BraDBF=F KetDBF=F FulRan=T
         wScrn=  0.000000 ICntrl=         0 IOpCl=  0 I1Cent=           0 NGrid=           0
         NMat0=    1 NMatS0=      1 NMatT0=    0 NMatD0=    1 NMtDS0=    0 NMtDT0=    0
 Symmetry not used in FoFCou.
 E= -1682.59461956887    
 DIIS: error= 2.30D-05 at cycle   1 NSaved=   1.
 NSaved= 1 IEnMin= 1 EnMin= -1682.59461956887     IErMin= 1 ErrMin= 2.30D-05
 ErrMax= 2.30D-05  0.00D+00 EMaxC= 1.00D-01 BMatC= 6.43D-07 BMatP= 6.43D-07
 IDIUse=1 WtCom= 1.00D+00 WtEn= 0.00D+00
 Coeff-Com:  0.100D+01
 Coeff:      0.100D+01
 Gap=     1.960 Goal=   None    Shift=    0.000
 RMSDP=3.27D-06 MaxDP=1.30D-04              OVMax= 2.66D-04

 Cycle   2  Pass 1  IDiag  1:
 RMSU=  3.27D-06    CP:  1.00D+00
 E= -1682.59462105152     Delta-E=       -0.000001482655 Rises=F Damp=F
 DIIS: error= 3.76D-06 at cycle   2 NSaved=   2.
 NSaved= 2 IEnMin= 2 EnMin= -1682.59462105152     IErMin= 2 ErrMin= 3.76D-06
 ErrMax= 3.76D-06  0.00D+00 EMaxC= 1.00D-01 BMatC= 1.55D-08 BMatP= 6.43D-07
 IDIUse=1 WtCom= 1.00D+00 WtEn= 0.00D+00
 Coeff-Com: -0.640D-01 0.106D+01
 Coeff:     -0.640D-01 0.106D+01
 Gap=     0.090 Goal=   None    Shift=    0.000
 RMSDP=6.99D-07 MaxDP=4.49D-05 DE=-1.48D-06 OVMax= 5.85D-05

 Cycle   3  Pass 1  IDiag  1:
 RMSU=  6.73D-07    CP:  1.00D+00  1.06D+00
 E= -1682.59462105279     Delta-E=       -0.000000001262 Rises=F Damp=F
 DIIS: error= 8.16D-06 at cycle   3 NSaved=   3.
 NSaved= 3 IEnMin= 3 EnMin= -1682.59462105279     IErMin= 2 ErrMin= 3.76D-06
 ErrMax= 8.16D-06  0.00D+00 EMaxC= 1.00D-01 BMatC= 2.71D-08 BMatP= 1.55D-08
 IDIUse=1 WtCom= 1.00D+00 WtEn= 0.00D+00
 Coeff-Com: -0.541D-01 0.647D+00 0.407D+00
 Coeff:     -0.541D-01 0.647D+00 0.407D+00
 Gap=     0.090 Goal=   None    Shift=    0.000
 RMSDP=4.44D-07 MaxDP=4.44D-05 DE=-1.26D-09 OVMax= 4.75D-05

 Cycle   4  Pass 1  IDiag  1:
 RMSU=  2.48D-07    CP:  1.00D+00  1.08D+00  4.61D-01
 E= -1682.59462107873     Delta-E=       -0.000000025948 Rises=F Damp=F
 DIIS: error= 1.81D-06 at cycle   4 NSaved=   4.
 NSaved= 4 IEnMin= 4 EnMin= -1682.59462107873     IErMin= 4 ErrMin= 1.81D-06
 ErrMax= 1.81D-06  0.00D+00 EMaxC= 1.00D-01 BMatC= 2.57D-09 BMatP= 1.55D-08
 IDIUse=1 WtCom= 1.00D+00 WtEn= 0.00D+00
 Coeff-Com: -0.242D-01 0.262D+00 0.257D+00 0.505D+00
 Coeff:     -0.242D-01 0.262D+00 0.257D+00 0.505D+00
 Gap=     0.090 Goal=   None    Shift=    0.000
 RMSDP=1.58D-07 MaxDP=1.19D-05 DE=-2.59D-08 OVMax= 2.69D-05

 Cycle   5  Pass 1  IDiag  1:
 RMSU=  1.18D-07    CP:  1.00D+00  1.08D+00  5.29D-01  6.20D-01
 E= -1682.59462108033     Delta-E=       -0.000000001599 Rises=F Damp=F
 DIIS: error= 1.28D-06 at cycle   5 NSaved=   5.
 NSaved= 5 IEnMin= 5 EnMin= -1682.59462108033     IErMin= 5 ErrMin= 1.28D-06
 ErrMax= 1.28D-06  0.00D+00 EMaxC= 1.00D-01 BMatC= 1.09D-09 BMatP= 2.57D-09
 IDIUse=1 WtCom= 1.00D+00 WtEn= 0.00D+00
 Coeff-Com: -0.999D-02 0.980D-01 0.137D+00 0.404D+00 0.372D+00
 Coeff:     -0.999D-02 0.980D-01 0.137D+00 0.404D+00 0.372D+00
 Gap=     0.090 Goal=   None    Shift=    0.000
 RMSDP=8.24D-08 MaxDP=8.01D-06 DE=-1.60D-09 OVMax= 1.65D-05

 Cycle   6  Pass 1  IDiag  1:
 RMSU=  5.00D-08    CP:  1.00D+00  1.08D+00  5.34D-01  6.90D-01  4.65D-01
 E= -1682.59462108131     Delta-E=       -0.000000000982 Rises=F Damp=F
 DIIS: error= 3.58D-07 at cycle   6 NSaved=   6.
 NSaved= 6 IEnMin= 6 EnMin= -1682.59462108131     IErMin= 6 ErrMin= 3.58D-07
 ErrMax= 3.58D-07  0.00D+00 EMaxC= 1.00D-01 BMatC= 9.94D-11 BMatP= 1.09D-09
 IDIUse=1 WtCom= 1.00D+00 WtEn= 0.00D+00
 Coeff-Com: -0.120D-02 0.371D-02 0.337D-01 0.159D+00 0.258D+00 0.547D+00
 Coeff:     -0.120D-02 0.371D-02 0.337D-01 0.159D+00 0.258D+00 0.547D+00
 Gap=     0.090 Goal=   None    Shift=    0.000
 RMSDP=2.75D-08 MaxDP=1.93D-06 DE=-9.82D-10 OVMax= 3.77D-06

 Cycle   7  Pass 1  IDiag  1:
 RMSU=  1.62D-08    CP:  1.00D+00  1.08D+00  5.37D-01  7.14D-01  5.48D-01
                    CP:  6.23D-01
 E= -1682.59462108140     Delta-E=       -0.000000000089 Rises=F Damp=F
 DIIS: error= 1.24D-07 at cycle   7 NSaved=   7.
 NSaved= 7 IEnMin= 7 EnMin= -1682.59462108140     IErMin= 7 ErrMin= 1.24D-07
 ErrMax= 1.24D-07  0.00D+00 EMaxC= 1.00D-01 BMatC= 1.49D-11 BMatP= 9.94D-11
 IDIUse=1 WtCom= 1.00D+00 WtEn= 0.00D+00
 Coeff-Com:  0.617D-03-0.118D-01 0.245D-02 0.452D-01 0.115D+00 0.354D+00
 Coeff-Com:  0.495D+00
 Coeff:      0.617D-03-0.118D-01 0.245D-02 0.452D-01 0.115D+00 0.354D+00
 Coeff:      0.495D+00
 Gap=     0.090 Goal=   None    Shift=    0.000
 RMSDP=1.04D-08 MaxDP=5.83D-07 DE=-8.91D-11 OVMax= 1.46D-06

 Cycle   8  Pass 1  IDiag  1:
 RMSU=  5.70D-09    CP:  1.00D+00  1.08D+00  5.40D-01  7.16D-01  5.50D-01
                    CP:  6.60D-01  4.99D-01
 E= -1682.59462108148     Delta-E=       -0.000000000076 Rises=F Damp=F
 DIIS: error= 3.86D-08 at cycle   8 NSaved=   8.
 NSaved= 8 IEnMin= 8 EnMin= -1682.59462108148     IErMin= 8 ErrMin= 3.86D-08
 ErrMax= 3.86D-08  0.00D+00 EMaxC= 1.00D-01 BMatC= 1.60D-12 BMatP= 1.49D-11
 IDIUse=1 WtCom= 1.00D+00 WtEn= 0.00D+00
 Coeff-Com:  0.491D-03-0.759D-02-0.158D-02 0.128D-01 0.459D-01 0.165D+00
 Coeff-Com:  0.310D+00 0.475D+00
 Coeff:      0.491D-03-0.759D-02-0.158D-02 0.128D-01 0.459D-01 0.165D+00
 Coeff:      0.310D+00 0.475D+00
 Gap=     0.090 Goal=   None    Shift=    0.000
 RMSDP=3.60D-09 MaxDP=1.44D-07 DE=-7.64D-11 OVMax= 4.58D-07

 SCF Done:  E(RB3LYP) =  -1682.59462108     A.U. after    8 cycles
            NFock=  8  Conv=0.36D-08     -V/T= 2.0083
 KE= 1.668728870164D+03 PE=-1.007717854588D+04 EE= 3.648119856945D+03
 Leave Link  502 at Thu Mar 14 09:56:23 2024, MaxMem= 32212254720 cpu:             474.7 elap:              15.8
 (Enter /home/<user>/g16/l801.exe)
 DoSCS=F DFT=T ScalE2(SS,OS)=  1.000000  1.000000
 ExpMin= 1.17D-01 ExpMax= 2.19D+04 ExpMxC= 3.30D+03 IAcc=3 IRadAn=         5 AccDes= 0.00D+00
 HarFok:  IExCor=  205 AccDes= 0.00D+00 IRadAn=         5 IDoV=-2 UseB2=F ITyADJ=14
 ICtDFT= 12500011 ScaDFX=  1.000000  1.000000  1.000000  1.000000
 GSVD:  LWork=       -1665 too small for GESVD, short by        7400 words or        7400 for optimal perf.
 Largest valence mixing into a core orbital is  1.10D-04
 Largest core mixing into a valence orbital is  2.82D-05
 Range of M.O.s used for correlation:    38   549
 NBasis=   549 NAE=   118 NBE=   118 NFC=    37 NFV=     0
 NROrb=    512 NOA=    81 NOB=    81 NVA=   431 NVB=   431

 **** Warning!!: The smallest alpha delta epsilon is  0.90064623D-01

 Leave Link  801 at Thu Mar 14 09:56:23 2024, MaxMem= 32212254720 cpu:               3.3 elap:               0.1
 (Enter /home/<user>/g16/l914.exe)
 RHF ground state
 Two-electron integrals replicated using symmetry.
 MDV= 32212254720 DFT=T DoStab=F Mixed=T DoRPA=T DoScal=F NonHer=T
 Making orbital integer symmetry assigments:
 Orbital symmetries:
       Occupied  (A) (A) (A) (A) (A) (A) (A) (A) (A) (A) (A) (A)
                 (A) (A) (A) (A) (A) (A) (A) (A) (A) (A) (A) (A)
                 (A) (A) (A) (A) (A) (A) (A) (A) (A) (A) (A) (A)
                 (A) (A) (A) (A) (A) (A) (A) (A) (A) (A) (A) (A)
                 (A) (A) (A) (A) (A) (A) (A) (A) (A) (A) (A) (A)
                 (A) (A) (A) (A) (A) (A) (A) (A) (A) (A) (A) (A)
                 (A) (A) (A) (A) (A) (A) (A) (A) (A) (A) (A) (A)
                 (A) (A) (A) (A) (A) (A) (A) (A) (A) (A) (A) (A)
                 (A) (A) (A) (A) (A) (A) (A) (A) (A) (A) (A) (A)
                 (A) (A) (A) (A) (A) (A) (A) (A) (A) (A)
       Virtual   (A) (A) (A) (A) (A) (A) (A) (A) (A) (A) (A) (A)
                 (A) (A) (A) (A) (A) (A) (A) (A) (A) (A) (A) (A)
                 (A) (A) (A) (A) (A) (A) (A) (A) (A) (A) (A) (A)
                 (A) (A) (A) (A) (A) (A) (A) (A) (A) (A) (A) (A)
                 (A) (A) (A) (A) (A) (A) (A) (A) (A) (A) (A) (A)
                 (A) (A) (A) (A) (A) (A) (A) (A) (A) (A) (A) (A)
                 (A) (A) (A) (A) (A) (A) (A) (A) (A) (A) (A) (A)
                 (A) (A) (A) (A) (A) (A) (A) (A) (A) (A) (A) (A)
                 (A) (A) (A) (A) (A) (A) (A) (A) (A) (A) (A) (A)
                 (A) (A) (A) (A) (A) (A) (A) (A) (A) (A) (A) (A)
                 (A) (A) (A) (A) (A) (A) (A) (A) (A) (A) (A) (A)
                 (A) (A) (A) (A) (A) (A) (A) (A) (A) (A) (A) (A)
                 (A) (A) (A) (A) (A) (A) (A) (A) (A) (A) (A) (A)
                 (A) (A) (A) (A) (A) (A) (A) (A) (A) (A) (A) (A)
                 (A) (A) (A) (A) (A) (A) (A) (A) (A) (A) (A) (A)
                 (A) (A) (A) (A) (A) (A) (A) (A) (A) (A) (A) (A)
                 (A) (A) (A) (A) (A) (A) (A) (A) (A) (A) (A) (A)
                 (A) (A) (A) (A) (A) (A) (A) (A) (A) (A) (A) (A)
                 (A) (A) (A) (A) (A) (A) (A) (A) (A) (A) (A) (A)
                 (A) (A) (A) (A) (A) (A) (A) (A) (A) (A) (A) (A)
                 (A) (A) (A) (A) (A) (A) (A) (A) (A) (A) (A) (A)
                 (A) (A) (A) (A) (A) (A) (A) (A) (A) (A) (A) (A)
                 (A) (A) (A) (A) (A) (A) (A) (A) (A) (A) (A) (A)
                 (A) (A) (A) (A) (A) (A) (A) (A) (A) (A) (A) (A)
                 (A) (A) (A) (A) (A) (A) (A) (A) (A) (A) (A) (A)
                 (A) (A) (A) (A) (A) (A) (A) (A) (A) (A) (A) (A)
                 (A) (A) (A) (A) (A) (A) (A) (A) (A) (A) (A) (A)
                 (A) (A) (A) (A) (A) (A) (A) (A) (A) (A) (A) (A)
                 (A) (A) (A) (A) (A) (A) (A) (A) (A) (A) (A) (A)
                 (A) (A) (A) (A) (A) (A) (A) (A) (A) (A) (A) (A)
                 (A) (A) (A) (A) (A) (A) (A) (A) (A) (A) (A) (A)
                 (A) (A) (A) (A) (A) (A) (A) (A) (A) (A) (A) (A)
                 (A) (A) (A) (A) (A) (A) (A) (A) (A) (A) (A) (A)
                 (A) (A) (A) (A) (A) (A) (A) (A) (A) (A) (A) (A)
                 (A) (A) (A) (A) (A) (A) (A) (A) (A) (A) (A) (A)
                 (A) (A) (A) (A) (A) (A) (A) (A) (A) (A) (A)
 Generating guess from densities on rwf.
 Convergence on wavefunction:    0.000001000000000
 Davidson Disk Diagonalization:  ConvIn= 1.00D-06 SkipCon=T Conv= 1.00D-06.
 Max sub-space:  2000 roots to seek:     3 dimension of matrix:        69822
 Iteration     1 Dimension     6 NMult     0 NNew      6
 CISAX will form     6 AO SS matrices at one time.
 NMat=     6 NSing=     6 JSym2X= 0.
 FoFJK:  IHMeth= 1 ICntrl=       0 DoSepK=F KAlg= 0 I1Cent=           0 FoldK=F
 IRaf= 550000000 NMat=      12 IRICut=       1 DoRegI=T DoRafI=F ISym2E= 0 IDoP0=0 IntGTp=1.
 FoFCou: FMM=F IPFlag=           0 FMFlag=      100000 FMFlg1=           0
         NFxFlg=           0 DoJE=F BraDBF=F KetDBF=F FulRan=T
         wScrn=  0.000000 ICntrl=         0 IOpCl=  0 I1Cent=           0 NGrid=           0
         NMat0=   12 NMatS0=      6 NMatT0=    0 NMatD0=   12 NMtDS0=    0 NMtDT0=    0
 Symmetry not used in FoFCou.
 Excitation Energies [eV] at current iteration:
 Root      1 :     2.074243135602147
 Root      2 :     2.979082768657490
 Root      3 :     3.325680796658438
 Iteration     2 Dimension    12 NMult     6 NNew      6
 CISAX will form     6 AO SS matrices at one time.
 NMat=     6 NSing=     6 JSym2X= 0.
 Root      1 not converged, maximum delta is    0.000074295100994
 Root      2 not converged, maximum delta is    0.000125497228427
 Root      3 not converged, maximum delta is    0.000209401445661
 Excitation Energies [eV] at current iteration:
 Root      1 :     2.074242048055903   Change is   -0.000001087546244
 Root      2 :     2.979081458049090   Change is   -0.000001310608399
 Root      3 :     3.325677755990599   Change is   -0.000003040667839
 Iteration     3 Dimension    18 NMult    12 NNew      6
 CISAX will form     6 AO SS matrices at one time.
 NMat=     6 NSing=     6 JSym2X= 0.
 Root      1 not converged, maximum delta is    0.000016394444278
 Root      2 not converged, maximum delta is    0.000013651757101
 Root      3 not converged, maximum delta is    0.000023585917826
 Excitation Energies [eV] at current iteration:
 Root      1 :     2.074242026391836   Change is   -0.000000021664067
 Root      2 :     2.979081428700099   Change is   -0.000000029348991
 Root      3 :     3.325677731900722   Change is   -0.000000024089877
 Iteration     4 Dimension    24 NMult    18 NNew      6
 CISAX will form     6 AO SS matrices at one time.
 NMat=     6 NSing=     6 JSym2X= 0.
 Root      1 not converged, maximum delta is    0.000005173292101
 Root      2 not converged, maximum delta is    0.000023470233926
 Root      3 not converged, maximum delta is    0.000036236407069
 Excitation Energies [eV] at current iteration:
 Root      1 :     2.074242023770340   Change is   -0.000000002621496
 Root      2 :     2.979081424340763   Change is   -0.000000004359335
 Root      3 :     3.325677726950761   Change is   -0.000000004949960
 Iteration     5 Dimension    30 NMult    24 NNew      6
 CISAX will form     6 AO SS matrices at one time.
 NMat=     6 NSing=     6 JSym2X= 0.
 Root      1 not converged, maximum delta is    0.000001309479728
 Root      2 not converged, maximum delta is    0.000005545792212
 Root      3 not converged, maximum delta is    0.000047941869181
 Excitation Energies [eV] at current iteration:
 Root      1 :     2.074242023390225   Change is   -0.000000000380116
 Root      2 :     2.979081423510929   Change is   -0.000000000829834
 Root      3 :     3.325677724254311   Change is   -0.000000002696451
 Iteration     6 Dimension    36 NMult    30 NNew      6
 CISAX will form     6 AO SS matrices at one time.
 NMat=     6 NSing=     6 JSym2X= 0.
 Root      1 has converged.
 Root      2 not converged, maximum delta is    0.000002477884988
 Root      3 not converged, maximum delta is    0.000054187555188
 Excitation Energies [eV] at current iteration:
 Root      1 :     2.074242023348650   Change is   -0.000000000041574
 Root      2 :     2.979081423353169   Change is   -0.000000000157760
 Root      3 :     3.325677722584664   Change is   -0.000000001669646
 Iteration     7 Dimension    40 NMult    36 NNew      4
 CISAX will form     4 AO SS matrices at one time.
 NMat=     4 NSing=     4 JSym2X= 0.
 Root      1 has converged.
 Root      2 has converged.
 Root      3 not converged, maximum delta is    0.000014894866282
 Excitation Energies [eV] at current iteration:
 Root      1 :     2.074242023347659   Change is   -0.000000000000991
 Root      2 :     2.979081423328499   Change is   -0.000000000024670
 Root      3 :     3.325677722116140   Change is   -0.000000000468525
 Iteration     8 Dimension    42 NMult    40 NNew      2
 CISAX will form     2 AO SS matrices at one time.
 NMat=     2 NSing=     2 JSym2X= 0.
 Root      1 has converged.
 Root      2 has converged.
 Root      3 not converged, maximum delta is    0.000004200143764
 Excitation Energies [eV] at current iteration:
 Root      1 :     2.074242023347382   Change is   -0.000000000000278
 Root      2 :     2.979081423328334   Change is   -0.000000000000165
 Root      3 :     3.325677722012863   Change is   -0.000000000103276
 Iteration     9 Dimension    44 NMult    42 NNew      2
 CISAX will form     2 AO SS matrices at one time.
 NMat=     2 NSing=     2 JSym2X= 0.
 Root      1 has converged.
 Root      2 has converged.
 Root      3 has converged.
 Excitation Energies [eV] at current iteration:
 Root      1 :     2.074242023347263   Change is   -0.000000000000119
 Root      2 :     2.979081423328057   Change is   -0.000000000000276
 Root      3 :     3.325677721995289   Change is   -0.000000000017575
 Convergence achieved on expansion vectors.
 ***********************************************************************
 Excited states from <AA,BB:AA,BB> singles matrix:
 ***********************************************************************
 
 1PDM for each excited state written to RWF  633
 Ground to excited state transition densities written to RWF  633
 Ground to excited state transition electric dipole moments (Au):
       state          X           Y           Z        Dip. S.      Osc.
         1        -2.7042      0.0874      0.0546      7.3232      0.3722
         2         0.1801     -0.3090     -0.0135      0.1281      0.0093
         3         0.0582      0.0343      0.0064      0.0046      0.0004
 Ground to excited state transition velocity dipole moments (Au):
       state          X           Y           Z        Dip. S.      Osc.
         1         0.2098     -0.0062     -0.0043      0.0441      0.3854
         2        -0.0218      0.0380      0.0021      0.0019      0.0117
         3        -0.0055     -0.0054     -0.0006      0.0001      0.0003
 Ground to excited state transition magnetic dipole moments (Au):
       state          X           Y           Z
         1        -0.0150     -0.1626     -0.0378
         2         0.0047      0.0394     -0.1041
         3        -0.0139     -0.0309     -0.1829
 Ground to excited state transition velocity quadrupole moments (Au):
       state          XX          YY          ZZ          XY          XZ          YZ
         1         0.0321      0.0087      0.0052     -0.1243     -0.0336      0.0194
         2        -1.9448      0.2058      0.0007      0.1903      0.0374      0.0516
         3         0.0040      0.0175     -0.0075     -0.0550     -0.0167      0.0042
 <0|del|b> * <b|rxdel|0> + <0|del|b> * <b|delr+rdel|0>
 Rotatory Strengths (R) in cgs (10**-40 erg-esu-cm/Gauss)
       state          XX          YY          ZZ    R(velocity)    E-M Angle
         1         6.9187      2.5605    -27.8644     -6.1284       93.23
         2         0.8361     -5.9750     12.7283      2.5298       76.08
         3         0.6008      0.3570      1.0291      0.6623       76.13
 1/2[<0|r|b>*<b|rxdel|0> + (<0|rxdel|b>*<b|r|0>)*]
 Rotatory Strengths (R) in cgs (10**-40 erg-esu-cm/Gauss)
       state          XX          YY          ZZ     R(length)
         1       -28.7027     10.0451      1.4597     -5.7326
         2        -0.5997      8.6136     -0.9914      2.3408
         3         0.5708      0.7494      0.8305      0.7169
  1/2[<0|del|b>*<b|r|0> + (<0|r|b>*<b|del|0>)*] (Au)
       state          X           Y           Z        Dip. S.   Osc.(frdel)
         1        -0.5673     -0.0005     -0.0002      0.5681      0.3787
         2        -0.0039     -0.0117     -0.0000      0.0157      0.0105
         3        -0.0003     -0.0002     -0.0000      0.0005      0.0003

 Excitation energies and oscillator strengths:
 
 Excited State   1:      Singlet-A      2.0742 eV  597.73 nm  f=0.3722  <S**2>=0.000
     118 ->119         0.70184
 This state for optimization and/or second-order correction.
 Total Energy, E(TD-HF/TD-DFT) =  -1682.51839409    
 Copying the excited state density for this state as the 1-particle RhoCI density.
 
 Excited State   2:      Singlet-A      2.9791 eV  416.18 nm  f=0.0093  <S**2>=0.000
     117 ->119        -0.69754
 
 Excited State   3:      Singlet-A      3.3257 eV  372.81 nm  f=0.0004  <S**2>=0.000
     113 ->119         0.17086
     116 ->119         0.67966
 SavETr:  write IOETrn=   770 NScale= 10 NData=  16 NLR=1 NState=    3 LETran=      64.
 The selected state is a singlet.
 CISGrd: IGrad=2 NXY=2 DFT=T
 CISAX will form     1 AO SS matrices at one time.
 NMat=     1 NSing=     1 JSym2X= 0.
 Leave Link  914 at Thu Mar 14 09:58:16 2024, MaxMem= 32212254720 cpu:            3366.6 elap:             112.3
 (Enter /home/<user>/g16/l1002.exe)
 Minotr:  Closed shell wavefunction.
          Computing CIS/TDA/TD derivatives.
          Using Z-Vector for PSCF gradient.
          Skipping F1 and S1 gradient terms here.
          IDoAtm=11111111111111111111111111111111111111111111111111
          IDoAtm=11111111
          Frozen-core window.
          Direct CPHF calculation.
          Differentiating once with respect to electric field.
                with respect to dipole field.
          Differentiating once with respect to nuclear coordinates.
          Requested convergence is 1.0D-10 RMS, and 1.0D-09 maximum.
          NewPWx=F KeepS1=T KeepF1=T KeepIn=T MapXYZ=F SortEE=F KeepMc=T.
 Two-electron integral symmetry used by symmetrizing perturbed Fock matrices.
          MDV=   32212254720 using IRadAn=       5.
          Solving linear equations separately, MaxMat=     360.
          There are     1 degrees of freedom in the 1st order CPHF.  IDoFFX=0 NUNeed=     1.
 FoFJK:  IHMeth= 1 ICntrl=       0 DoSepK=F KAlg= 0 I1Cent=           0 FoldK=F
 IRaf= 580000000 NMat=       1 IRICut=       1 DoRegI=T DoRafI=F ISym2E=-1 IDoP0=0 IntGTp=1.
 FoFCou: FMM=F IPFlag=           0 FMFlag=      100000 FMFlg1=           0
         NFxFlg=           0 DoJE=F BraDBF=F KetDBF=F FulRan=T
         wScrn=  0.000000 ICntrl=         0 IOpCl=  0 I1Cent=           0 NGrid=           0
         NMat0=    1 NMatS0=      1 NMatT0=    0 NMatD0=    1 NMtDS0=    0 NMtDT0=    0
 Petite list used in FoFCou.
 LinEq1:  Iter=  0 NonCon=     1 RMS=6.31D-03 Max=7.01D-01 NDo=     1
 AX will form     1 AO Fock derivatives at one time.
 LinEq1:  Iter=  1 NonCon=     1 RMS=3.83D-03 Max=5.23D-01 NDo=     1
 LinEq1:  Iter=  2 NonCon=     1 RMS=3.15D-03 Max=3.94D-01 NDo=     1
 LinEq1:  Iter=  3 NonCon=     1 RMS=2.91D-03 Max=2.35D-01 NDo=     1
 LinEq1:  Iter=  4 NonCon=     1 RMS=2.66D-03 Max=2.03D-01 NDo=     1
 LinEq1:  Iter=  5 NonCon=     1 RMS=1.73D-03 Max=9.70D-02 NDo=     1
 LinEq1:  Iter=  6 NonCon=     1 RMS=1.13D-03 Max=5.22D-02 NDo=     1
 LinEq1:  Iter=  7 NonCon=     1 RMS=7.93D-04 Max=3.14D-02 NDo=     1
 LinEq1:  Iter=  8 NonCon=     1 RMS=5.79D-04 Max=3.44D-02 NDo=     1
 LinEq1:  Iter=  9 NonCon=     1 RMS=4.24D-04 Max=2.09D-02 NDo=     1
 LinEq1:  Iter= 10 NonCon=     1 RMS=2.69D-04 Max=1.26D-02 NDo=     1
 LinEq1:  Iter= 11 NonCon=     1 RMS=1.74D-04 Max=7.60D-03 NDo=     1
 LinEq1:  Iter= 12 NonCon=     1 RMS=1.15D-04 Max=6.39D-03 NDo=     1
 LinEq1:  Iter= 13 NonCon=     1 RMS=8.54D-05 Max=4.42D-03 NDo=     1
 LinEq1:  Iter= 14 NonCon=     1 RMS=5.62D-05 Max=2.09D-03 NDo=     1
 LinEq1:  Iter= 15 NonCon=     1 RMS=3.77D-05 Max=2.40D-03 NDo=     1
 LinEq1:  Iter= 16 NonCon=     1 RMS=1.86D-05 Max=1.24D-03 NDo=     1
 LinEq1:  Iter= 17 NonCon=     1 RMS=1.21D-05 Max=4.99D-04 NDo=     1
 LinEq1:  Iter= 18 NonCon=     1 RMS=6.88D-06 Max=4.20D-04 NDo=     1
 LinEq1:  Iter= 19 NonCon=     1 RMS=3.68D-06 Max=2.18D-04 NDo=     1
 LinEq1:  Iter= 20 NonCon=     1 RMS=2.00D-06 Max=9.80D-05 NDo=     1
 LinEq1:  Iter= 21 NonCon=     1 RMS=1.42D-06 Max=5.85D-05 NDo=     1
 LinEq1:  Iter= 22 NonCon=     1 RMS=7.81D-07 Max=3.89D-05 NDo=     1
 LinEq1:  Iter= 23 NonCon=     1 RMS=4.66D-07 Max=1.97D-05 NDo=     1
 LinEq1:  Iter= 24 NonCon=     1 RMS=2.49D-07 Max=1.09D-05 NDo=     1
 LinEq1:  Iter= 25 NonCon=     1 RMS=1.62D-07 Max=5.76D-06 NDo=     1
 LinEq1:  Iter= 26 NonCon=     1 RMS=7.38D-08 Max=3.04D-06 NDo=     1
 LinEq1:  Iter= 27 NonCon=     1 RMS=4.13D-08 Max=1.69D-06 NDo=     1
 LinEq1:  Iter= 28 NonCon=     1 RMS=2.13D-08 Max=6.84D-07 NDo=     1
 LinEq1:  Iter= 29 NonCon=     1 RMS=9.46D-09 Max=4.05D-07 NDo=     1
 LinEq1:  Iter= 30 NonCon=     1 RMS=5.49D-09 Max=2.42D-07 NDo=     1
 LinEq1:  Iter= 31 NonCon=     1 RMS=2.96D-09 Max=1.10D-07 NDo=     1
 LinEq1:  Iter= 32 NonCon=     1 RMS=1.61D-09 Max=6.28D-08 NDo=     1
 LinEq1:  Iter= 33 NonCon=     1 RMS=9.28D-10 Max=3.96D-08 NDo=     1
 LinEq1:  Iter= 34 NonCon=     1 RMS=5.13D-10 Max=1.96D-08 NDo=     1
 LinEq1:  Iter= 35 NonCon=     1 RMS=2.91D-10 Max=1.22D-08 NDo=     1
 LinEq1:  Iter= 36 NonCon=     1 RMS=1.33D-10 Max=4.48D-09 NDo=     1
 LinEq1:  Iter= 37 NonCon=     1 RMS=6.78D-11 Max=2.08D-09 NDo=     1
 LinEq1:  Iter= 38 NonCon=     0 RMS=2.71D-11 Max=7.08D-10 NDo=     1
 Linear equations converged to 1.000D-10 1.000D-09 after    38 iterations.
 End of Minotr F.D. properties file   721 does not exist.
 End of Minotr F.D. properties file   722 does not exist.
 End of Minotr F.D. properties file   788 does not exist.
 Leave Link 1002 at Thu Mar 14 09:59:51 2024, MaxMem= 32212254720 cpu:            2834.3 elap:              95.5
 (Enter /home/<user>/g16/l701.exe)
 ... and contract with generalized density number  6.
 Compute integral first derivatives.
 Leave Link  701 at Thu Mar 14 09:59:52 2024, MaxMem= 32212254720 cpu:               6.7 elap:               0.2
 (Enter /home/<user>/g16/l702.exe)
 L702 exits ... SP integral derivatives will be done elsewhere.
 Leave Link  702 at Thu Mar 14 09:59:52 2024, MaxMem= 32212254720 cpu:               0.9 elap:               0.0
 (Enter /home/<user>/g16/l703.exe)
 Integral derivatives from FoFJK, PRISM(SPDF).
 Compute integral first derivatives, UseDBF=F ICtDFT=           0.
 Calling FoFJK, ICntrl=  10005127 FMM=F ISym2X=0 I1Cent= 0 IOpClX= 0 NMat=1 NMatS=1 NMatT=0.
 FoFJK:  IHMeth= 1 ICntrl=10005127 DoSepK=F KAlg= 0 I1Cent=           0 FoldK=F
 IRaf=         0 NMat=       1 IRICut=       1 DoRegI=T DoRafI=F ISym2E= 0 IDoP0=0 IntGTp=1.
 FoFCou: FMM=F IPFlag=           0 FMFlag=      100000 FMFlg1=         800
         NFxFlg=           0 DoJE=F BraDBF=F KetDBF=F FulRan=T
         wScrn=  0.000000 ICntrl=  10005127 IOpCl=  0 I1Cent=           0 NGrid=           0
         NMat0=    1 NMatS0=      1 NMatT0=    0 NMatD0=    1 NMtDS0=    0 NMtDT0=    0
 Symmetry not used in FoFCou.
 Leave Link  703 at Thu Mar 14 10:00:00 2024, MaxMem= 32212254720 cpu:             250.6 elap:               8.4
 (Enter /home/<user>/g16/l716.exe)
 Dipole        =-1.96106850D+00-1.72693745D+00-8.70399987D-02
 ***** Axes restored to original set *****
 -------------------------------------------------------------------
 Center     Atomic                   Forces (Hartrees/Bohr)
 Number     Number              X              Y              Z
 -------------------------------------------------------------------
      1        6          -0.000023102    0.000006864   -0.000002731
      2        6           0.000014853   -0.000001617    0.000009382
      3        6          -0.000032353   -0.000005551    0.000000015
      4        6           0.000018872   -0.000015733   -0.000002647
      5        6          -0.000027450   -0.000001754    0.000001491
      6        6           0.000019888    0.000002350    0.000001603
      7        1           0.000001996   -0.000000216   -0.000001991
      8        1           0.000000148    0.000000768   -0.000000620
      9        1          -0.000004051    0.000000540   -0.000000937
     10        6          -0.000000106    0.000005634    0.000006167
     11        6          -0.000008832   -0.000014117    0.000001533
     12        6           0.000008630    0.000000199   -0.000000338
     13        6          -0.000001665   -0.000002456    0.000001164
     14        6           0.000007940    0.000007949   -0.000001573
     15        6          -0.000015875    0.000002220   -0.000001237
     16        6           0.000025499    0.000008374   -0.000001674
     17        1          -0.000000476   -0.000000842    0.000000407
     18        1           0.000000668   -0.000000461   -0.000000139
     19        1          -0.000000715   -0.000000379    0.000000415
     20        1           0.000001248    0.000000600    0.000000197
     21        6          -0.000000803   -0.000003068   -0.000001517
     22        1           0.000000336   -0.000000293    0.000000583
     23        1           0.000000128    0.000000054   -0.000000089
     24        1          -0.000000021    0.000000528    0.000000603
     25        6           0.000000405   -0.000002256   -0.000002267
     26        1           0.000000112    0.000000459    0.000000259
     27        1          -0.000000371   -0.000000158    0.000000110
     28        1          -0.000000053    0.000000900   -0.000000381
     29        6           0.000013863    0.000047222    0.000000013
     30        6          -0.000038138   -0.000027536   -0.000007005
     31        6           0.000050210   -0.000039305   -0.000006997
     32        6           0.000025634   -0.000024366   -0.000004705
     33        6          -0.000064307   -0.000024931    0.000001182
     34        1          -0.000000930    0.000008033    0.000001826
     35        6          -0.000003812    0.000045892    0.000004159
     36        1           0.000000220    0.000010906   -0.000002066
     37        7           0.000037470    0.000042477    0.000006642
     38        7          -0.000005086    0.000029579    0.000002834
     39       16          -0.000018712   -0.000051797   -0.000003903
     40        6          -0.000002764    0.000001625   -0.000002554
     41        6           0.000008212   -0.000001380    0.000002007
     42        6           0.000018364   -0.000008114    0.000001452
     43        6          -0.000006749    0.000004347    0.000004935
     44        1          -0.000003258    0.000001852   -0.000000042
     45        6          -0.000007064   -0.000003150   -0.000002314
     46        1           0.000005620    0.000002909    0.000000956
     47        6           0.000002889   -0.000005790    0.000000765
     48        1           0.000001749   -0.000000541   -0.000000936
     49        1           0.000001956    0.000000793   -0.000000289
     50        6          -0.000005648   -0.000002044   -0.000004280
     51        1           0.000000645    0.000001124    0.000002830
     52        1           0.000001586   -0.000001134   -0.000001653
     53        6           0.000003244   -0.000001933    0.000004748
     54        1           0.000000075    0.000000410   -0.000003487
     55        1           0.000000940    0.000002925    0.000001714
     56        7          -0.000000502    0.000008628   -0.000005966
     57        1           0.000001111    0.000000624    0.000004422
     58        1          -0.000001670   -0.000005862   -0.000000074
 -------------------------------------------------------------------
 Cartesian Forces:  Max     0.000064307 RMS     0.000013300
 Leave Link  716 at Thu Mar 14 10:00:00 2024, MaxMem= 32212254720 cpu:               1.6 elap:               0.1
 (Enter /home/<user>/g16/l103.exe)

 GradGradGradGradGradGradGradGradGradGradGradGradGradGradGradGradGradGrad
 Berny optimization.
 Using GEDIIS/GDIIS optimizer.
 FormGI is forming the generalized inverse of G from B-inverse, IUseBI=4.
 GSVD:  received Info=                   1 from GESDD.
 Internal  Forces:  Max     0.000039406 RMS     0.000006213
 Search for a local minimum.
 Step number   9 out of a maximum of  346
 All quantities printed in internal units (Hartrees-Bohrs-Radians)
 RMS Force = .62126D-05 SwitMx=.10000D-02 MixMth= 2
 Mixed Optimization -- En-DIIS/RFO-DIIS
 Swapping is turned off.
 Update second derivatives using D2CorX and points    2    3    4    5    6
                                                      7    8    9
 DE= -1.89D-07 DEPred=-1.88D-07 R= 1.00D+00
 Trust test= 1.00D+00 RLast= 2.93D-03 DXMaxT set to 8.00D-01
 ITU=  0  1  0  1  1  1  1  1  0
     Eigenvalues ---    0.00230   0.00230   0.00250   0.00537   0.00689
     Eigenvalues ---    0.00756   0.00877   0.01094   0.01252   0.01453
     Eigenvalues ---    0.01472   0.01600   0.01629   0.01641   0.01654
     Eigenvalues ---    0.01683   0.01726   0.01734   0.01830   0.01860
     Eigenvalues ---    0.01886   0.01971   0.02027   0.02040   0.02056
     Eigenvalues ---    0.02076   0.02088   0.02093   0.02094   0.02102
     Eigenvalues ---    0.02112   0.02119   0.02125   0.02126   0.02131
     Eigenvalues ---    0.02134   0.02144   0.02146   0.02151   0.02159
     Eigenvalues ---    0.02161   0.02169   0.02265   0.02342   0.04058
     Eigenvalues ---    0.04285   0.04378   0.04462   0.05419   0.05423
     Eigenvalues ---    0.05438   0.05511   0.05512   0.05561   0.05996
     Eigenvalues ---    0.08064   0.08950   0.09252   0.11581   0.12598
     Eigenvalues ---    0.12812   0.14013   0.15417   0.15908   0.15973
     Eigenvalues ---    0.15997   0.15999   0.16000   0.16000   0.16000
     Eigenvalues ---    0.16000   0.16000   0.16000   0.16000   0.16000
     Eigenvalues ---    0.16000   0.16000   0.16003   0.16010   0.16012
     Eigenvalues ---    0.16030   0.16148   0.19087   0.21018   0.21889
     Eigenvalues ---    0.21935   0.21961   0.22026   0.22357   0.22496
     Eigenvalues ---    0.22640   0.22904   0.23100   0.23996   0.24123
     Eigenvalues ---    0.24595   0.24671   0.24964   0.24981   0.24994
     Eigenvalues ---    0.25000   0.25030   0.26766   0.28051   0.28074
     Eigenvalues ---    0.28415   0.28615   0.29004   0.31152   0.32301
     Eigenvalues ---    0.33129   0.33785   0.33964   0.34027   0.34092
     Eigenvalues ---    0.34099   0.34104   0.34106   0.34132   0.34277
     Eigenvalues ---    0.34290   0.34544   0.35034   0.35049   0.35080
     Eigenvalues ---    0.35090   0.35122   0.35152   0.35170   0.35187
     Eigenvalues ---    0.35192   0.35235   0.35258   0.35438   0.35771
     Eigenvalues ---    0.36111   0.36254   0.36787   0.36969   0.37573
     Eigenvalues ---    0.38192   0.40620   0.41415   0.41450   0.42065
     Eigenvalues ---    0.42345   0.42533   0.43145   0.43295   0.44342
     Eigenvalues ---    0.44409   0.44526   0.44845   0.44988   0.45219
     Eigenvalues ---    0.45792   0.45937   0.46024   0.46207   0.46292
     Eigenvalues ---    0.47065   0.47092   0.47571   0.48502   0.54295
     Eigenvalues ---    0.54588   0.63620   0.66640
 En-DIIS/RFO-DIIS/Sim-DIIS IScMMF=       -3 using points:     9    8    7    6    5    4    3
 RFO step:  Lambda=-7.17558605D-08.
 NNeg= 0 NGDIIS= 7 SimSw=  2.50D-01 Rises=F DC= -1.89D-07 SmlDif=  1.00D-05
 NRisDI= 0 DoIntr=F SqrtH=F CThrHd= 10.0 CDAdj=  3.0
 RMS Error=  0.1243798212D-03 NUsed= 7 OKEnD=F EnDIS=F
 InvSVX:  RCond= 2.82D-07 Info=           0 Equed=N FErr=  1.21D-14 BErr=  6.44D-17
 DidBck=F Rises=F RFO-DIIS coefs:    1.51645   -0.30500   -0.14153   -0.06320   -0.00227
                  RFO-DIIS coefs:   -0.00877    0.00432
 Iteration  1 RMS(Cart)=  0.00055068 RMS(Int)=  0.00000013
 Iteration  2 RMS(Cart)=  0.00000013 RMS(Int)=  0.00000011
 ITry= 1 IFail=0 DXMaxC= 2.46D-03 DCOld= 1.00D+10 DXMaxT= 8.00D-01 DXLimC= 3.00D+00 Rises=F
 Variable       Old X    -DE/DX   Delta X   Delta X   Delta X     New X
                                 (Linear)    (Quad)   (Total)
    R1        2.70128   0.00001   0.00004  -0.00000   0.00004   2.70132
    R2        2.61464  -0.00001  -0.00002  -0.00002  -0.00004   2.61459
    R3        2.04321   0.00000  -0.00002   0.00004   0.00001   2.04322
    R4        2.69890   0.00002   0.00004   0.00004   0.00008   2.69898
    R5        2.75540   0.00001  -0.00000   0.00003   0.00003   2.75543
    R6        2.60042  -0.00001  -0.00002  -0.00003  -0.00006   2.60036
    R7        2.04943  -0.00000  -0.00001  -0.00000  -0.00001   2.04943
    R8        2.68317   0.00001   0.00001   0.00001   0.00002   2.68319
    R9        2.88964  -0.00000   0.00001  -0.00001   0.00000   2.88964
   R10        2.65269   0.00001   0.00002   0.00001   0.00003   2.65271
   R11        2.73921  -0.00002  -0.00007  -0.00002  -0.00009   2.73912
   R12        2.05356   0.00000  -0.00001   0.00002   0.00001   2.05357
   R13        2.88701  -0.00000   0.00001  -0.00001   0.00000   2.88701
   R14        2.92077   0.00000  -0.00002   0.00002   0.00000   2.92077
   R15        2.92017   0.00000   0.00001   0.00001   0.00002   2.92018
   R16        2.62320  -0.00001  -0.00001  -0.00002  -0.00003   2.62317
   R17        2.67761   0.00001   0.00001   0.00003   0.00004   2.67764
   R18        2.64762   0.00000  -0.00000   0.00001   0.00001   2.64763
   R19        2.05432   0.00000  -0.00000   0.00000   0.00000   2.05433
   R20        2.65132   0.00001  -0.00001   0.00002   0.00001   2.65133
   R21        2.05322  -0.00000  -0.00000  -0.00000  -0.00000   2.05322
   R22        2.63014  -0.00001  -0.00000  -0.00002  -0.00003   2.63011
   R23        2.05276   0.00000   0.00000   0.00000   0.00000   2.05276
   R24        2.65170   0.00001   0.00002   0.00001   0.00003   2.65173
   R25        2.05304   0.00000  -0.00001   0.00001   0.00000   2.05305
   R26        2.07116  -0.00000   0.00000  -0.00000   0.00000   2.07116
   R27        2.07071  -0.00000   0.00000  -0.00000   0.00000   2.07071
   R28        2.06827   0.00000  -0.00000   0.00001   0.00000   2.06827
   R29        2.07083  -0.00000   0.00000  -0.00000   0.00000   2.07084
   R30        2.07111   0.00000   0.00000  -0.00000   0.00000   2.07111
   R31        2.06847   0.00000  -0.00000   0.00001   0.00000   2.06847
   R32        2.71933  -0.00002  -0.00005  -0.00005  -0.00010   2.71923
   R33        2.68421   0.00003   0.00002   0.00008   0.00010   2.68432
   R34        2.72595   0.00002   0.00007   0.00003   0.00010   2.72606
   R35        2.55431   0.00001  -0.00003   0.00005   0.00002   2.55434
   R36        2.61169  -0.00004   0.00002  -0.00014  -0.00011   2.61157
   R37        2.04841  -0.00001   0.00001  -0.00003  -0.00003   2.04838
   R38        2.72239  -0.00002  -0.00005  -0.00004  -0.00009   2.72230
   R39        2.55147   0.00001  -0.00001   0.00002   0.00002   2.55148
   R40        2.67918   0.00003   0.00003   0.00007   0.00010   2.67928
   R41        2.04804  -0.00001  -0.00000  -0.00003  -0.00003   2.04801
   R42        2.76312   0.00002  -0.00002   0.00007   0.00005   2.76317
   R43        3.18608  -0.00004  -0.00030   0.00009  -0.00021   3.18588
   R44        3.17917  -0.00003  -0.00024   0.00010  -0.00014   3.17904
   R45        2.67939   0.00000   0.00004  -0.00002   0.00003   2.67942
   R46        2.68198   0.00002   0.00003   0.00003   0.00006   2.68204
   R47        2.62320  -0.00000  -0.00002   0.00000  -0.00002   2.62319
   R48        2.04359   0.00000  -0.00002   0.00002   0.00000   2.04360
   R49        2.61858  -0.00000  -0.00002  -0.00001  -0.00002   2.61855
   R50        2.04984  -0.00001  -0.00000  -0.00001  -0.00001   2.04982
   R51        2.65264   0.00000   0.00001   0.00000   0.00001   2.65265
   R52        2.05604   0.00000  -0.00000   0.00001   0.00000   2.05605
   R53        2.65674  -0.00000  -0.00001   0.00000  -0.00001   2.65673
   R54        2.05579  -0.00000  -0.00000   0.00000  -0.00000   2.05579
   R55        2.85016  -0.00000  -0.00001   0.00000  -0.00001   2.85015
   R56        2.07102  -0.00000  -0.00000  -0.00000  -0.00001   2.07101
   R57        2.07652   0.00000   0.00000   0.00000   0.00000   2.07652
   R58        2.91337   0.00000   0.00002   0.00001   0.00003   2.91340
   R59        2.08732  -0.00000  -0.00000  -0.00000  -0.00000   2.08731
   R60        2.07251  -0.00000  -0.00000  -0.00000  -0.00000   2.07250
   R61        2.77035  -0.00000  -0.00002   0.00000  -0.00001   2.77034
   R62        1.92708  -0.00000  -0.00001  -0.00000  -0.00001   1.92707
   R63        1.92527  -0.00000  -0.00001   0.00000  -0.00001   1.92527
    A1        2.12384   0.00000   0.00001   0.00000   0.00001   2.12385
    A2        2.05834  -0.00000   0.00000  -0.00003  -0.00003   2.05831
    A3        2.10097   0.00000  -0.00001   0.00003   0.00002   2.10099
    A4        2.05217  -0.00001  -0.00004  -0.00003  -0.00006   2.05210
    A5        2.12656   0.00001   0.00014  -0.00011   0.00003   2.12658
    A6        2.10444   0.00000  -0.00010   0.00014   0.00004   2.10447
    A7        2.10679   0.00001   0.00003   0.00003   0.00005   2.10684
    A8        2.08780  -0.00000  -0.00011   0.00007  -0.00005   2.08775
    A9        2.08780  -0.00000   0.00009  -0.00009  -0.00000   2.08779
   A10        2.10414  -0.00000  -0.00000  -0.00001  -0.00001   2.10413
   A11        2.24717   0.00000   0.00003  -0.00001   0.00003   2.24720
   A12        1.93185  -0.00000  -0.00003   0.00002  -0.00002   1.93183
   A13        2.09226  -0.00000  -0.00001  -0.00001  -0.00002   2.09225
   A14        1.89824   0.00000   0.00002   0.00000   0.00002   1.89826
   A15        2.29264  -0.00000  -0.00000   0.00000  -0.00000   2.29264
   A16        2.08697   0.00000   0.00002   0.00001   0.00003   2.08700
   A17        2.08949   0.00000  -0.00001   0.00002   0.00001   2.08950
   A18        2.10672  -0.00001  -0.00000  -0.00004  -0.00004   2.10668
   A19        1.76243  -0.00000   0.00002  -0.00002   0.00000   1.76243
   A20        1.94480   0.00000   0.00000   0.00002   0.00002   1.94482
   A21        1.94562  -0.00000  -0.00002   0.00000  -0.00002   1.94559
   A22        1.94262   0.00000   0.00000   0.00001   0.00001   1.94263
   A23        1.94375  -0.00000  -0.00002   0.00000  -0.00002   1.94373
   A24        1.92038  -0.00000   0.00001  -0.00001   0.00000   1.92038
   A25        2.25094   0.00000   0.00004  -0.00002   0.00002   2.25095
   A26        1.93658  -0.00000  -0.00004   0.00003  -0.00001   1.93656
   A27        2.09567  -0.00000   0.00000  -0.00000  -0.00000   2.09567
   A28        2.07849  -0.00000   0.00001  -0.00001  -0.00000   2.07848
   A29        2.11156   0.00000   0.00001  -0.00000   0.00001   2.11157
   A30        2.09314  -0.00000  -0.00002   0.00001  -0.00001   2.09313
   A31        2.10958   0.00000  -0.00000   0.00001   0.00001   2.10959
   A32        2.08740  -0.00000   0.00000  -0.00001  -0.00001   2.08739
   A33        2.08621  -0.00000   0.00000  -0.00000  -0.00000   2.08620
   A34        2.10365  -0.00000   0.00000  -0.00001  -0.00000   2.10365
   A35        2.08761  -0.00000  -0.00001   0.00000  -0.00001   2.08760
   A36        2.09192   0.00000   0.00001   0.00000   0.00001   2.09193
   A37        2.07237  -0.00000   0.00000  -0.00000  -0.00000   2.07237
   A38        2.10381   0.00000  -0.00000   0.00001   0.00001   2.10382
   A39        2.10700  -0.00000  -0.00000  -0.00001  -0.00001   2.10699
   A40        1.89563   0.00000   0.00003  -0.00002   0.00001   1.89564
   A41        2.28094   0.00000  -0.00002   0.00001  -0.00000   2.28094
   A42        2.10661  -0.00000  -0.00001   0.00001  -0.00000   2.10660
   A43        1.93091   0.00000   0.00000   0.00001   0.00002   1.93093
   A44        1.92996  -0.00000   0.00001  -0.00001   0.00000   1.92996
   A45        1.94105  -0.00000   0.00001  -0.00001  -0.00000   1.94105
   A46        1.88247  -0.00000  -0.00001   0.00000  -0.00000   1.88247
   A47        1.88967  -0.00000  -0.00001   0.00000  -0.00000   1.88967
   A48        1.88797   0.00000  -0.00001   0.00000  -0.00001   1.88797
   A49        1.92953  -0.00000   0.00001  -0.00001   0.00000   1.92954
   A50        1.93149  -0.00000   0.00001  -0.00001   0.00001   1.93150
   A51        1.94138  -0.00000   0.00001  -0.00001  -0.00001   1.94137
   A52        1.88190   0.00000  -0.00001   0.00001   0.00000   1.88190
   A53        1.88839   0.00000  -0.00001   0.00001  -0.00000   1.88839
   A54        1.88932   0.00000  -0.00001   0.00001   0.00000   1.88932
   A55        2.16102   0.00002   0.00002   0.00002   0.00004   2.16106
   A56        2.08723  -0.00002  -0.00009   0.00004  -0.00005   2.08718
   A57        2.03491  -0.00000   0.00007  -0.00006   0.00001   2.03492
   A58        2.10425  -0.00000  -0.00004   0.00002  -0.00001   2.10424
   A59        2.18082   0.00002   0.00017  -0.00010   0.00007   2.18089
   A60        1.99753  -0.00001  -0.00013   0.00007  -0.00006   1.99747
   A61        2.14363   0.00000  -0.00003   0.00003   0.00000   2.14363
   A62        2.08103  -0.00001  -0.00002  -0.00004  -0.00007   2.08096
   A63        2.05670   0.00000   0.00005   0.00002   0.00007   2.05677
   A64        2.10926   0.00000  -0.00002   0.00003   0.00001   2.10927
   A65        1.99995  -0.00000  -0.00012   0.00008  -0.00003   1.99992
   A66        2.17348  -0.00000   0.00014  -0.00011   0.00003   2.17351
   A67        2.13749   0.00000  -0.00005   0.00004  -0.00000   2.13749
   A68        2.06366   0.00000   0.00008   0.00000   0.00008   2.06373
   A69        2.08057  -0.00000  -0.00003  -0.00005  -0.00008   2.08049
   A70        2.03597  -0.00000   0.00006  -0.00006  -0.00000   2.03596
   A71        2.15633  -0.00001  -0.00003   0.00002  -0.00000   2.15633
   A72        2.09087   0.00001  -0.00003   0.00004   0.00001   2.09088
   A73        1.84773   0.00000   0.00017  -0.00014   0.00003   1.84775
   A74        1.84925  -0.00001   0.00014  -0.00014  -0.00000   1.84925
   A75        1.73015   0.00002  -0.00006   0.00013   0.00007   1.73022
   A76        2.13746  -0.00001   0.00009  -0.00008   0.00000   2.13746
   A77        2.10554   0.00002  -0.00008   0.00013   0.00006   2.10559
   A78        2.04008  -0.00001  -0.00001  -0.00005  -0.00006   2.04002
   A79        2.11146   0.00000  -0.00001   0.00003   0.00001   2.11148
   A80        2.07247  -0.00000   0.00002  -0.00004  -0.00003   2.07244
   A81        2.09926   0.00000  -0.00000   0.00002   0.00001   2.09927
   A82        2.12131   0.00001   0.00001   0.00003   0.00004   2.12135
   A83        2.09046   0.00000  -0.00010   0.00007  -0.00003   2.09043
   A84        2.07069  -0.00001   0.00009  -0.00010  -0.00001   2.07067
   A85        2.12499   0.00000   0.00001   0.00001   0.00002   2.12501
   A86        2.07749   0.00000   0.00001  -0.00000   0.00001   2.07750
   A87        2.08070  -0.00000  -0.00002  -0.00001  -0.00003   2.08068
   A88        2.11563  -0.00000  -0.00001   0.00000  -0.00001   2.11562
   A89        2.08491   0.00000   0.00004  -0.00001   0.00003   2.08494
   A90        2.08265  -0.00000  -0.00003   0.00001  -0.00002   2.08263
   A91        2.05273  -0.00000   0.00001  -0.00002  -0.00001   2.05272
   A92        2.11876  -0.00000  -0.00001  -0.00000  -0.00001   2.11875
   A93        2.11099   0.00000  -0.00001   0.00002   0.00002   2.11101
   A94        1.93363   0.00000   0.00001   0.00001   0.00002   1.93366
   A95        1.91531   0.00000   0.00002   0.00000   0.00002   1.91533
   A96        1.96525  -0.00000   0.00001  -0.00001  -0.00001   1.96524
   A97        1.86736  -0.00000  -0.00001   0.00000  -0.00000   1.86735
   A98        1.88270  -0.00000  -0.00000  -0.00001  -0.00001   1.88270
   A99        1.89650  -0.00000  -0.00002  -0.00000  -0.00002   1.89648
   A100       1.89918  -0.00000  -0.00001  -0.00001  -0.00001   1.89917
   A101       1.90041  -0.00000  -0.00000   0.00001   0.00001   1.90042
   A102       1.92110   0.00000   0.00001   0.00001   0.00001   1.92111
   A103       1.85952   0.00000  -0.00001   0.00000  -0.00000   1.85951
   A104       1.99777  -0.00000   0.00000  -0.00001  -0.00001   1.99776
   A105       1.88296  -0.00000   0.00000   0.00000   0.00001   1.88297
   A106       1.91247   0.00000   0.00003   0.00001   0.00005   1.91252
   A107       1.91453   0.00000   0.00001   0.00001   0.00001   1.91454
   A108       1.84852  -0.00000   0.00002   0.00000   0.00002   1.84854
    D1       -0.02154   0.00000   0.00010   0.00000   0.00010  -0.02144
    D2        3.11289  -0.00000   0.00020  -0.00014   0.00006   3.11295
    D3        3.11073   0.00000   0.00008   0.00004   0.00012   3.11085
    D4       -0.03803   0.00000   0.00018  -0.00010   0.00008  -0.03795
    D5        0.01496  -0.00000   0.00001  -0.00005  -0.00005   0.01491
    D6       -3.13009   0.00000   0.00003  -0.00001   0.00002  -3.13007
    D7       -3.11709  -0.00000   0.00003  -0.00009  -0.00006  -3.11715
    D8        0.02105  -0.00000   0.00005  -0.00004   0.00000   0.02106
    D9        0.01184  -0.00000  -0.00013   0.00006  -0.00008   0.01176
   D10       -3.08665  -0.00000  -0.00021   0.00013  -0.00008  -3.08673
   D11       -3.12268   0.00000  -0.00023   0.00019  -0.00004  -3.12272
   D12        0.06201   0.00000  -0.00031   0.00027  -0.00004   0.06197
   D13        0.34561   0.00000  -0.00032   0.00017  -0.00015   0.34546
   D14       -2.78725   0.00000  -0.00025   0.00004  -0.00021  -2.78745
   D15       -2.80335   0.00000  -0.00022   0.00003  -0.00019  -2.80355
   D16        0.34697  -0.00000  -0.00014  -0.00010  -0.00025   0.34673
   D17        0.00397   0.00000   0.00007  -0.00006   0.00000   0.00398
   D18       -3.12921   0.00000  -0.00003   0.00007   0.00004  -3.12917
   D19        3.10247  -0.00000   0.00014  -0.00013   0.00001   3.10247
   D20       -0.03072   0.00000   0.00005  -0.00000   0.00004  -0.03067
   D21       -0.01104   0.00000   0.00004   0.00001   0.00005  -0.01099
   D22        3.13947   0.00000  -0.00002   0.00006   0.00004   3.13951
   D23        3.12354  -0.00000   0.00012  -0.00010   0.00002   3.12356
   D24       -0.00913  -0.00000   0.00006  -0.00005   0.00001  -0.00912
   D25       -3.14015  -0.00000   0.00002  -0.00007  -0.00005  -3.14020
   D26        1.07873  -0.00000   0.00000  -0.00008  -0.00008   1.07866
   D27       -1.07419  -0.00000   0.00001  -0.00009  -0.00008  -1.07427
   D28        0.00918   0.00000  -0.00006   0.00005  -0.00002   0.00917
   D29       -2.05512  -0.00000  -0.00008   0.00004  -0.00004  -2.05516
   D30        2.07515  -0.00000  -0.00008   0.00004  -0.00005   2.07510
   D31        0.00156  -0.00000  -0.00008   0.00005  -0.00003   0.00153
   D32       -3.13655  -0.00000  -0.00010   0.00000  -0.00009  -3.13664
   D33        3.13190   0.00000   0.00000  -0.00002  -0.00002   3.13188
   D34       -0.00621  -0.00000  -0.00002  -0.00006  -0.00008  -0.00629
   D35        0.00492   0.00000  -0.00003   0.00003   0.00000   0.00492
   D36       -3.13680   0.00000  -0.00006   0.00004  -0.00001  -3.13682
   D37       -3.12637  -0.00000  -0.00010   0.00009  -0.00001  -3.12638
   D38        0.01510  -0.00000  -0.00013   0.00010  -0.00003   0.01507
   D39        3.13623  -0.00000   0.00004  -0.00000   0.00003   3.13626
   D40       -0.00614  -0.00000   0.00005  -0.00003   0.00002  -0.00613
   D41       -1.08107   0.00000   0.00005   0.00001   0.00006  -1.08100
   D42        2.05974   0.00000   0.00007  -0.00001   0.00005   2.05979
   D43        1.06891   0.00000   0.00006   0.00001   0.00007   1.06898
   D44       -2.07347   0.00000   0.00007  -0.00002   0.00005  -2.07341
   D45        3.07509   0.00000  -0.00000   0.00003   0.00003   3.07511
   D46       -1.12363   0.00000  -0.00001   0.00004   0.00003  -1.12360
   D47        0.97434   0.00000  -0.00001   0.00003   0.00002   0.97436
   D48        1.12241  -0.00000  -0.00004   0.00004   0.00000   1.12241
   D49       -3.07631   0.00000  -0.00004   0.00005   0.00001  -3.07630
   D50       -0.97834  -0.00000  -0.00004   0.00004  -0.00000  -0.97834
   D51       -1.04087  -0.00000  -0.00003   0.00004   0.00001  -1.04086
   D52        1.04359   0.00000  -0.00003   0.00005   0.00002   1.04361
   D53        3.14156  -0.00000  -0.00003   0.00004   0.00001   3.14157
   D54        1.12439   0.00000  -0.00003   0.00004   0.00001   1.12440
   D55       -3.07494   0.00000  -0.00003   0.00005   0.00002  -3.07493
   D56       -0.97404   0.00000  -0.00003   0.00005   0.00002  -0.97402
   D57        3.07819  -0.00000  -0.00002   0.00002  -0.00001   3.07819
   D58       -1.12114  -0.00000  -0.00003   0.00002  -0.00000  -1.12114
   D59        0.97976  -0.00000  -0.00002   0.00002  -0.00000   0.97976
   D60       -1.04236  -0.00000  -0.00002   0.00003   0.00000  -1.04236
   D61        1.04149  -0.00000  -0.00003   0.00003   0.00001   1.04150
   D62       -3.14079  -0.00000  -0.00002   0.00003   0.00001  -3.14079
   D63        3.14045  -0.00000   0.00001  -0.00002  -0.00001   3.14044
   D64       -0.00054  -0.00000   0.00001  -0.00001  -0.00000  -0.00054
   D65       -0.00029  -0.00000   0.00000   0.00000   0.00000  -0.00029
   D66       -3.14129   0.00000  -0.00001   0.00002   0.00001  -3.14128
   D67        0.00117   0.00000  -0.00002   0.00000  -0.00002   0.00115
   D68       -3.14031   0.00000   0.00001  -0.00001   0.00000  -3.14031
   D69       -3.14113   0.00000  -0.00000  -0.00002  -0.00003  -3.14115
   D70        0.00058  -0.00000   0.00002  -0.00003  -0.00001   0.00057
   D71       -0.00007   0.00000  -0.00001   0.00001  -0.00000  -0.00007
   D72       -3.14130   0.00000  -0.00000  -0.00000  -0.00000  -3.14130
   D73        3.14093  -0.00000  -0.00001  -0.00000  -0.00001   3.14092
   D74       -0.00030  -0.00000   0.00000  -0.00002  -0.00001  -0.00031
   D75        0.00016   0.00000   0.00000  -0.00000   0.00000   0.00016
   D76       -3.14132  -0.00000   0.00001  -0.00001   0.00000  -3.14131
   D77        3.14139   0.00000  -0.00001   0.00001   0.00001   3.14140
   D78       -0.00008   0.00000   0.00000   0.00001   0.00001  -0.00008
   D79        0.00012  -0.00000   0.00002  -0.00003  -0.00001   0.00011
   D80       -3.14149  -0.00000   0.00001   0.00000   0.00001  -3.14147
   D81       -3.14159  -0.00000   0.00001  -0.00002  -0.00001   3.14158
   D82       -0.00001   0.00000   0.00000   0.00001   0.00001   0.00000
   D83        3.14125   0.00000   0.00000   0.00003   0.00003   3.14128
   D84       -0.00048   0.00000  -0.00003   0.00005   0.00001  -0.00047
   D85       -0.00033  -0.00000   0.00001  -0.00000   0.00001  -0.00032
   D86        3.14112   0.00000  -0.00002   0.00001  -0.00001   3.14111
   D87        3.11493  -0.00000   0.00007  -0.00022  -0.00015   3.11478
   D88        0.01218   0.00000   0.00002  -0.00006  -0.00004   0.01214
   D89       -0.03516  -0.00000  -0.00001  -0.00009  -0.00010  -0.03525
   D90       -3.13790   0.00000  -0.00005   0.00006   0.00001  -3.13789
   D91       -3.12081   0.00000  -0.00009   0.00026   0.00017  -3.12064
   D92        0.08712   0.00000   0.00001   0.00011   0.00012   0.08724
   D93        0.02890   0.00000  -0.00002   0.00014   0.00012   0.02902
   D94       -3.04636  -0.00000   0.00008  -0.00001   0.00007  -3.04629
   D95        0.00867  -0.00000  -0.00002   0.00001  -0.00001   0.00866
   D96       -3.10079   0.00000  -0.00009   0.00015   0.00007  -3.10072
   D97        3.11528  -0.00000   0.00003  -0.00013  -0.00011   3.11518
   D98        0.00583  -0.00000  -0.00004   0.00001  -0.00003   0.00580
   D99        3.11127  -0.00000   0.00010  -0.00018  -0.00008   3.11119
   D100       0.00642   0.00000   0.00006  -0.00003   0.00003   0.00645
   D101       0.00556  -0.00000   0.00007  -0.00011  -0.00003   0.00552
   D102      -3.07724   0.00000   0.00005  -0.00002   0.00003  -3.07721
   D103       3.08168   0.00000  -0.00003   0.00004   0.00001   3.08169
   D104      -0.00111   0.00000  -0.00005   0.00013   0.00007  -0.00104
   D105       0.02513   0.00000   0.00007   0.00003   0.00009   0.02523
   D106      -3.12261   0.00000   0.00005   0.00010   0.00016  -3.12246
   D107       3.13125  -0.00000   0.00014  -0.00013   0.00001   3.13126
   D108      -0.01650   0.00000   0.00012  -0.00005   0.00007  -0.01643
   D109      -0.01481   0.00000  -0.00000   0.00002   0.00002  -0.01479
   D110      -3.12290   0.00000  -0.00007   0.00017   0.00010  -3.12281
   D111      -0.03267  -0.00000  -0.00009   0.00002  -0.00007  -0.03275
   D112       3.11483  -0.00000  -0.00008  -0.00005  -0.00013   3.11470
   D113       3.04958  -0.00000  -0.00007  -0.00007  -0.00014   3.04944
   D114      -0.08610  -0.00000  -0.00006  -0.00014  -0.00019  -0.08630
   D115      -0.40040  -0.00000   0.00022  -0.00016   0.00006  -0.40034
   D116       2.75749  -0.00000   0.00014  -0.00022  -0.00008   2.75741
   D117       2.73485   0.00000   0.00021  -0.00009   0.00012   2.73498
   D118      -0.39044  -0.00000   0.00013  -0.00015  -0.00002  -0.39046
   D119      -0.01333   0.00000  -0.00006   0.00004  -0.00002  -0.01334
   D120       0.01644  -0.00000   0.00004  -0.00004  -0.00000   0.01644
   D121      -3.10828  -0.00000  -0.00012   0.00001  -0.00011  -3.10839
   D122       0.03302  -0.00000  -0.00012   0.00001  -0.00011   0.03291
   D123       0.01759   0.00000  -0.00005   0.00007   0.00002   0.01761
   D124      -3.12429   0.00000  -0.00005   0.00007   0.00002  -3.12427
   D125       3.12219   0.00000   0.00015  -0.00004   0.00010   3.12229
   D126      -0.06089  -0.00000   0.00021  -0.00014   0.00007  -0.06082
   D127      -0.00398  -0.00000   0.00007  -0.00010  -0.00003  -0.00401
   D128       3.09612  -0.00000   0.00014  -0.00019  -0.00006   3.09606
   D129      -0.01771  -0.00000  -0.00002   0.00001  -0.00001  -0.01772
   D130       3.12137  -0.00000  -0.00005   0.00000  -0.00005   3.12132
   D131       3.12418  -0.00000  -0.00002   0.00001  -0.00001   3.12417
   D132      -0.01993  -0.00000  -0.00004  -0.00000  -0.00004  -0.01998
   D133      -0.01003   0.00000  -0.00003   0.00005   0.00002  -0.01001
   D134       3.12867  -0.00000  -0.00004   0.00002  -0.00002   3.12865
   D135      -3.11059   0.00000  -0.00009   0.00014   0.00005  -3.11054
   D136       0.02811   0.00000  -0.00010   0.00011   0.00000   0.02812
   D137       0.00340  -0.00000   0.00007  -0.00006   0.00000   0.00340
   D138      -3.09814   0.00000   0.00006  -0.00001   0.00005  -3.09809
   D139      -3.13567  -0.00000   0.00009  -0.00005   0.00004  -3.13564
   D140       0.04597   0.00000   0.00009   0.00000   0.00009   0.04606
   D141       0.01037   0.00000  -0.00004   0.00003  -0.00001   0.01036
   D142       3.11210  -0.00000  -0.00004  -0.00002  -0.00006   3.11204
   D143      -3.12834   0.00000  -0.00003   0.00007   0.00004  -3.12830
   D144      -0.02661   0.00000  -0.00002   0.00001  -0.00001  -0.02662
   D145      -2.62786  -0.00000  -0.00032  -0.00034  -0.00066  -2.62852
   D146      -0.56967  -0.00000  -0.00032  -0.00032  -0.00064  -0.57031
   D147       1.54517  -0.00000  -0.00033  -0.00033  -0.00066   1.54451
   D148       0.55512  -0.00000  -0.00033  -0.00028  -0.00061   0.55451
   D149       2.61331  -0.00000  -0.00032  -0.00027  -0.00059   2.61272
   D150      -1.55504  -0.00000  -0.00034  -0.00028  -0.00061  -1.55565
   D151      -0.98442   0.00000   0.00004   0.00005   0.00009  -0.98433
   D152       1.03583  -0.00000   0.00003   0.00005   0.00008   1.03591
   D153       3.09656   0.00000   0.00004   0.00006   0.00010   3.09666
   D154      -3.12348  -0.00000   0.00003   0.00004   0.00007  -3.12340
   D155      -1.10322  -0.00000   0.00002   0.00004   0.00006  -1.10316
   D156       0.95751  -0.00000   0.00003   0.00005   0.00008   0.95759
   D157       1.14112   0.00000   0.00005   0.00004   0.00009   1.14121
   D158      -3.12182   0.00000   0.00004   0.00004   0.00008  -3.12173
   D159      -1.06108   0.00000   0.00005   0.00005   0.00010  -1.06098
   D160       1.20371   0.00000   0.00048   0.00016   0.00064   1.20435
   D161      -3.05713   0.00000   0.00053   0.00017   0.00071  -3.05643
   D162      -0.94165   0.00000   0.00048   0.00017   0.00066  -0.94099
   D163       1.08069   0.00000   0.00054   0.00018   0.00072   1.08141
   D164      -3.00800   0.00000   0.00049   0.00017   0.00066  -3.00734
   D165      -0.98566   0.00000   0.00054   0.00018   0.00072  -0.98494
         Item               Value     Threshold  Converged?
 Maximum Force            0.000039     0.000450     YES
 RMS     Force            0.000006     0.000300     YES
 Maximum Displacement     0.002456     0.001800     NO 
 RMS     Displacement     0.000551     0.001200     YES
 Predicted change in Energy=-3.561527D-08
 Lowest energy point so far.  Saving SCF results.
 GradGradGradGradGradGradGradGradGradGradGradGradGradGradGradGradGradGrad

 Leave Link  103 at Thu Mar 14 10:00:01 2024, MaxMem= 32212254720 cpu:               4.3 elap:               0.2
 (Enter /home/<user>/g16/l202.exe)
 Stoichiometry    C29H25N3S
 Framework group  C1[X(C29H25N3S)]
 Deg. of freedom   168
 Full point group                 C1      NOp   1
 RotChk:  IX=0 Diff= 1.04D-04
 Largest Abelian subgroup         C1      NOp   1
 Largest concise Abelian subgroup C1      NOp   1
                         Standard orientation:                         
 ---------------------------------------------------------------------
 Center     Atomic      Atomic             Coordinates (Angstroms)
 Number     Number       Type             X           Y           Z
 ---------------------------------------------------------------------
      1          6           0       -2.447773    1.657266   -0.310994
      2          6           0       -1.767663    0.407159   -0.176522
      3          6           0       -2.565522   -0.763398    0.005384
      4          6           0       -3.938766   -0.680423    0.034250
      5          6           0       -4.589726    0.571825   -0.121319
      6          6           0       -3.828830    1.738901   -0.293075
      7          1           0       -1.848595    2.550684   -0.419819
      8          1           0       -2.083003   -1.721915    0.162172
      9          1           0       -4.312954    2.704902   -0.408765
     10          6           0       -4.961469   -1.800109    0.230788
     11          6           0       -6.270235   -1.015971    0.151730
     12          6           0       -7.574156   -1.481179    0.252998
     13          6           0       -8.632676   -0.569053    0.150335
     14          6           0       -8.388250    0.797627   -0.051959
     15          6           0       -7.084995    1.275108   -0.155080
     16          6           0       -6.022615    0.364068   -0.053008
     17          1           0       -7.781115   -2.536736    0.410358
     18          1           0       -9.656546   -0.924117    0.228662
     19          1           0       -9.224376    1.486873   -0.128307
     20          1           0       -6.895542    2.333374   -0.311612
     21          6           0       -4.796572   -2.480021    1.608985
     22          1           0       -5.577202   -3.233613    1.763756
     23          1           0       -3.825558   -2.983310    1.676461
     24          1           0       -4.859382   -1.749120    2.421224
     25          6           0       -4.868413   -2.855187   -0.894417
     26          1           0       -3.898819   -3.364956   -0.864618
     27          1           0       -5.650305   -3.614380   -0.778421
     28          1           0       -4.981986   -2.394049   -1.880608
     29          6           0       -0.313601    0.312763   -0.230114
     30          6           0        0.569989    1.426722   -0.008868
     31          6           0        0.297817   -0.934934   -0.525381
     32          6           0        2.000801    1.246809   -0.046375
     33          6           0        1.668513   -1.105617   -0.569391
     34          1           0       -0.326456   -1.781519   -0.787173
     35          6           0        2.575989   -0.046168   -0.315899
     36          1           0        2.055516   -2.074830   -0.861609
     37          7           0        0.171866    2.684243    0.286464
     38          7           0        2.714331    2.360198    0.226106
     39         16           0        1.585798    3.579167    0.491758
     40          6           0        4.015709   -0.299960   -0.344990
     41          6           0        4.964831    0.726171   -0.582953
     42          6           0        4.523133   -1.611204   -0.151344
     43          6           0        6.322606    0.443714   -0.642701
     44          1           0        4.612204    1.739472   -0.718434
     45          6           0        5.882351   -1.876708   -0.197617
     46          1           0        3.842029   -2.424181    0.076215
     47          6           0        6.815831   -0.856428   -0.450902
     48          1           0        7.021675    1.252254   -0.846017
     49          1           0        6.234977   -2.892497   -0.032377
     50          6           0        8.296189   -1.144834   -0.462478
     51          1           0        8.491159   -2.164239   -0.814422
     52          1           0        8.801856   -0.462254   -1.159508
     53          6           0        8.940123   -0.993855    0.930147
     54          1           0        8.736567    0.023797    1.308296
     55          1           0        8.451698   -1.688416    1.624283
     56          7           0       10.362033   -1.345183    0.867745
     57          1           0       10.865165   -0.639418    0.330467
     58          1           0       10.762905   -1.321784    1.804080
 ---------------------------------------------------------------------
 Rotational constants (GHZ):           0.3549535           0.0398680           0.0365226
 Leave Link  202 at Thu Mar 14 10:00:01 2024, MaxMem= 32212254720 cpu:               0.1 elap:               0.0
 (Enter /home/<user>/g16/l301.exe)
 Standard basis: 6-31G(d) (6D, 7F)
 Ernie: Thresh=  0.10000D-02 Tol=  0.10000D-05 Strict=F.
 There are   549 symmetry adapted cartesian basis functions of A   symmetry.
 There are   549 symmetry adapted basis functions of A   symmetry.
   549 basis functions,  1048 primitive gaussians,   549 cartesian basis functions
   118 alpha electrons      118 beta electrons
       nuclear repulsion energy      3077.7337882701 Hartrees.
 IExCor=  402 DFT=T Ex+Corr=B3LYP ExCW=0 ScaHFX=  0.200000
 ScaDFX=  0.800000  0.720000  1.000000  0.810000 ScalE2=  1.000000  1.000000
 IRadAn=      5 IRanWt=     -1 IRanGd=            0 ICorTp=0 IEmpDi=  4
 NAtoms=   58 NActive=   58 NUniq=   58 SFac= 1.00D+00 NAtFMM=   60 NAOKFM=F Big=F
 Integral buffers will be    131072 words long.
 Regular integral format.
 Two-electron integral symmetry is turned on.
 Leave Link  301 at Thu Mar 14 10:00:01 2024, MaxMem= 32212254720 cpu:               1.0 elap:               0.0
 (Enter /home/<user>/g16/l302.exe)
 NPDir=0 NMtPBC=     1 NCelOv=     1 NCel=       1 NClECP=     1 NCelD=      1
         NCelK=      1 NCelE2=     1 NClLst=     1 CellRange=     0.0.
 One-electron integrals computed using PRISM.
 One-electron integral symmetry used in STVInt
 NBasis=   549 RedAO= T EigKep=  2.68D-04  NBF=   549
 NBsUse=   549 1.00D-06 EigRej= -1.00D+00 NBFU=   549
 Precomputing XC quadrature grid using
 IXCGrd= 4 IRadAn=           5 IRanWt=          -1 IRanGd=           0 AccXCQ= 0.00D+00.
 Generated NRdTot=       0 NPtTot=           0 NUsed=           0 NTot=          32
 NSgBfM=   512   512   512   512   512 MxSgAt=    58 MxSgA2=    58.
 Leave Link  302 at Thu Mar 14 10:00:01 2024, MaxMem= 32212254720 cpu:              17.7 elap:               0.6
 (Enter /home/<user>/g16/l303.exe)
 DipDrv:  MaxL=1.
 Leave Link  303 at Thu Mar 14 10:00:01 2024, MaxMem= 32212254720 cpu:               1.7 elap:               0.1
 (Enter /home/<user>/g16/l308.exe)
 Leave Link  308 at Thu Mar 14 10:00:01 2024, MaxMem= 32212254720 cpu:               2.0 elap:               0.1
 (Enter /home/<user>/g16/l401.exe)
 Initial guess from the checkpoint file:  "FBTP_S1opt.chk"
 B after Tr=     0.000000   -0.000000   -0.000000
         Rot=    1.000000    0.000005   -0.000001    0.000003 Ang=   0.00 deg.
 Guess basis will be translated and rotated to current coordinates.
 JPrj=2 DoOrth=T DoCkMO=T.
 Leave Link  401 at Thu Mar 14 10:00:02 2024, MaxMem= 32212254720 cpu:              15.1 elap:               0.5
 (Enter /home/<user>/g16/l502.exe)
 Integral symmetry usage will be decided dynamically.
 Closed shell SCF:
 Using DIIS extrapolation, IDIIS=  1040.
 NGot= 32212254720 LenX= 32211628124 LenY= 32211326174
 Requested convergence on RMS density matrix=1.00D-08 within 128 cycles.
 Requested convergence on MAX density matrix=1.00D-06.
 Requested convergence on             energy=1.00D-06.
 No special actions if energy rises.
 Fock matrices will be formed incrementally for  20 cycles.

 Cycle   1  Pass 1  IDiag  1:
 FoFJK:  IHMeth= 1 ICntrl=       0 DoSepK=F KAlg= 0 I1Cent=           0 FoldK=F
 IRaf= 550000000 NMat=       1 IRICut=       1 DoRegI=T DoRafI=F ISym2E= 0 IDoP0=0 IntGTp=1.
 FoFCou: FMM=F IPFlag=           0 FMFlag=      100000 FMFlg1=           0
         NFxFlg=           0 DoJE=F BraDBF=F KetDBF=F FulRan=T
         wScrn=  0.000000 ICntrl=         0 IOpCl=  0 I1Cent=           0 NGrid=           0
         NMat0=    1 NMatS0=      1 NMatT0=    0 NMatD0=    1 NMtDS0=    0 NMtDT0=    0
 Symmetry not used in FoFCou.
 E= -1682.59461681865    
 DIIS: error= 2.05D-05 at cycle   1 NSaved=   1.
 NSaved= 1 IEnMin= 1 EnMin= -1682.59461681865     IErMin= 1 ErrMin= 2.05D-05
 ErrMax= 2.05D-05  0.00D+00 EMaxC= 1.00D-01 BMatC= 3.45D-07 BMatP= 3.45D-07
 IDIUse=1 WtCom= 1.00D+00 WtEn= 0.00D+00
 Coeff-Com:  0.100D+01
 Coeff:      0.100D+01
 Gap=     1.960 Goal=   None    Shift=    0.000
 RMSDP=1.88D-06 MaxDP=7.66D-05              OVMax= 1.22D-04

 Cycle   2  Pass 1  IDiag  1:
 RMSU=  1.88D-06    CP:  1.00D+00
 E= -1682.59461756544     Delta-E=       -0.000000746782 Rises=F Damp=F
 DIIS: error= 2.25D-06 at cycle   2 NSaved=   2.
 NSaved= 2 IEnMin= 2 EnMin= -1682.59461756544     IErMin= 2 ErrMin= 2.25D-06
 ErrMax= 2.25D-06  0.00D+00 EMaxC= 1.00D-01 BMatC= 6.39D-09 BMatP= 3.45D-07
 IDIUse=1 WtCom= 1.00D+00 WtEn= 0.00D+00
 Coeff-Com: -0.683D-01 0.107D+01
 Coeff:     -0.683D-01 0.107D+01
 Gap=     0.090 Goal=   None    Shift=    0.000
 RMSDP=4.24D-07 MaxDP=3.15D-05 DE=-7.47D-07 OVMax= 3.35D-05

 Cycle   3  Pass 1  IDiag  1:
 RMSU=  3.92D-07    CP:  1.00D+00  1.09D+00
 E= -1682.59461756581     Delta-E=       -0.000000000376 Rises=F Damp=F
 DIIS: error= 4.23D-06 at cycle   3 NSaved=   3.
 NSaved= 3 IEnMin= 3 EnMin= -1682.59461756581     IErMin= 2 ErrMin= 2.25D-06
 ErrMax= 4.23D-06  0.00D+00 EMaxC= 1.00D-01 BMatC= 1.20D-08 BMatP= 6.39D-09
 IDIUse=1 WtCom= 1.00D+00 WtEn= 0.00D+00
 Coeff-Com: -0.536D-01 0.670D+00 0.384D+00
 Coeff:     -0.536D-01 0.670D+00 0.384D+00
 Gap=     0.090 Goal=   None    Shift=    0.000
 RMSDP=2.82D-07 MaxDP=3.07D-05 DE=-3.76D-10 OVMax= 3.56D-05

 Cycle   4  Pass 1  IDiag  1:
 RMSU=  1.65D-07    CP:  1.00D+00  1.10D+00  4.21D-01
 E= -1682.59461757581     Delta-E=       -0.000000009994 Rises=F Damp=F
 DIIS: error= 1.78D-06 at cycle   4 NSaved=   4.
 NSaved= 4 IEnMin= 4 EnMin= -1682.59461757581     IErMin= 4 ErrMin= 1.78D-06
 ErrMax= 1.78D-06  0.00D+00 EMaxC= 1.00D-01 BMatC= 1.73D-09 BMatP= 6.39D-09
 IDIUse=1 WtCom= 1.00D+00 WtEn= 0.00D+00
 Coeff-Com: -0.281D-01 0.328D+00 0.276D+00 0.424D+00
 Coeff:     -0.281D-01 0.328D+00 0.276D+00 0.424D+00
 Gap=     0.090 Goal=   None    Shift=    0.000
 RMSDP=1.20D-07 MaxDP=1.18D-05 DE=-9.99D-09 OVMax= 2.27D-05

 Cycle   5  Pass 1  IDiag  1:
 RMSU=  8.51D-08    CP:  1.00D+00  1.10D+00  5.05D-01  5.34D-01
 E= -1682.59461757715     Delta-E=       -0.000000001340 Rises=F Damp=F
 DIIS: error= 7.94D-07 at cycle   5 NSaved=   5.
 NSaved= 5 IEnMin= 5 EnMin= -1682.59461757715     IErMin= 5 ErrMin= 7.94D-07
 ErrMax= 7.94D-07  0.00D+00 EMaxC= 1.00D-01 BMatC= 5.02D-10 BMatP= 1.73D-09
 IDIUse=1 WtCom= 1.00D+00 WtEn= 0.00D+00
 Coeff-Com: -0.744D-02 0.738D-01 0.118D+00 0.357D+00 0.459D+00
 Coeff:     -0.744D-02 0.738D-01 0.118D+00 0.357D+00 0.459D+00
 Gap=     0.090 Goal=   None    Shift=    0.000
 RMSDP=5.01D-08 MaxDP=4.91D-06 DE=-1.34D-09 OVMax= 8.36D-06

 Cycle   6  Pass 1  IDiag  1:
 RMSU=  2.35D-08    CP:  1.00D+00  1.10D+00  5.15D-01  6.60D-01  5.44D-01
 E= -1682.59461757749     Delta-E=       -0.000000000347 Rises=F Damp=F
 DIIS: error= 1.18D-07 at cycle   6 NSaved=   6.
 NSaved= 6 IEnMin= 6 EnMin= -1682.59461757749     IErMin= 6 ErrMin= 1.18D-07
 ErrMax= 1.18D-07  0.00D+00 EMaxC= 1.00D-01 BMatC= 1.39D-11 BMatP= 5.02D-10
 IDIUse=1 WtCom= 1.00D+00 WtEn= 0.00D+00
 Coeff-Com: -0.549D-03-0.589D-03 0.288D-01 0.128D+00 0.219D+00 0.626D+00
 Coeff:     -0.549D-03-0.589D-03 0.288D-01 0.128D+00 0.219D+00 0.626D+00
 Gap=     0.090 Goal=   None    Shift=    0.000
 RMSDP=1.33D-08 MaxDP=1.54D-06 DE=-3.47D-10 OVMax= 2.04D-06

 Cycle   7  Pass 1  IDiag  1:
 RMSU=  8.96D-09    CP:  1.00D+00  1.10D+00  5.19D-01  6.71D-01  5.94D-01
                    CP:  6.36D-01
 E= -1682.59461757757     Delta-E=       -0.000000000075 Rises=F Damp=F
 DIIS: error= 6.77D-08 at cycle   7 NSaved=   7.
 NSaved= 7 IEnMin= 7 EnMin= -1682.59461757757     IErMin= 7 ErrMin= 6.77D-08
 ErrMax= 6.77D-08  0.00D+00 EMaxC= 1.00D-01 BMatC= 5.14D-12 BMatP= 1.39D-11
 IDIUse=1 WtCom= 1.00D+00 WtEn= 0.00D+00
 Coeff-Com:  0.604D-03-0.104D-01 0.321D-02 0.369D-01 0.820D-01 0.422D+00
 Coeff-Com:  0.465D+00
 Coeff:      0.604D-03-0.104D-01 0.321D-02 0.369D-01 0.820D-01 0.422D+00
 Coeff:      0.465D+00
 Gap=     0.090 Goal=   None    Shift=    0.000
 RMSDP=6.17D-09 MaxDP=3.61D-07 DE=-7.55D-11 OVMax= 8.06D-07

 SCF Done:  E(RB3LYP) =  -1682.59461758     A.U. after    7 cycles
            NFock=  7  Conv=0.62D-08     -V/T= 2.0083
 KE= 1.668728849673D+03 PE=-1.007717575761D+04 EE= 3.648118502091D+03
 Leave Link  502 at Thu Mar 14 10:00:16 2024, MaxMem= 32212254720 cpu:             431.1 elap:              14.4
 (Enter /home/<user>/g16/l801.exe)
 DoSCS=F DFT=T ScalE2(SS,OS)=  1.000000  1.000000
 ExpMin= 1.17D-01 ExpMax= 2.19D+04 ExpMxC= 3.30D+03 IAcc=3 IRadAn=         5 AccDes= 0.00D+00
 HarFok:  IExCor=  205 AccDes= 0.00D+00 IRadAn=         5 IDoV=-2 UseB2=F ITyADJ=14
 ICtDFT= 12500011 ScaDFX=  1.000000  1.000000  1.000000  1.000000
 GSVD:  LWork=       -1665 too small for GESVD, short by        7400 words or        7400 for optimal perf.
 Largest valence mixing into a core orbital is  1.10D-04
 Largest core mixing into a valence orbital is  2.82D-05
 Range of M.O.s used for correlation:    38   549
 NBasis=   549 NAE=   118 NBE=   118 NFC=    37 NFV=     0
 NROrb=    512 NOA=    81 NOB=    81 NVA=   431 NVB=   431

 **** Warning!!: The smallest alpha delta epsilon is  0.90056481D-01

 Leave Link  801 at Thu Mar 14 10:00:17 2024, MaxMem= 32212254720 cpu:               2.8 elap:               0.1
 (Enter /home/<user>/g16/l914.exe)
 RHF ground state
 Two-electron integrals replicated using symmetry.
 MDV= 32212254720 DFT=T DoStab=F Mixed=T DoRPA=T DoScal=F NonHer=T
 Making orbital integer symmetry assigments:
 Orbital symmetries:
       Occupied  (A) (A) (A) (A) (A) (A) (A) (A) (A) (A) (A) (A)
                 (A) (A) (A) (A) (A) (A) (A) (A) (A) (A) (A) (A)
                 (A) (A) (A) (A) (A) (A) (A) (A) (A) (A) (A) (A)
                 (A) (A) (A) (A) (A) (A) (A) (A) (A) (A) (A) (A)
                 (A) (A) (A) (A) (A) (A) (A) (A) (A) (A) (A) (A)
                 (A) (A) (A) (A) (A) (A) (A) (A) (A) (A) (A) (A)
                 (A) (A) (A) (A) (A) (A) (A) (A) (A) (A) (A) (A)
                 (A) (A) (A) (A) (A) (A) (A) (A) (A) (A) (A) (A)
                 (A) (A) (A) (A) (A) (A) (A) (A) (A) (A) (A) (A)
                 (A) (A) (A) (A) (A) (A) (A) (A) (A) (A)
       Virtual   (A) (A) (A) (A) (A) (A) (A) (A) (A) (A) (A) (A)
                 (A) (A) (A) (A) (A) (A) (A) (A) (A) (A) (A) (A)
                 (A) (A) (A) (A) (A) (A) (A) (A) (A) (A) (A) (A)
                 (A) (A) (A) (A) (A) (A) (A) (A) (A) (A) (A) (A)
                 (A) (A) (A) (A) (A) (A) (A) (A) (A) (A) (A) (A)
                 (A) (A) (A) (A) (A) (A) (A) (A) (A) (A) (A) (A)
                 (A) (A) (A) (A) (A) (A) (A) (A) (A) (A) (A) (A)
                 (A) (A) (A) (A) (A) (A) (A) (A) (A) (A) (A) (A)
                 (A) (A) (A) (A) (A) (A) (A) (A) (A) (A) (A) (A)
                 (A) (A) (A) (A) (A) (A) (A) (A) (A) (A) (A) (A)
                 (A) (A) (A) (A) (A) (A) (A) (A) (A) (A) (A) (A)
                 (A) (A) (A) (A) (A) (A) (A) (A) (A) (A) (A) (A)
                 (A) (A) (A) (A) (A) (A) (A) (A) (A) (A) (A) (A)
                 (A) (A) (A) (A) (A) (A) (A) (A) (A) (A) (A) (A)
                 (A) (A) (A) (A) (A) (A) (A) (A) (A) (A) (A) (A)
                 (A) (A) (A) (A) (A) (A) (A) (A) (A) (A) (A) (A)
                 (A) (A) (A) (A) (A) (A) (A) (A) (A) (A) (A) (A)
                 (A) (A) (A) (A) (A) (A) (A) (A) (A) (A) (A) (A)
                 (A) (A) (A) (A) (A) (A) (A) (A) (A) (A) (A) (A)
                 (A) (A) (A) (A) (A) (A) (A) (A) (A) (A) (A) (A)
                 (A) (A) (A) (A) (A) (A) (A) (A) (A) (A) (A) (A)
                 (A) (A) (A) (A) (A) (A) (A) (A) (A) (A) (A) (A)
                 (A) (A) (A) (A) (A) (A) (A) (A) (A) (A) (A) (A)
                 (A) (A) (A) (A) (A) (A) (A) (A) (A) (A) (A) (A)
                 (A) (A) (A) (A) (A) (A) (A) (A) (A) (A) (A) (A)
                 (A) (A) (A) (A) (A) (A) (A) (A) (A) (A) (A) (A)
                 (A) (A) (A) (A) (A) (A) (A) (A) (A) (A) (A) (A)
                 (A) (A) (A) (A) (A) (A) (A) (A) (A) (A) (A) (A)
                 (A) (A) (A) (A) (A) (A) (A) (A) (A) (A) (A) (A)
                 (A) (A) (A) (A) (A) (A) (A) (A) (A) (A) (A) (A)
                 (A) (A) (A) (A) (A) (A) (A) (A) (A) (A) (A) (A)
                 (A) (A) (A) (A) (A) (A) (A) (A) (A) (A) (A) (A)
                 (A) (A) (A) (A) (A) (A) (A) (A) (A) (A) (A) (A)
                 (A) (A) (A) (A) (A) (A) (A) (A) (A) (A) (A) (A)
                 (A) (A) (A) (A) (A) (A) (A) (A) (A) (A) (A) (A)
                 (A) (A) (A) (A) (A) (A) (A) (A) (A) (A) (A)
 Generating guess from densities on rwf.
 Convergence on wavefunction:    0.000001000000000
 Davidson Disk Diagonalization:  ConvIn= 1.00D-06 SkipCon=T Conv= 1.00D-06.
 Max sub-space:  2000 roots to seek:     3 dimension of matrix:        69822
 Iteration     1 Dimension     6 NMult     0 NNew      6
 CISAX will form     6 AO SS matrices at one time.
 NMat=     6 NSing=     6 JSym2X= 0.
 FoFJK:  IHMeth= 1 ICntrl=       0 DoSepK=F KAlg= 0 I1Cent=           0 FoldK=F
 IRaf= 550000000 NMat=      12 IRICut=       1 DoRegI=T DoRafI=F ISym2E= 0 IDoP0=0 IntGTp=1.
 FoFCou: FMM=F IPFlag=           0 FMFlag=      100000 FMFlg1=           0
         NFxFlg=           0 DoJE=F BraDBF=F KetDBF=F FulRan=T
         wScrn=  0.000000 ICntrl=         0 IOpCl=  0 I1Cent=           0 NGrid=           0
         NMat0=   12 NMatS0=      6 NMatT0=    0 NMatD0=   12 NMtDS0=    0 NMtDT0=    0
 Symmetry not used in FoFCou.
 Excitation Energies [eV] at current iteration:
 Root      1 :     2.074146826310544
 Root      2 :     2.979021676432457
 Root      3 :     3.325596200489796
 Iteration     2 Dimension    12 NMult     6 NNew      6
 CISAX will form     6 AO SS matrices at one time.
 NMat=     6 NSing=     6 JSym2X= 0.
 Root      1 not converged, maximum delta is    0.000054281224099
 Root      2 not converged, maximum delta is    0.000070104628973
 Root      3 not converged, maximum delta is    0.000072239942396
 Excitation Energies [eV] at current iteration:
 Root      1 :     2.074146221053143   Change is   -0.000000605257402
 Root      2 :     2.979021045716055   Change is   -0.000000630716402
 Root      3 :     3.325595746202618   Change is   -0.000000454287178
 Iteration     3 Dimension    18 NMult    12 NNew      6
 CISAX will form     6 AO SS matrices at one time.
 NMat=     6 NSing=     6 JSym2X= 0.
 Root      1 not converged, maximum delta is    0.000010896113600
 Root      2 not converged, maximum delta is    0.000016502659086
 Root      3 not converged, maximum delta is    0.000025809654357
 Excitation Energies [eV] at current iteration:
 Root      1 :     2.074146208969410   Change is   -0.000000012083732
 Root      2 :     2.979021033160691   Change is   -0.000000012555364
 Root      3 :     3.325595735709676   Change is   -0.000000010492941
 Iteration     4 Dimension    24 NMult    18 NNew      6
 CISAX will form     6 AO SS matrices at one time.
 NMat=     6 NSing=     6 JSym2X= 0.
 Root      1 not converged, maximum delta is    0.000003423265732
 Root      2 not converged, maximum delta is    0.000020397405473
 Root      3 not converged, maximum delta is    0.000020530152080
 Excitation Energies [eV] at current iteration:
 Root      1 :     2.074146208149058   Change is   -0.000000000820352
 Root      2 :     2.979021030029818   Change is   -0.000000003130873
 Root      3 :     3.325595734033290   Change is   -0.000000001676387
 Iteration     5 Dimension    30 NMult    24 NNew      6
 CISAX will form     6 AO SS matrices at one time.
 NMat=     6 NSing=     6 JSym2X= 0.
 Root      1 not converged, maximum delta is    0.000001024816403
 Root      2 not converged, maximum delta is    0.000005940887135
 Root      3 not converged, maximum delta is    0.000024600969378
 Excitation Energies [eV] at current iteration:
 Root      1 :     2.074146208050605   Change is   -0.000000000098452
 Root      2 :     2.979021029453210   Change is   -0.000000000576608
 Root      3 :     3.325595733123211   Change is   -0.000000000910078
 Iteration     6 Dimension    36 NMult    30 NNew      6
 CISAX will form     6 AO SS matrices at one time.
 NMat=     6 NSing=     6 JSym2X= 0.
 Root      1 has converged.
 Root      2 not converged, maximum delta is    0.000001485435992
 Root      3 not converged, maximum delta is    0.000033179102306
 Excitation Energies [eV] at current iteration:
 Root      1 :     2.074146208035981   Change is   -0.000000000014625
 Root      2 :     2.979021029365043   Change is   -0.000000000088168
 Root      3 :     3.325595732430295   Change is   -0.000000000692916
 Iteration     7 Dimension    40 NMult    36 NNew      4
 CISAX will form     4 AO SS matrices at one time.
 NMat=     4 NSing=     4 JSym2X= 0.
 Root      1 has converged.
 Root      2 has converged.
 Root      3 not converged, maximum delta is    0.000011674314723
 Excitation Energies [eV] at current iteration:
 Root      1 :     2.074146208035466   Change is   -0.000000000000515
 Root      2 :     2.979021029351273   Change is   -0.000000000013770
 Root      3 :     3.325595732209450   Change is   -0.000000000220845
 Iteration     8 Dimension    42 NMult    40 NNew      2
 CISAX will form     2 AO SS matrices at one time.
 NMat=     2 NSing=     2 JSym2X= 0.
 Root      1 has converged.
 Root      2 has converged.
 Root      3 not converged, maximum delta is    0.000004204108425
 Excitation Energies [eV] at current iteration:
 Root      1 :     2.074146208035426   Change is   -0.000000000000040
 Root      2 :     2.979021029349838   Change is   -0.000000000001435
 Root      3 :     3.325595732138109   Change is   -0.000000000071341
 Iteration     9 Dimension    44 NMult    42 NNew      2
 CISAX will form     2 AO SS matrices at one time.
 NMat=     2 NSing=     2 JSym2X= 0.
 Root      1 has converged.
 Root      2 has converged.
 Root      3 not converged, maximum delta is    0.000001558306220
 Excitation Energies [eV] at current iteration:
 Root      1 :     2.074146208035426   Change is    0.000000000000000
 Root      2 :     2.979021029349727   Change is   -0.000000000000110
 Root      3 :     3.325595732118383   Change is   -0.000000000019726
 Iteration    10 Dimension    46 NMult    44 NNew      2
 CISAX will form     2 AO SS matrices at one time.
 NMat=     2 NSing=     2 JSym2X= 0.
 Root      1 has converged.
 Root      2 has converged.
 Root      3 has converged.
 Excitation Energies [eV] at current iteration:
 Root      1 :     2.074146208035188   Change is   -0.000000000000238
 Root      2 :     2.979021029349617   Change is   -0.000000000000111
 Root      3 :     3.325595732114180   Change is   -0.000000000004202
 Convergence achieved on expansion vectors.
 ***********************************************************************
 Excited states from <AA,BB:AA,BB> singles matrix:
 ***********************************************************************
 
 1PDM for each excited state written to RWF  633
 Ground to excited state transition densities written to RWF  633
 Ground to excited state transition electric dipole moments (Au):
       state          X           Y           Z        Dip. S.      Osc.
         1        -2.7049      0.0874      0.0547      7.3271      0.3723
         2         0.1803     -0.3092     -0.0133      0.1283      0.0094
         3         0.0584      0.0344      0.0065      0.0046      0.0004
 Ground to excited state transition velocity dipole moments (Au):
       state          X           Y           Z        Dip. S.      Osc.
         1         0.2098     -0.0062     -0.0043      0.0441      0.3856
         2        -0.0218      0.0380      0.0021      0.0019      0.0117
         3        -0.0055     -0.0054     -0.0006      0.0001      0.0003
 Ground to excited state transition magnetic dipole moments (Au):
       state          X           Y           Z
         1        -0.0150     -0.1628     -0.0381
         2         0.0047      0.0395     -0.1040
         3        -0.0138     -0.0307     -0.1828
 Ground to excited state transition velocity quadrupole moments (Au):
       state          XX          YY          ZZ          XY          XZ          YZ
         1         0.0320      0.0087      0.0053     -0.1243     -0.0335      0.0194
         2        -1.9452      0.2059      0.0007      0.1904      0.0375      0.0516
         3         0.0040      0.0174     -0.0076     -0.0550     -0.0169      0.0042
 <0|del|b> * <b|rxdel|0> + <0|del|b> * <b|delr+rdel|0>
 Rotatory Strengths (R) in cgs (10**-40 erg-esu-cm/Gauss)
       state          XX          YY          ZZ    R(velocity)    E-M Angle
         1         6.9415      2.5195    -27.8854     -6.1414       93.23
         2         0.8376     -5.9665     12.7464      2.5391       76.03
         3         0.5990      0.3585      1.0311      0.6629       76.16
 1/2[<0|r|b>*<b|rxdel|0> + (<0|rxdel|b>*<b|r|0>)*]
 Rotatory Strengths (R) in cgs (10**-40 erg-esu-cm/Gauss)
       state          XX          YY          ZZ     R(length)
         1       -28.7735     10.0661      1.4732     -5.7447
         2        -0.6038      8.6342     -0.9813      2.3497
         3         0.5717      0.7478      0.8350      0.7182
  1/2[<0|del|b>*<b|r|0> + (<0|r|b>*<b|del|0>)*] (Au)
       state          X           Y           Z        Dip. S.   Osc.(frdel)
         1        -0.5676     -0.0005     -0.0002      0.5684      0.3789
         2        -0.0039     -0.0118     -0.0000      0.0157      0.0105
         3        -0.0003     -0.0002     -0.0000      0.0005      0.0003

 Excitation energies and oscillator strengths:
 
 Excited State   1:      Singlet-A      2.0741 eV  597.76 nm  f=0.3723  <S**2>=0.000
     118 ->119         0.70184
 This state for optimization and/or second-order correction.
 Total Energy, E(TD-HF/TD-DFT) =  -1682.51839411    
 Copying the excited state density for this state as the 1-particle RhoCI density.
 
 Excited State   2:      Singlet-A      2.9790 eV  416.19 nm  f=0.0094  <S**2>=0.000
     117 ->119        -0.69754
 
 Excited State   3:      Singlet-A      3.3256 eV  372.82 nm  f=0.0004  <S**2>=0.000
     113 ->119         0.17078
     116 ->119         0.67968
 SavETr:  write IOETrn=   770 NScale= 10 NData=  16 NLR=1 NState=    3 LETran=      64.
 The selected state is a singlet.
 CISGrd: IGrad=2 NXY=2 DFT=T
 CISAX will form     1 AO SS matrices at one time.
 NMat=     1 NSing=     1 JSym2X= 0.
 Leave Link  914 at Thu Mar 14 10:02:16 2024, MaxMem= 32212254720 cpu:            3579.7 elap:             119.4
 (Enter /home/<user>/g16/l1002.exe)
 Minotr:  Closed shell wavefunction.
          Computing CIS/TDA/TD derivatives.
          Using Z-Vector for PSCF gradient.
          Skipping F1 and S1 gradient terms here.
          IDoAtm=11111111111111111111111111111111111111111111111111
          IDoAtm=11111111
          Frozen-core window.
          Direct CPHF calculation.
          Differentiating once with respect to electric field.
                with respect to dipole field.
          Differentiating once with respect to nuclear coordinates.
          Requested convergence is 1.0D-10 RMS, and 1.0D-09 maximum.
          NewPWx=F KeepS1=T KeepF1=T KeepIn=T MapXYZ=F SortEE=F KeepMc=T.
 Two-electron integral symmetry used by symmetrizing perturbed Fock matrices.
          MDV=   32212254720 using IRadAn=       5.
          Solving linear equations separately, MaxMat=     360.
          There are     1 degrees of freedom in the 1st order CPHF.  IDoFFX=0 NUNeed=     1.
 FoFJK:  IHMeth= 1 ICntrl=       0 DoSepK=F KAlg= 0 I1Cent=           0 FoldK=F
 IRaf= 580000000 NMat=       1 IRICut=       1 DoRegI=T DoRafI=F ISym2E=-1 IDoP0=0 IntGTp=1.
 FoFCou: FMM=F IPFlag=           0 FMFlag=      100000 FMFlg1=           0
         NFxFlg=           0 DoJE=F BraDBF=F KetDBF=F FulRan=T
         wScrn=  0.000000 ICntrl=         0 IOpCl=  0 I1Cent=           0 NGrid=           0
         NMat0=    1 NMatS0=      1 NMatT0=    0 NMatD0=    1 NMtDS0=    0 NMtDT0=    0
 Petite list used in FoFCou.
 LinEq1:  Iter=  0 NonCon=     1 RMS=6.31D-03 Max=7.01D-01 NDo=     1
 AX will form     1 AO Fock derivatives at one time.
 LinEq1:  Iter=  1 NonCon=     1 RMS=3.83D-03 Max=5.23D-01 NDo=     1
 LinEq1:  Iter=  2 NonCon=     1 RMS=3.15D-03 Max=3.94D-01 NDo=     1
 LinEq1:  Iter=  3 NonCon=     1 RMS=2.91D-03 Max=2.35D-01 NDo=     1
 LinEq1:  Iter=  4 NonCon=     1 RMS=2.66D-03 Max=2.03D-01 NDo=     1
 LinEq1:  Iter=  5 NonCon=     1 RMS=1.73D-03 Max=9.70D-02 NDo=     1
 LinEq1:  Iter=  6 NonCon=     1 RMS=1.13D-03 Max=5.21D-02 NDo=     1
 LinEq1:  Iter=  7 NonCon=     1 RMS=7.93D-04 Max=3.14D-02 NDo=     1
 LinEq1:  Iter=  8 NonCon=     1 RMS=5.79D-04 Max=3.44D-02 NDo=     1
 LinEq1:  Iter=  9 NonCon=     1 RMS=4.24D-04 Max=2.09D-02 NDo=     1
 LinEq1:  Iter= 10 NonCon=     1 RMS=2.69D-04 Max=1.26D-02 NDo=     1
 LinEq1:  Iter= 11 NonCon=     1 RMS=1.74D-04 Max=7.60D-03 NDo=     1
 LinEq1:  Iter= 12 NonCon=     1 RMS=1.15D-04 Max=6.39D-03 NDo=     1
 LinEq1:  Iter= 13 NonCon=     1 RMS=8.54D-05 Max=4.42D-03 NDo=     1
 LinEq1:  Iter= 14 NonCon=     1 RMS=5.62D-05 Max=2.09D-03 NDo=     1
 LinEq1:  Iter= 15 NonCon=     1 RMS=3.77D-05 Max=2.40D-03 NDo=     1
 LinEq1:  Iter= 16 NonCon=     1 RMS=1.86D-05 Max=1.24D-03 NDo=     1
 LinEq1:  Iter= 17 NonCon=     1 RMS=1.21D-05 Max=5.00D-04 NDo=     1
 LinEq1:  Iter= 18 NonCon=     1 RMS=6.88D-06 Max=4.20D-04 NDo=     1
 LinEq1:  Iter= 19 NonCon=     1 RMS=3.68D-06 Max=2.18D-04 NDo=     1
 LinEq1:  Iter= 20 NonCon=     1 RMS=2.00D-06 Max=9.80D-05 NDo=     1
 LinEq1:  Iter= 21 NonCon=     1 RMS=1.42D-06 Max=5.85D-05 NDo=     1
 LinEq1:  Iter= 22 NonCon=     1 RMS=7.81D-07 Max=3.89D-05 NDo=     1
 LinEq1:  Iter= 23 NonCon=     1 RMS=4.66D-07 Max=1.98D-05 NDo=     1
 LinEq1:  Iter= 24 NonCon=     1 RMS=2.49D-07 Max=1.09D-05 NDo=     1
 LinEq1:  Iter= 25 NonCon=     1 RMS=1.62D-07 Max=5.76D-06 NDo=     1
 LinEq1:  Iter= 26 NonCon=     1 RMS=7.38D-08 Max=3.04D-06 NDo=     1
 LinEq1:  Iter= 27 NonCon=     1 RMS=4.13D-08 Max=1.69D-06 NDo=     1
 LinEq1:  Iter= 28 NonCon=     1 RMS=2.13D-08 Max=6.83D-07 NDo=     1
 LinEq1:  Iter= 29 NonCon=     1 RMS=9.46D-09 Max=4.04D-07 NDo=     1
 LinEq1:  Iter= 30 NonCon=     1 RMS=5.48D-09 Max=2.42D-07 NDo=     1
 LinEq1:  Iter= 31 NonCon=     1 RMS=2.96D-09 Max=1.10D-07 NDo=     1
 LinEq1:  Iter= 32 NonCon=     1 RMS=1.61D-09 Max=6.27D-08 NDo=     1
 LinEq1:  Iter= 33 NonCon=     1 RMS=9.27D-10 Max=3.96D-08 NDo=     1
 LinEq1:  Iter= 34 NonCon=     1 RMS=5.13D-10 Max=1.96D-08 NDo=     1
 LinEq1:  Iter= 35 NonCon=     1 RMS=2.91D-10 Max=1.22D-08 NDo=     1
 LinEq1:  Iter= 36 NonCon=     1 RMS=1.33D-10 Max=4.48D-09 NDo=     1
 LinEq1:  Iter= 37 NonCon=     1 RMS=6.78D-11 Max=2.08D-09 NDo=     1
 LinEq1:  Iter= 38 NonCon=     0 RMS=2.71D-11 Max=7.08D-10 NDo=     1
 Linear equations converged to 1.000D-10 1.000D-09 after    38 iterations.
 End of Minotr F.D. properties file   721 does not exist.
 End of Minotr F.D. properties file   722 does not exist.
 End of Minotr F.D. properties file   788 does not exist.
 Leave Link 1002 at Thu Mar 14 10:03:53 2024, MaxMem= 32212254720 cpu:            2872.7 elap:              96.8
 (Enter /home/<user>/g16/l701.exe)
 ... and contract with generalized density number  6.
 Compute integral first derivatives.
 Leave Link  701 at Thu Mar 14 10:03:53 2024, MaxMem= 32212254720 cpu:               6.3 elap:               0.2
 (Enter /home/<user>/g16/l702.exe)
 L702 exits ... SP integral derivatives will be done elsewhere.
 Leave Link  702 at Thu Mar 14 10:03:53 2024, MaxMem= 32212254720 cpu:               0.8 elap:               0.0
 (Enter /home/<user>/g16/l703.exe)
 Integral derivatives from FoFJK, PRISM(SPDF).
 Compute integral first derivatives, UseDBF=F ICtDFT=           0.
 Calling FoFJK, ICntrl=  10005127 FMM=F ISym2X=0 I1Cent= 0 IOpClX= 0 NMat=1 NMatS=1 NMatT=0.
 FoFJK:  IHMeth= 1 ICntrl=10005127 DoSepK=F KAlg= 0 I1Cent=           0 FoldK=F
 IRaf=         0 NMat=       1 IRICut=       1 DoRegI=T DoRafI=F ISym2E= 0 IDoP0=0 IntGTp=1.
 FoFCou: FMM=F IPFlag=           0 FMFlag=      100000 FMFlg1=         800
         NFxFlg=           0 DoJE=F BraDBF=F KetDBF=F FulRan=T
         wScrn=  0.000000 ICntrl=  10005127 IOpCl=  0 I1Cent=           0 NGrid=           0
         NMat0=    1 NMatS0=      1 NMatT0=    0 NMatD0=    1 NMtDS0=    0 NMtDT0=    0
 Symmetry not used in FoFCou.
 Leave Link  703 at Thu Mar 14 10:04:01 2024, MaxMem= 32212254720 cpu:             244.7 elap:               8.2
 (Enter /home/<user>/g16/l716.exe)
 Dipole        =-1.96092090D+00-1.72665272D+00-8.64460202D-02
 ***** Axes restored to original set *****
 -------------------------------------------------------------------
 Center     Atomic                   Forces (Hartrees/Bohr)
 Number     Number              X              Y              Z
 -------------------------------------------------------------------
      1        6           0.000012748   -0.000003651    0.000000910
      2        6          -0.000009588   -0.000005546    0.000002932
      3        6           0.000016660    0.000005116   -0.000001507
      4        6          -0.000005653    0.000001482   -0.000000229
      5        6           0.000007309    0.000002787   -0.000001438
      6        6          -0.000006699   -0.000000154   -0.000001195
      7        1          -0.000001330   -0.000000176    0.000000544
      8        1          -0.000001659   -0.000002066    0.000002152
      9        1          -0.000001018    0.000000092    0.000001116
     10        6          -0.000000181   -0.000000551    0.000001430
     11        6           0.000003556    0.000001653   -0.000000791
     12        6          -0.000002398   -0.000001967    0.000000519
     13        6          -0.000001554   -0.000000976    0.000000271
     14        6          -0.000001738   -0.000000224    0.000000213
     15        6           0.000002179   -0.000001600    0.000000600
     16        6          -0.000008435    0.000002513    0.000000591
     17        1           0.000000059    0.000000239   -0.000000173
     18        1          -0.000000522   -0.000000346    0.000000218
     19        1           0.000000095   -0.000000683    0.000000278
     20        1           0.000000629   -0.000000628    0.000000076
     21        6           0.000000487   -0.000000913   -0.000000572
     22        1           0.000000232    0.000000326   -0.000000988
     23        1          -0.000000329    0.000000049   -0.000000764
     24        1          -0.000000110    0.000000221   -0.000000013
     25        6           0.000000097   -0.000001775   -0.000000655
     26        1          -0.000000265    0.000001028    0.000000400
     27        1           0.000000094    0.000000877    0.000000318
     28        1          -0.000000059    0.000000413   -0.000000058
     29        6          -0.000008495    0.000002539   -0.000003871
     30        6           0.000003851   -0.000011483    0.000002562
     31        6           0.000005038   -0.000000623   -0.000000724
     32        6          -0.000003269   -0.000003658    0.000000923
     33        6          -0.000001829    0.000004876   -0.000000994
     34        1          -0.000000257   -0.000002445   -0.000000695
     35        6           0.000005461    0.000002011   -0.000001089
     36        1           0.000001424   -0.000004375   -0.000000636
     37        7           0.000006278    0.000010243   -0.000000227
     38        7           0.000000318    0.000003988   -0.000000457
     39       16          -0.000003407    0.000000583    0.000000565
     40        6           0.000009008   -0.000005447    0.000006384
     41        6          -0.000010489   -0.000004177    0.000000426
     42        6          -0.000014534    0.000009487   -0.000003970
     43        6           0.000004130    0.000001561    0.000000614
     44        1          -0.000000030    0.000001757   -0.000000828
     45        6           0.000005222    0.000001663   -0.000002401
     46        1          -0.000000522   -0.000002856    0.000001092
     47        6           0.000001312   -0.000003203    0.000001359
     48        1          -0.000000265    0.000001343    0.000000788
     49        1          -0.000001385   -0.000000450   -0.000000346
     50        6          -0.000001477   -0.000000360   -0.000002272
     51        1          -0.000000404    0.000000711    0.000001638
     52        1           0.000000472   -0.000001085   -0.000001388
     53        6           0.000000537    0.000000864    0.000001084
     54        1           0.000000143    0.000000276   -0.000001202
     55        1           0.000000641    0.000001392    0.000000226
     56        7           0.000000510    0.000003332   -0.000002553
     57        1           0.000000282    0.000000511    0.000001911
     58        1          -0.000000871   -0.000002515   -0.000000104
 -------------------------------------------------------------------
 Cartesian Forces:  Max     0.000016660 RMS     0.000003556
 Leave Link  716 at Thu Mar 14 10:04:02 2024, MaxMem= 32212254720 cpu:               1.6 elap:               0.1
 (Enter /home/<user>/g16/l103.exe)

 GradGradGradGradGradGradGradGradGradGradGradGradGradGradGradGradGradGrad
 Berny optimization.
 Using GEDIIS/GDIIS optimizer.
 FormGI is forming the generalized inverse of G from B-inverse, IUseBI=4.
 Internal  Forces:  Max     0.000011080 RMS     0.000001916
 Search for a local minimum.
 Step number  10 out of a maximum of  346
 All quantities printed in internal units (Hartrees-Bohrs-Radians)
 RMS Force = .19156D-05 SwitMx=.10000D-02 MixMth= 2
 Mixed Optimization -- En-DIIS/RFO-DIIS
 Swapping is turned off.
 Update second derivatives using D2CorX and points    2    3    4    5    6
                                                      7    8    9   10
 DE= -1.72D-08 DEPred=-3.56D-08 R= 4.84D-01
 Trust test= 4.84D-01 RLast= 2.48D-03 DXMaxT set to 8.00D-01
 ITU=  0  0  1  0  1  1  1  1  1  0
     Eigenvalues ---    0.00230   0.00230   0.00249   0.00392   0.00705
     Eigenvalues ---    0.00756   0.00862   0.01095   0.01252   0.01453
     Eigenvalues ---    0.01474   0.01600   0.01627   0.01644   0.01657
     Eigenvalues ---    0.01690   0.01732   0.01736   0.01838   0.01865
     Eigenvalues ---    0.01887   0.01973   0.02029   0.02048   0.02057
     Eigenvalues ---    0.02076   0.02089   0.02093   0.02094   0.02103
     Eigenvalues ---    0.02112   0.02119   0.02125   0.02125   0.02134
     Eigenvalues ---    0.02140   0.02146   0.02148   0.02152   0.02161
     Eigenvalues ---    0.02162   0.02168   0.02260   0.02346   0.04058
     Eigenvalues ---    0.04285   0.04378   0.04457   0.05419   0.05423
     Eigenvalues ---    0.05438   0.05511   0.05512   0.05561   0.05995
     Eigenvalues ---    0.08049   0.08950   0.09249   0.11581   0.12598
     Eigenvalues ---    0.12808   0.14234   0.15534   0.15941   0.15976
     Eigenvalues ---    0.15997   0.15999   0.16000   0.16000   0.16000
     Eigenvalues ---    0.16000   0.16000   0.16000   0.16000   0.16000
     Eigenvalues ---    0.16000   0.16001   0.16006   0.16012   0.16025
     Eigenvalues ---    0.16064   0.16215   0.19047   0.21385   0.21918
     Eigenvalues ---    0.21948   0.22026   0.22046   0.22403   0.22539
     Eigenvalues ---    0.22620   0.22997   0.23373   0.23967   0.24203
     Eigenvalues ---    0.24615   0.24651   0.24869   0.24985   0.24994
     Eigenvalues ---    0.25017   0.25062   0.26432   0.28054   0.28109
     Eigenvalues ---    0.28473   0.28616   0.29007   0.31155   0.33127
     Eigenvalues ---    0.33772   0.33881   0.34012   0.34085   0.34094
     Eigenvalues ---    0.34100   0.34105   0.34112   0.34276   0.34287
     Eigenvalues ---    0.34461   0.34694   0.35021   0.35049   0.35051
     Eigenvalues ---    0.35086   0.35116   0.35154   0.35165   0.35188
     Eigenvalues ---    0.35193   0.35200   0.35264   0.35514   0.35703
     Eigenvalues ---    0.36109   0.36345   0.36889   0.37124   0.37924
     Eigenvalues ---    0.38180   0.40663   0.41430   0.41484   0.42040
     Eigenvalues ---    0.42319   0.42593   0.43250   0.43671   0.44351
     Eigenvalues ---    0.44508   0.44615   0.44839   0.44971   0.45742
     Eigenvalues ---    0.45791   0.45903   0.46159   0.46176   0.46328
     Eigenvalues ---    0.47033   0.47106   0.48073   0.48739   0.53977
     Eigenvalues ---    0.54601   0.64027   0.66626
 En-DIIS/RFO-DIIS/Sim-DIIS IScMMF=       -3 using points:    10    9    8    7    6    5    4    3
 RFO step:  Lambda=-3.62700395D-09.
 NNeg= 0 NGDIIS= 8 SimSw=  2.50D-01 Rises=F DC= -1.72D-08 SmlDif=  1.00D-05
 NRisDI= 0 DoIntr=F SqrtH=F CThrHd= 10.0 CDAdj=  3.0
 RMS Error=  0.7627080148D-04 NUsed= 8 OKEnD=F EnDIS=F
 InvSVX:  RCond= 3.16D-08 Info=           0 Equed=N FErr=  5.01D-14 BErr=  7.81D-17
 DIIS inversion failure, remove point   8.
 InvSVX:  RCond= 5.33D-08 Info=           0 Equed=N FErr=  3.21D-14 BErr=  7.96D-17
 DIIS inversion failure, remove point   7.
 InvSVX:  RCond= 6.37D-08 Info=           0 Equed=N FErr=  2.60D-14 BErr=  7.53D-17
 DIIS inversion failure, remove point   6.
 InvSVX:  RCond= 7.77D-08 Info=           0 Equed=N FErr=  2.22D-14 BErr=  1.09D-16
 DIIS inversion failure, remove point   5.
 InvSVX:  RCond= 1.09D-07 Info=           0 Equed=N FErr=  1.65D-14 BErr=  4.48D-17
 RFO-DIIS uses    4 points instead of    8
 DidBck=F Rises=F RFO-DIIS coefs:    1.44282   -0.38792   -0.05803    0.00313    0.00000
                  RFO-DIIS coefs:    0.00000    0.00000    0.00000
 Iteration  1 RMS(Cart)=  0.00017970 RMS(Int)=  0.00000002
 Iteration  2 RMS(Cart)=  0.00000003 RMS(Int)=  0.00000000
 ITry= 1 IFail=0 DXMaxC= 1.17D-03 DCOld= 1.00D+10 DXMaxT= 8.00D-01 DXLimC= 3.00D+00 Rises=F
 Variable       Old X    -DE/DX   Delta X   Delta X   Delta X     New X
                                 (Linear)    (Quad)   (Total)
    R1        2.70132  -0.00000   0.00002  -0.00002  -0.00000   2.70132
    R2        2.61459   0.00001  -0.00002   0.00003   0.00001   2.61460
    R3        2.04322  -0.00000   0.00001  -0.00001  -0.00000   2.04322
    R4        2.69898  -0.00001   0.00004  -0.00005  -0.00001   2.69898
    R5        2.75543  -0.00000   0.00001  -0.00002  -0.00000   2.75542
    R6        2.60036   0.00001  -0.00003   0.00004   0.00001   2.60037
    R7        2.04943   0.00000  -0.00000   0.00001   0.00000   2.04943
    R8        2.68319   0.00000   0.00001  -0.00000   0.00001   2.68320
    R9        2.88964   0.00000   0.00000  -0.00000  -0.00000   2.88964
   R10        2.65271  -0.00000   0.00001  -0.00001  -0.00000   2.65271
   R11        2.73912   0.00001  -0.00005   0.00005   0.00001   2.73913
   R12        2.05357   0.00000   0.00000  -0.00000   0.00000   2.05357
   R13        2.88701   0.00000   0.00000  -0.00000  -0.00000   2.88701
   R14        2.92077  -0.00000   0.00000  -0.00001  -0.00001   2.92076
   R15        2.92018  -0.00000   0.00001  -0.00001  -0.00000   2.92018
   R16        2.62317   0.00000  -0.00001   0.00002   0.00000   2.62318
   R17        2.67764  -0.00000   0.00002  -0.00001   0.00000   2.67765
   R18        2.64763   0.00000   0.00000  -0.00000   0.00000   2.64763
   R19        2.05433  -0.00000   0.00000  -0.00000  -0.00000   2.05433
   R20        2.65133   0.00000   0.00000  -0.00000   0.00000   2.65134
   R21        2.05322   0.00000  -0.00000   0.00000   0.00000   2.05322
   R22        2.63011   0.00000  -0.00001   0.00002   0.00000   2.63012
   R23        2.05276  -0.00000   0.00000  -0.00000  -0.00000   2.05276
   R24        2.65173  -0.00000   0.00002  -0.00002   0.00000   2.65173
   R25        2.05305  -0.00000   0.00000  -0.00000  -0.00000   2.05305
   R26        2.07116  -0.00000   0.00000  -0.00000  -0.00000   2.07116
   R27        2.07071  -0.00000   0.00000  -0.00000  -0.00000   2.07071
   R28        2.06827   0.00000   0.00000   0.00000   0.00000   2.06827
   R29        2.07084  -0.00000   0.00000  -0.00000  -0.00000   2.07083
   R30        2.07111  -0.00000   0.00000  -0.00000  -0.00000   2.07111
   R31        2.06847   0.00000   0.00000  -0.00000   0.00000   2.06847
   R32        2.71923   0.00000  -0.00006   0.00005  -0.00001   2.71922
   R33        2.68432   0.00000   0.00005  -0.00003   0.00002   2.68434
   R34        2.72606  -0.00000   0.00005  -0.00004   0.00001   2.72607
   R35        2.55434   0.00001   0.00001   0.00000   0.00002   2.55435
   R36        2.61157  -0.00000  -0.00005   0.00003  -0.00001   2.61156
   R37        2.04838   0.00000  -0.00001   0.00002   0.00000   2.04838
   R38        2.72230  -0.00000  -0.00005   0.00003  -0.00002   2.72228
   R39        2.55148   0.00000   0.00001   0.00000   0.00001   2.55149
   R40        2.67928  -0.00000   0.00005  -0.00003   0.00001   2.67930
   R41        2.04801   0.00000  -0.00002   0.00002   0.00001   2.04802
   R42        2.76317  -0.00001   0.00002  -0.00004  -0.00002   2.76315
   R43        3.18588  -0.00000  -0.00010   0.00004  -0.00006   3.18582
   R44        3.17904  -0.00000  -0.00007   0.00003  -0.00004   3.17900
   R45        2.67942  -0.00001   0.00001  -0.00002  -0.00001   2.67941
   R46        2.68204  -0.00001   0.00003  -0.00004  -0.00002   2.68202
   R47        2.62319   0.00000  -0.00001   0.00001   0.00000   2.62319
   R48        2.04360   0.00000   0.00000   0.00000   0.00000   2.04360
   R49        2.61855   0.00001  -0.00001   0.00002   0.00001   2.61856
   R50        2.04982   0.00000  -0.00001   0.00001   0.00001   2.04983
   R51        2.65265   0.00000   0.00001  -0.00000   0.00000   2.65265
   R52        2.05605   0.00000   0.00000   0.00000   0.00000   2.05605
   R53        2.65673   0.00000  -0.00000   0.00001   0.00000   2.65674
   R54        2.05579   0.00000  -0.00000   0.00000  -0.00000   2.05579
   R55        2.85015  -0.00000  -0.00000  -0.00000  -0.00000   2.85015
   R56        2.07101  -0.00000  -0.00000  -0.00000  -0.00000   2.07100
   R57        2.07652   0.00000   0.00000  -0.00000   0.00000   2.07652
   R58        2.91340   0.00000   0.00001  -0.00000   0.00001   2.91341
   R59        2.08731  -0.00000  -0.00000   0.00000  -0.00000   2.08731
   R60        2.07250  -0.00000  -0.00000  -0.00000  -0.00000   2.07250
   R61        2.77034  -0.00000  -0.00001   0.00000  -0.00000   2.77033
   R62        1.92707  -0.00000  -0.00000   0.00000  -0.00000   1.92707
   R63        1.92527  -0.00000  -0.00000   0.00000  -0.00000   1.92526
    A1        2.12385   0.00000   0.00000  -0.00000   0.00000   2.12385
    A2        2.05831   0.00000  -0.00002   0.00002   0.00000   2.05831
    A3        2.10099  -0.00000   0.00001  -0.00002  -0.00000   2.10099
    A4        2.05210   0.00000  -0.00003   0.00003   0.00000   2.05210
    A5        2.12658  -0.00001   0.00002  -0.00003  -0.00001   2.12657
    A6        2.10447   0.00000   0.00001  -0.00000   0.00001   2.10449
    A7        2.10684  -0.00000   0.00003  -0.00003  -0.00001   2.10684
    A8        2.08775   0.00000  -0.00003   0.00004   0.00001   2.08776
    A9        2.08779  -0.00000   0.00000  -0.00001  -0.00001   2.08779
   A10        2.10413   0.00000  -0.00001   0.00002   0.00001   2.10414
   A11        2.24720  -0.00000   0.00002  -0.00002  -0.00000   2.24720
   A12        1.93183  -0.00000  -0.00001   0.00000  -0.00001   1.93183
   A13        2.09225  -0.00000  -0.00001   0.00000  -0.00001   2.09224
   A14        1.89826  -0.00000   0.00001  -0.00001   0.00000   1.89826
   A15        2.29264   0.00000  -0.00000   0.00001   0.00000   2.29264
   A16        2.08700  -0.00000   0.00002  -0.00002  -0.00000   2.08700
   A17        2.08950   0.00000   0.00001   0.00000   0.00001   2.08951
   A18        2.10668  -0.00000  -0.00002   0.00001  -0.00001   2.10667
   A19        1.76243   0.00000   0.00000   0.00001   0.00001   1.76244
   A20        1.94482  -0.00000   0.00001  -0.00001   0.00000   1.94482
   A21        1.94559  -0.00000  -0.00001   0.00001  -0.00001   1.94559
   A22        1.94263  -0.00000   0.00001  -0.00000   0.00000   1.94263
   A23        1.94373  -0.00000  -0.00001   0.00000  -0.00001   1.94372
   A24        1.92038   0.00000   0.00000  -0.00000  -0.00000   1.92038
   A25        2.25095  -0.00000   0.00001  -0.00001  -0.00000   2.25095
   A26        1.93656   0.00000  -0.00001   0.00001  -0.00000   1.93656
   A27        2.09567   0.00000  -0.00000   0.00000   0.00000   2.09567
   A28        2.07848   0.00000  -0.00000   0.00000   0.00000   2.07849
   A29        2.11157  -0.00000   0.00000  -0.00000   0.00000   2.11157
   A30        2.09313  -0.00000  -0.00000   0.00000  -0.00000   2.09313
   A31        2.10959  -0.00000   0.00001  -0.00001  -0.00000   2.10959
   A32        2.08739   0.00000  -0.00000   0.00001   0.00000   2.08739
   A33        2.08620   0.00000  -0.00000   0.00000   0.00000   2.08621
   A34        2.10365   0.00000  -0.00000   0.00000   0.00000   2.10365
   A35        2.08760  -0.00000  -0.00000  -0.00000  -0.00000   2.08760
   A36        2.09193   0.00000   0.00001  -0.00000   0.00000   2.09193
   A37        2.07237   0.00000  -0.00000   0.00000   0.00000   2.07237
   A38        2.10382   0.00000   0.00001  -0.00000   0.00000   2.10382
   A39        2.10699  -0.00000  -0.00001  -0.00000  -0.00001   2.10699
   A40        1.89564  -0.00000   0.00001  -0.00001  -0.00000   1.89564
   A41        2.28094   0.00000  -0.00000   0.00001   0.00001   2.28095
   A42        2.10660  -0.00000  -0.00000  -0.00000  -0.00001   2.10660
   A43        1.93093  -0.00000   0.00001  -0.00001  -0.00000   1.93092
   A44        1.92996  -0.00000   0.00000  -0.00000  -0.00000   1.92996
   A45        1.94105  -0.00000  -0.00000   0.00000   0.00000   1.94105
   A46        1.88247   0.00000  -0.00000   0.00000   0.00000   1.88247
   A47        1.88967   0.00000  -0.00000   0.00001   0.00000   1.88967
   A48        1.88797   0.00000  -0.00000   0.00001   0.00000   1.88797
   A49        1.92954  -0.00000   0.00000  -0.00001  -0.00001   1.92953
   A50        1.93150  -0.00000   0.00000  -0.00001  -0.00000   1.93149
   A51        1.94137  -0.00000  -0.00000   0.00000  -0.00000   1.94137
   A52        1.88190   0.00000  -0.00000   0.00001   0.00001   1.88191
   A53        1.88839   0.00000  -0.00000   0.00000   0.00000   1.88840
   A54        1.88932   0.00000  -0.00000   0.00000   0.00000   1.88932
   A55        2.16106  -0.00000   0.00002  -0.00002  -0.00000   2.16106
   A56        2.08718   0.00000  -0.00003   0.00004   0.00001   2.08719
   A57        2.03492  -0.00000   0.00001  -0.00001  -0.00001   2.03491
   A58        2.10424   0.00000  -0.00001   0.00001   0.00001   2.10425
   A59        2.18089   0.00000   0.00004  -0.00001   0.00003   2.18092
   A60        1.99747  -0.00000  -0.00003  -0.00000  -0.00003   1.99743
   A61        2.14363  -0.00000  -0.00000   0.00000  -0.00000   2.14363
   A62        2.08096   0.00000  -0.00004   0.00004  -0.00000   2.08096
   A63        2.05677  -0.00000   0.00005  -0.00004   0.00001   2.05677
   A64        2.10927  -0.00000   0.00000  -0.00001  -0.00000   2.10926
   A65        1.99992   0.00000  -0.00001   0.00000  -0.00001   1.99991
   A66        2.17351   0.00000   0.00001   0.00000   0.00001   2.17352
   A67        2.13749   0.00000  -0.00001   0.00001  -0.00000   2.13748
   A68        2.06373  -0.00000   0.00005  -0.00004   0.00001   2.06375
   A69        2.08049   0.00000  -0.00005   0.00004  -0.00001   2.08048
   A70        2.03596   0.00000   0.00001  -0.00000   0.00001   2.03597
   A71        2.15633  -0.00000  -0.00001   0.00001  -0.00000   2.15632
   A72        2.09088  -0.00000   0.00000  -0.00001  -0.00000   2.09088
   A73        1.84775   0.00000   0.00001   0.00002   0.00003   1.84778
   A74        1.84925   0.00000  -0.00001   0.00002   0.00001   1.84926
   A75        1.73022  -0.00000   0.00004  -0.00004  -0.00000   1.73022
   A76        2.13746  -0.00001   0.00000  -0.00001  -0.00001   2.13745
   A77        2.10559  -0.00000   0.00002  -0.00002  -0.00000   2.10559
   A78        2.04002   0.00001  -0.00002   0.00004   0.00001   2.04003
   A79        2.11148  -0.00000   0.00000  -0.00000  -0.00000   2.11147
   A80        2.07244   0.00000  -0.00001   0.00001   0.00000   2.07244
   A81        2.09927  -0.00000   0.00001  -0.00001  -0.00000   2.09927
   A82        2.12135  -0.00000   0.00002  -0.00003  -0.00001   2.12134
   A83        2.09043   0.00000  -0.00002   0.00003   0.00001   2.09044
   A84        2.07067   0.00000   0.00000   0.00000   0.00000   2.07068
   A85        2.12501  -0.00000   0.00001  -0.00001  -0.00000   2.12500
   A86        2.07750   0.00000   0.00001  -0.00001   0.00000   2.07750
   A87        2.08068   0.00000  -0.00001   0.00002   0.00000   2.08068
   A88        2.11562   0.00000  -0.00001   0.00001   0.00000   2.11562
   A89        2.08494  -0.00000   0.00002  -0.00002  -0.00001   2.08493
   A90        2.08263   0.00000  -0.00001   0.00001   0.00000   2.08263
   A91        2.05272  -0.00000  -0.00000  -0.00000  -0.00000   2.05272
   A92        2.11875  -0.00000  -0.00001  -0.00001  -0.00001   2.11873
   A93        2.11101   0.00000   0.00001   0.00001   0.00002   2.11102
   A94        1.93366   0.00000   0.00001  -0.00001   0.00000   1.93366
   A95        1.91533   0.00000   0.00001  -0.00000   0.00001   1.91534
   A96        1.96524  -0.00000  -0.00000  -0.00000  -0.00001   1.96524
   A97        1.86735  -0.00000  -0.00000   0.00000  -0.00000   1.86735
   A98        1.88270   0.00000  -0.00000   0.00001   0.00000   1.88270
   A99        1.89648  -0.00000  -0.00001   0.00000  -0.00001   1.89646
   A100       1.89917  -0.00000  -0.00001   0.00001  -0.00000   1.89917
   A101       1.90042  -0.00000   0.00000  -0.00000  -0.00000   1.90042
   A102       1.92111   0.00000   0.00001   0.00000   0.00001   1.92112
   A103       1.85951   0.00000  -0.00000  -0.00000  -0.00000   1.85951
   A104       1.99776  -0.00000  -0.00000   0.00000  -0.00000   1.99776
   A105       1.88297  -0.00000   0.00000  -0.00000  -0.00000   1.88297
   A106       1.91252   0.00000   0.00002  -0.00000   0.00002   1.91254
   A107       1.91454  -0.00000   0.00001  -0.00000   0.00000   1.91454
   A108       1.84854   0.00000   0.00001  -0.00000   0.00001   1.84855
    D1       -0.02144  -0.00000   0.00005  -0.00005  -0.00000  -0.02144
    D2        3.11295  -0.00000   0.00003  -0.00002   0.00001   3.11296
    D3        3.11085  -0.00000   0.00005  -0.00005  -0.00000   3.11084
    D4       -0.03795  -0.00000   0.00004  -0.00003   0.00001  -0.03794
    D5        0.01491   0.00000  -0.00002   0.00003   0.00000   0.01491
    D6       -3.13007  -0.00000   0.00001  -0.00003  -0.00001  -3.13008
    D7       -3.11715   0.00000  -0.00003   0.00003   0.00000  -3.11715
    D8        0.02106  -0.00000   0.00001  -0.00002  -0.00001   0.02104
    D9        0.01176   0.00000  -0.00004   0.00004   0.00001   0.01177
   D10       -3.08673   0.00000  -0.00004   0.00006   0.00002  -3.08671
   D11       -3.12272   0.00000  -0.00003   0.00002  -0.00001  -3.12273
   D12        0.06197   0.00000  -0.00003   0.00004   0.00001   0.06197
   D13        0.34546   0.00000  -0.00010   0.00013   0.00004   0.34550
   D14       -2.78745   0.00000  -0.00011   0.00011   0.00000  -2.78745
   D15       -2.80355   0.00000  -0.00011   0.00016   0.00005  -2.80349
   D16        0.34673   0.00000  -0.00012   0.00014   0.00002   0.34674
   D17        0.00398  -0.00000   0.00000  -0.00001  -0.00001   0.00397
   D18       -3.12917  -0.00000   0.00002  -0.00002  -0.00001  -3.12917
   D19        3.10247  -0.00000   0.00001  -0.00003  -0.00002   3.10245
   D20       -0.03067  -0.00000   0.00002  -0.00004  -0.00002  -0.03069
   D21       -0.01099  -0.00000   0.00002  -0.00001   0.00001  -0.01098
   D22        3.13951   0.00000   0.00002   0.00000   0.00002   3.13953
   D23        3.12356  -0.00000   0.00001  -0.00001   0.00001   3.12357
   D24       -0.00912   0.00000   0.00001   0.00001   0.00002  -0.00910
   D25       -3.14020  -0.00000  -0.00002   0.00000  -0.00002  -3.14022
   D26        1.07866  -0.00000  -0.00004   0.00000  -0.00003   1.07862
   D27       -1.07427  -0.00000  -0.00004   0.00001  -0.00003  -1.07429
   D28        0.00917  -0.00000  -0.00001  -0.00001  -0.00002   0.00915
   D29       -2.05516  -0.00000  -0.00003  -0.00000  -0.00003  -2.05519
   D30        2.07510  -0.00000  -0.00003   0.00000  -0.00002   2.07508
   D31        0.00153   0.00000  -0.00001   0.00001  -0.00001   0.00153
   D32       -3.13664   0.00000  -0.00005   0.00006   0.00001  -3.13663
   D33        3.13188  -0.00000  -0.00001  -0.00001  -0.00002   3.13186
   D34       -0.00629   0.00000  -0.00004   0.00004  -0.00000  -0.00629
   D35        0.00492  -0.00000  -0.00000  -0.00001  -0.00001   0.00492
   D36       -3.13682   0.00000  -0.00001   0.00001  -0.00001  -3.13682
   D37       -3.12638   0.00000  -0.00000   0.00001   0.00001  -3.12637
   D38        0.01507   0.00000  -0.00001   0.00002   0.00001   0.01508
   D39        3.13626  -0.00000   0.00002  -0.00001   0.00001   3.13627
   D40       -0.00613  -0.00000   0.00001   0.00000   0.00001  -0.00611
   D41       -1.08100   0.00000   0.00003  -0.00001   0.00002  -1.08098
   D42        2.05979   0.00000   0.00003  -0.00000   0.00002   2.05982
   D43        1.06898  -0.00000   0.00003  -0.00002   0.00002   1.06899
   D44       -2.07341  -0.00000   0.00003  -0.00001   0.00002  -2.07339
   D45        3.07511   0.00000   0.00001  -0.00001   0.00000   3.07512
   D46       -1.12360   0.00000   0.00001  -0.00001   0.00000  -1.12360
   D47        0.97436   0.00000   0.00001  -0.00000   0.00000   0.97437
   D48        1.12241  -0.00000  -0.00000  -0.00001  -0.00001   1.12240
   D49       -3.07630  -0.00000   0.00000  -0.00002  -0.00001  -3.07631
   D50       -0.97834  -0.00000  -0.00000  -0.00001  -0.00001  -0.97835
   D51       -1.04086   0.00000   0.00000  -0.00001  -0.00000  -1.04086
   D52        1.04361  -0.00000   0.00001  -0.00001  -0.00001   1.04361
   D53        3.14157   0.00000   0.00000  -0.00000  -0.00000   3.14157
   D54        1.12440  -0.00000   0.00000  -0.00001  -0.00001   1.12440
   D55       -3.07493  -0.00000   0.00001  -0.00001  -0.00001  -3.07493
   D56       -0.97402  -0.00000   0.00001  -0.00001  -0.00001  -0.97403
   D57        3.07819   0.00000  -0.00000   0.00000  -0.00000   3.07818
   D58       -1.12114   0.00000  -0.00000  -0.00000  -0.00000  -1.12114
   D59        0.97976   0.00000  -0.00000  -0.00000  -0.00000   0.97976
   D60       -1.04236  -0.00000  -0.00000  -0.00001  -0.00001  -1.04237
   D61        1.04150  -0.00000   0.00000  -0.00001  -0.00001   1.04149
   D62       -3.14079   0.00000   0.00000  -0.00001  -0.00000  -3.14079
   D63        3.14044   0.00000  -0.00000   0.00001   0.00000   3.14045
   D64       -0.00054   0.00000  -0.00000   0.00000   0.00000  -0.00054
   D65       -0.00029   0.00000   0.00000  -0.00000   0.00000  -0.00029
   D66       -3.14128   0.00000   0.00001  -0.00000   0.00000  -3.14128
   D67        0.00115   0.00000  -0.00001   0.00000  -0.00000   0.00115
   D68       -3.14031  -0.00000   0.00000  -0.00001  -0.00001  -3.14032
   D69       -3.14115   0.00000  -0.00001   0.00001  -0.00000  -3.14116
   D70        0.00057  -0.00000  -0.00000  -0.00000  -0.00000   0.00056
   D71       -0.00007   0.00000  -0.00000   0.00000   0.00000  -0.00007
   D72       -3.14130   0.00000  -0.00000   0.00000   0.00000  -3.14130
   D73        3.14092   0.00000  -0.00000   0.00001   0.00000   3.14093
   D74       -0.00031   0.00000  -0.00001   0.00001   0.00000  -0.00031
   D75        0.00016  -0.00000   0.00000  -0.00000  -0.00000   0.00016
   D76       -3.14131  -0.00000   0.00000  -0.00001  -0.00000  -3.14131
   D77        3.14140  -0.00000   0.00000  -0.00000  -0.00000   3.14140
   D78       -0.00008  -0.00000   0.00000  -0.00001  -0.00000  -0.00008
   D79        0.00011   0.00000  -0.00000   0.00000  -0.00000   0.00011
   D80       -3.14147  -0.00000   0.00001  -0.00001  -0.00000  -3.14147
   D81        3.14158   0.00000  -0.00000   0.00001   0.00000   3.14158
   D82        0.00000  -0.00000   0.00001  -0.00001  -0.00000   0.00000
   D83        3.14128  -0.00000   0.00002  -0.00001   0.00000   3.14129
   D84       -0.00047   0.00000   0.00000  -0.00000   0.00000  -0.00047
   D85       -0.00032   0.00000   0.00000  -0.00000   0.00000  -0.00032
   D86        3.14111   0.00000  -0.00001   0.00001   0.00001   3.14111
   D87        3.11478  -0.00000  -0.00006   0.00002  -0.00005   3.11473
   D88        0.01214  -0.00000  -0.00001  -0.00007  -0.00008   0.01206
   D89       -0.03525  -0.00000  -0.00005   0.00004  -0.00001  -0.03527
   D90       -3.13789  -0.00000   0.00000  -0.00005  -0.00005  -3.13794
   D91       -3.12064   0.00000   0.00007  -0.00002   0.00005  -3.12059
   D92        0.08724   0.00000   0.00005  -0.00001   0.00004   0.08729
   D93        0.02902  -0.00000   0.00006  -0.00004   0.00002   0.02903
   D94       -3.04629  -0.00000   0.00004  -0.00003   0.00001  -3.04627
   D95        0.00866  -0.00000   0.00000  -0.00002  -0.00001   0.00865
   D96       -3.10072  -0.00000   0.00002  -0.00005  -0.00003  -3.10075
   D97        3.11518   0.00000  -0.00004   0.00006   0.00002   3.11520
   D98        0.00580   0.00000  -0.00002   0.00002  -0.00000   0.00580
   D99        3.11119   0.00000  -0.00003   0.00005   0.00002   3.11122
   D100       0.00645  -0.00000   0.00002  -0.00003  -0.00001   0.00644
   D101       0.00552   0.00000  -0.00001   0.00002   0.00001   0.00553
   D102      -3.07721  -0.00000   0.00002  -0.00002  -0.00000  -3.07722
   D103       3.08169   0.00000  -0.00000   0.00002   0.00001   3.08171
   D104      -0.00104  -0.00000   0.00003  -0.00003   0.00000  -0.00104
   D105       0.02523   0.00000   0.00004  -0.00000   0.00004   0.02526
   D106      -3.12246  -0.00000   0.00006  -0.00004   0.00003  -3.12243
   D107       3.13126   0.00000   0.00002   0.00004   0.00006   3.13132
   D108      -0.01643   0.00000   0.00004   0.00000   0.00005  -0.01638
   D109      -0.01479   0.00000   0.00001  -0.00000   0.00001  -0.01478
   D110      -3.12281  -0.00000   0.00003  -0.00004  -0.00001  -3.12282
   D111      -0.03275  -0.00000  -0.00003  -0.00000  -0.00004  -0.03278
   D112       3.11470   0.00000  -0.00006   0.00003  -0.00003   3.11467
   D113       3.04944  -0.00000  -0.00006   0.00004  -0.00002   3.04942
   D114      -0.08630   0.00000  -0.00009   0.00007  -0.00001  -0.08631
   D115      -0.40034  -0.00000   0.00008  -0.00009  -0.00001  -0.40035
   D116       2.75741   0.00000   0.00001   0.00004   0.00005   2.75746
   D117       2.73498  -0.00000   0.00011  -0.00013  -0.00002   2.73496
   D118      -0.39046   0.00000   0.00004   0.00000   0.00004  -0.39042
   D119      -0.01334   0.00000  -0.00001   0.00003   0.00001  -0.01333
   D120       0.01644  -0.00000   0.00000  -0.00002  -0.00001   0.01642
   D121      -3.10839   0.00000  -0.00006   0.00008   0.00003  -3.10837
   D122       0.03291   0.00000  -0.00005   0.00007   0.00002   0.03293
   D123       0.01761  -0.00000   0.00001  -0.00004  -0.00003   0.01758
   D124      -3.12427  -0.00000   0.00002  -0.00005  -0.00003  -3.12430
   D125       3.12229  -0.00000   0.00005  -0.00007  -0.00002   3.12227
   D126      -0.06082  -0.00000   0.00005  -0.00008  -0.00003  -0.06085
   D127      -0.00401   0.00000  -0.00002   0.00005   0.00004  -0.00398
   D128       3.09606   0.00000  -0.00002   0.00005   0.00003   3.09609
   D129      -0.01772   0.00000  -0.00001   0.00002   0.00001  -0.01771
   D130       3.12132   0.00000  -0.00003   0.00004   0.00002   3.12134
   D131       3.12417   0.00000  -0.00001   0.00002   0.00001   3.12418
   D132      -0.01998   0.00000  -0.00003   0.00005   0.00002  -0.01996
   D133      -0.01001  -0.00000   0.00001  -0.00004  -0.00002  -0.01003
   D134       3.12865  -0.00000  -0.00001   0.00000  -0.00001   3.12864
   D135      -3.11054  -0.00000   0.00002  -0.00003  -0.00001  -3.11055
   D136       0.02812   0.00000  -0.00001   0.00001   0.00000   0.02812
   D137       0.00340  -0.00000   0.00000   0.00000   0.00001   0.00341
   D138      -3.09809  -0.00000   0.00003  -0.00003   0.00000  -3.09809
   D139      -3.13564  -0.00000   0.00002  -0.00002   0.00000  -3.13563
   D140       0.04606  -0.00000   0.00005  -0.00005  -0.00000   0.04606
   D141       0.01036   0.00000  -0.00001   0.00001  -0.00000   0.01036
   D142       3.11204   0.00000  -0.00003   0.00004   0.00000   3.11204
   D143      -3.12830  -0.00000   0.00002  -0.00003  -0.00002  -3.12831
   D144      -0.02662  -0.00000  -0.00001  -0.00000  -0.00001  -0.02663
   D145      -2.62852  -0.00000  -0.00031  -0.00012  -0.00043  -2.62895
   D146      -0.57031  -0.00000  -0.00031  -0.00012  -0.00043  -0.57074
   D147       1.54451  -0.00000  -0.00032  -0.00012  -0.00044   1.54407
   D148       0.55451  -0.00000  -0.00029  -0.00015  -0.00044   0.55407
   D149       2.61272  -0.00000  -0.00028  -0.00015  -0.00043   2.61229
   D150      -1.55565  -0.00000  -0.00029  -0.00015  -0.00044  -1.55609
   D151      -0.98433   0.00000   0.00004  -0.00000   0.00004  -0.98429
   D152       1.03591  -0.00000   0.00004   0.00000   0.00004   1.03594
   D153       3.09666   0.00000   0.00004  -0.00001   0.00004   3.09670
   D154      -3.12340   0.00000   0.00003   0.00000   0.00003  -3.12337
   D155      -1.10316  -0.00000   0.00003   0.00000   0.00003  -1.10313
   D156       0.95759   0.00000   0.00004  -0.00000   0.00003   0.95763
   D157       1.14121   0.00000   0.00004  -0.00000   0.00004   1.14125
   D158      -3.12173   0.00000   0.00004  -0.00000   0.00004  -3.12170
   D159      -1.06098   0.00000   0.00005  -0.00001   0.00004  -1.06094
   D160       1.20435   0.00000   0.00031  -0.00002   0.00029   1.20464
   D161      -3.05643   0.00000   0.00034  -0.00003   0.00031  -3.05611
   D162      -0.94099   0.00000   0.00032  -0.00003   0.00029  -0.94071
   D163       1.08141   0.00000   0.00035  -0.00003   0.00031   1.08172
   D164      -3.00734   0.00000   0.00032  -0.00003   0.00029  -3.00705
   D165      -0.98494   0.00000   0.00035  -0.00003   0.00032  -0.98462
         Item               Value     Threshold  Converged?
 Maximum Force            0.000011     0.000450     YES
 RMS     Force            0.000002     0.000300     YES
 Maximum Displacement     0.001173     0.001800     YES
 RMS     Displacement     0.000180     0.001200     YES
 Predicted change in Energy=-5.875238D-09
 Optimization completed.
    -- Stationary point found.
                           ----------------------------
                           !   Optimized Parameters   !
                           ! (Angstroms and Degrees)  !
 --------------------------                            --------------------------
 ! Name  Definition              Value          Derivative Info.                !
 --------------------------------------------------------------------------------
 ! R1    R(1,2)                  1.4295         -DE/DX =    0.0                 !
 ! R2    R(1,6)                  1.3836         -DE/DX =    0.0                 !
 ! R3    R(1,7)                  1.0812         -DE/DX =    0.0                 !
 ! R4    R(2,3)                  1.4282         -DE/DX =    0.0                 !
 ! R5    R(2,29)                 1.4581         -DE/DX =    0.0                 !
 ! R6    R(3,4)                  1.3761         -DE/DX =    0.0                 !
 ! R7    R(3,8)                  1.0845         -DE/DX =    0.0                 !
 ! R8    R(4,5)                  1.4199         -DE/DX =    0.0                 !
 ! R9    R(4,10)                 1.5291         -DE/DX =    0.0                 !
 ! R10   R(5,6)                  1.4038         -DE/DX =    0.0                 !
 ! R11   R(5,16)                 1.4495         -DE/DX =    0.0                 !
 ! R12   R(6,9)                  1.0867         -DE/DX =    0.0                 !
 ! R13   R(10,11)                1.5277         -DE/DX =    0.0                 !
 ! R14   R(10,21)                1.5456         -DE/DX =    0.0                 !
 ! R15   R(10,25)                1.5453         -DE/DX =    0.0                 !
 ! R16   R(11,12)                1.3881         -DE/DX =    0.0                 !
 ! R17   R(11,16)                1.4169         -DE/DX =    0.0                 !
 ! R18   R(12,13)                1.4011         -DE/DX =    0.0                 !
 ! R19   R(12,17)                1.0871         -DE/DX =    0.0                 !
 ! R20   R(13,14)                1.403          -DE/DX =    0.0                 !
 ! R21   R(13,18)                1.0865         -DE/DX =    0.0                 !
 ! R22   R(14,15)                1.3918         -DE/DX =    0.0                 !
 ! R23   R(14,19)                1.0863         -DE/DX =    0.0                 !
 ! R24   R(15,16)                1.4032         -DE/DX =    0.0                 !
 ! R25   R(15,20)                1.0864         -DE/DX =    0.0                 !
 ! R26   R(21,22)                1.096          -DE/DX =    0.0                 !
 ! R27   R(21,23)                1.0958         -DE/DX =    0.0                 !
 ! R28   R(21,24)                1.0945         -DE/DX =    0.0                 !
 ! R29   R(25,26)                1.0958         -DE/DX =    0.0                 !
 ! R30   R(25,27)                1.096          -DE/DX =    0.0                 !
 ! R31   R(25,28)                1.0946         -DE/DX =    0.0                 !
 ! R32   R(29,30)                1.439          -DE/DX =    0.0                 !
 ! R33   R(29,31)                1.4205         -DE/DX =    0.0                 !
 ! R34   R(30,32)                1.4426         -DE/DX =    0.0                 !
 ! R35   R(30,37)                1.3517         -DE/DX =    0.0                 !
 ! R36   R(31,33)                1.382          -DE/DX =    0.0                 !
 ! R37   R(31,34)                1.084          -DE/DX =    0.0                 !
 ! R38   R(32,35)                1.4406         -DE/DX =    0.0                 !
 ! R39   R(32,38)                1.3502         -DE/DX =    0.0                 !
 ! R40   R(33,35)                1.4178         -DE/DX =    0.0                 !
 ! R41   R(33,36)                1.0838         -DE/DX =    0.0                 !
 ! R42   R(35,40)                1.4622         -DE/DX =    0.0                 !
 ! R43   R(37,39)                1.6859         -DE/DX =    0.0                 !
 ! R44   R(38,39)                1.6823         -DE/DX =    0.0                 !
 ! R45   R(40,41)                1.4179         -DE/DX =    0.0                 !
 ! R46   R(40,42)                1.4193         -DE/DX =    0.0                 !
 ! R47   R(41,43)                1.3881         -DE/DX =    0.0                 !
 ! R48   R(41,44)                1.0814         -DE/DX =    0.0                 !
 ! R49   R(42,45)                1.3857         -DE/DX =    0.0                 !
 ! R50   R(42,46)                1.0847         -DE/DX =    0.0                 !
 ! R51   R(43,47)                1.4037         -DE/DX =    0.0                 !
 ! R52   R(43,48)                1.088          -DE/DX =    0.0                 !
 ! R53   R(45,47)                1.4059         -DE/DX =    0.0                 !
 ! R54   R(45,49)                1.0879         -DE/DX =    0.0                 !
 ! R55   R(47,50)                1.5082         -DE/DX =    0.0                 !
 ! R56   R(50,51)                1.0959         -DE/DX =    0.0                 !
 ! R57   R(50,52)                1.0988         -DE/DX =    0.0                 !
 ! R58   R(50,53)                1.5417         -DE/DX =    0.0                 !
 ! R59   R(53,54)                1.1046         -DE/DX =    0.0                 !
 ! R60   R(53,55)                1.0967         -DE/DX =    0.0                 !
 ! R61   R(53,56)                1.466          -DE/DX =    0.0                 !
 ! R62   R(56,57)                1.0198         -DE/DX =    0.0                 !
 ! R63   R(56,58)                1.0188         -DE/DX =    0.0                 !
 ! A1    A(2,1,6)              121.6876         -DE/DX =    0.0                 !
 ! A2    A(2,1,7)              117.9322         -DE/DX =    0.0                 !
 ! A3    A(6,1,7)              120.378          -DE/DX =    0.0                 !
 ! A4    A(1,2,3)              117.5769         -DE/DX =    0.0                 !
 ! A5    A(1,2,29)             121.8443         -DE/DX =    0.0                 !
 ! A6    A(3,2,29)             120.5775         -DE/DX =    0.0                 !
 ! A7    A(2,3,4)              120.7133         -DE/DX =    0.0                 !
 ! A8    A(2,3,8)              119.6192         -DE/DX =    0.0                 !
 ! A9    A(4,3,8)              119.6218         -DE/DX =    0.0                 !
 ! A10   A(3,4,5)              120.5577         -DE/DX =    0.0                 !
 ! A11   A(3,4,10)             128.7549         -DE/DX =    0.0                 !
 ! A12   A(5,4,10)             110.6859         -DE/DX =    0.0                 !
 ! A13   A(4,5,6)              119.8769         -DE/DX =    0.0                 !
 ! A14   A(4,5,16)             108.762          -DE/DX =    0.0                 !
 ! A15   A(6,5,16)             131.3586         -DE/DX =    0.0                 !
 ! A16   A(1,6,5)              119.5764         -DE/DX =    0.0                 !
 ! A17   A(1,6,9)              119.7196         -DE/DX =    0.0                 !
 ! A18   A(5,6,9)              120.7037         -DE/DX =    0.0                 !
 ! A19   A(4,10,11)            100.98           -DE/DX =    0.0                 !
 ! A20   A(4,10,21)            111.43           -DE/DX =    0.0                 !
 ! A21   A(4,10,25)            111.4743         -DE/DX =    0.0                 !
 ! A22   A(11,10,21)           111.3045         -DE/DX =    0.0                 !
 ! A23   A(11,10,25)           111.3675         -DE/DX =    0.0                 !
 ! A24   A(21,10,25)           110.0297         -DE/DX =    0.0                 !
 ! A25   A(10,11,12)           128.9701         -DE/DX =    0.0                 !
 ! A26   A(10,11,16)           110.957          -DE/DX =    0.0                 !
 ! A27   A(12,11,16)           120.0729         -DE/DX =    0.0                 !
 ! A28   A(11,12,13)           119.0883         -DE/DX =    0.0                 !
 ! A29   A(11,12,17)           120.9839         -DE/DX =    0.0                 !
 ! A30   A(13,12,17)           119.9277         -DE/DX =    0.0                 !
 ! A31   A(12,13,14)           120.8708         -DE/DX =    0.0                 !
 ! A32   A(12,13,18)           119.5985         -DE/DX =    0.0                 !
 ! A33   A(14,13,18)           119.5307         -DE/DX =    0.0                 !
 ! A34   A(13,14,15)           120.5304         -DE/DX =    0.0                 !
 ! A35   A(13,14,19)           119.6108         -DE/DX =    0.0                 !
 ! A36   A(15,14,19)           119.8589         -DE/DX =    0.0                 !
 ! A37   A(14,15,16)           118.7381         -DE/DX =    0.0                 !
 ! A38   A(14,15,20)           120.54           -DE/DX =    0.0                 !
 ! A39   A(16,15,20)           120.7219         -DE/DX =    0.0                 !
 ! A40   A(5,16,11)            108.6123         -DE/DX =    0.0                 !
 ! A41   A(5,16,15)            130.6882         -DE/DX =    0.0                 !
 ! A42   A(11,16,15)           120.6995         -DE/DX =    0.0                 !
 ! A43   A(10,21,22)           110.6339         -DE/DX =    0.0                 !
 ! A44   A(10,21,23)           110.5788         -DE/DX =    0.0                 !
 ! A45   A(10,21,24)           111.2139         -DE/DX =    0.0                 !
 ! A46   A(22,21,23)           107.8576         -DE/DX =    0.0                 !
 ! A47   A(22,21,24)           108.2701         -DE/DX =    0.0                 !
 ! A48   A(23,21,24)           108.1724         -DE/DX =    0.0                 !
 ! A49   A(10,25,26)           110.5542         -DE/DX =    0.0                 !
 ! A50   A(10,25,27)           110.6666         -DE/DX =    0.0                 !
 ! A51   A(10,25,28)           111.2323         -DE/DX =    0.0                 !
 ! A52   A(26,25,27)           107.8251         -DE/DX =    0.0                 !
 ! A53   A(26,25,28)           108.1969         -DE/DX =    0.0                 !
 ! A54   A(27,25,28)           108.2499         -DE/DX =    0.0                 !
 ! A55   A(2,29,30)            123.8195         -DE/DX =    0.0                 !
 ! A56   A(2,29,31)            119.5867         -DE/DX =    0.0                 !
 ! A57   A(30,29,31)           116.5921         -DE/DX =    0.0                 !
 ! A58   A(29,30,32)           120.564          -DE/DX =    0.0                 !
 ! A59   A(29,30,37)           124.9558         -DE/DX =    0.0                 !
 ! A60   A(32,30,37)           114.4465         -DE/DX =    0.0                 !
 ! A61   A(29,31,33)           122.8211         -DE/DX =    0.0                 !
 ! A62   A(29,31,34)           119.2304         -DE/DX =    0.0                 !
 ! A63   A(33,31,34)           117.844          -DE/DX =    0.0                 !
 ! A64   A(30,32,35)           120.8521         -DE/DX =    0.0                 !
 ! A65   A(30,32,38)           114.5868         -DE/DX =    0.0                 !
 ! A66   A(35,32,38)           124.533          -DE/DX =    0.0                 !
 ! A67   A(31,33,35)           122.4689         -DE/DX =    0.0                 !
 ! A68   A(31,33,36)           118.2432         -DE/DX =    0.0                 !
 ! A69   A(35,33,36)           119.2034         -DE/DX =    0.0                 !
 ! A70   A(32,35,33)           116.652          -DE/DX =    0.0                 !
 ! A71   A(32,35,40)           123.5483         -DE/DX =    0.0                 !
 ! A72   A(33,35,40)           119.7987         -DE/DX =    0.0                 !
 ! A73   A(30,37,39)           105.8685         -DE/DX =    0.0                 !
 ! A74   A(32,38,39)           105.9541         -DE/DX =    0.0                 !
 ! A75   A(37,39,38)            99.1346         -DE/DX =    0.0                 !
 ! A76   A(35,40,41)           122.4677         -DE/DX =    0.0                 !
 ! A77   A(35,40,42)           120.6417         -DE/DX =    0.0                 !
 ! A78   A(41,40,42)           116.8845         -DE/DX =    0.0                 !
 ! A79   A(40,41,43)           120.9786         -DE/DX =    0.0                 !
 ! A80   A(40,41,44)           118.7421         -DE/DX =    0.0                 !
 ! A81   A(43,41,44)           120.2793         -DE/DX =    0.0                 !
 ! A82   A(40,42,45)           121.5446         -DE/DX =    0.0                 !
 ! A83   A(40,42,46)           119.7729         -DE/DX =    0.0                 !
 ! A84   A(45,42,46)           118.6409         -DE/DX =    0.0                 !
 ! A85   A(41,43,47)           121.7538         -DE/DX =    0.0                 !
 ! A86   A(41,43,48)           119.0321         -DE/DX =    0.0                 !
 ! A87   A(47,43,48)           119.2139         -DE/DX =    0.0                 !
 ! A88   A(42,45,47)           121.216          -DE/DX =    0.0                 !
 ! A89   A(42,45,49)           119.4582         -DE/DX =    0.0                 !
 ! A90   A(47,45,49)           119.3257         -DE/DX =    0.0                 !
 ! A91   A(43,47,45)           117.6122         -DE/DX =    0.0                 !
 ! A92   A(43,47,50)           121.3952         -DE/DX =    0.0                 !
 ! A93   A(45,47,50)           120.9519         -DE/DX =    0.0                 !
 ! A94   A(47,50,51)           110.7903         -DE/DX =    0.0                 !
 ! A95   A(47,50,52)           109.7406         -DE/DX =    0.0                 !
 ! A96   A(47,50,53)           112.6002         -DE/DX =    0.0                 !
 ! A97   A(51,50,52)           106.9914         -DE/DX =    0.0                 !
 ! A98   A(51,50,53)           107.8706         -DE/DX =    0.0                 !
 ! A99   A(52,50,53)           108.66           -DE/DX =    0.0                 !
 ! A100  A(50,53,54)           108.8142         -DE/DX =    0.0                 !
 ! A101  A(50,53,55)           108.8859         -DE/DX =    0.0                 !
 ! A102  A(50,53,56)           110.0718         -DE/DX =    0.0                 !
 ! A103  A(54,53,55)           106.5423         -DE/DX =    0.0                 !
 ! A104  A(54,53,56)           114.4635         -DE/DX =    0.0                 !
 ! A105  A(55,53,56)           107.886          -DE/DX =    0.0                 !
 ! A106  A(53,56,57)           109.5792         -DE/DX =    0.0                 !
 ! A107  A(53,56,58)           109.695          -DE/DX =    0.0                 !
 ! A108  A(57,56,58)           105.9137         -DE/DX =    0.0                 !
 ! D1    D(6,1,2,3)             -1.2282         -DE/DX =    0.0                 !
 ! D2    D(6,1,2,29)           178.359          -DE/DX =    0.0                 !
 ! D3    D(7,1,2,3)            178.2384         -DE/DX =    0.0                 !
 ! D4    D(7,1,2,29)            -2.1744         -DE/DX =    0.0                 !
 ! D5    D(2,1,6,5)              0.8542         -DE/DX =    0.0                 !
 ! D6    D(2,1,6,9)           -179.3399         -DE/DX =    0.0                 !
 ! D7    D(7,1,6,5)           -178.5995         -DE/DX =    0.0                 !
 ! D8    D(7,1,6,9)              1.2064         -DE/DX =    0.0                 !
 ! D9    D(1,2,3,4)              0.6739         -DE/DX =    0.0                 !
 ! D10   D(1,2,3,8)           -176.8568         -DE/DX =    0.0                 !
 ! D11   D(29,2,3,4)          -178.9188         -DE/DX =    0.0                 !
 ! D12   D(29,2,3,8)             3.5505         -DE/DX =    0.0                 !
 ! D13   D(1,2,29,30)           19.7936         -DE/DX =    0.0                 !
 ! D14   D(1,2,29,31)         -159.7091         -DE/DX =    0.0                 !
 ! D15   D(3,2,29,30)         -160.6313         -DE/DX =    0.0                 !
 ! D16   D(3,2,29,31)           19.8659         -DE/DX =    0.0                 !
 ! D17   D(2,3,4,5)              0.2279         -DE/DX =    0.0                 !
 ! D18   D(2,3,4,10)          -179.2881         -DE/DX =    0.0                 !
 ! D19   D(8,3,4,5)            177.7585         -DE/DX =    0.0                 !
 ! D20   D(8,3,4,10)            -1.7575         -DE/DX =    0.0                 !
 ! D21   D(3,4,5,6)             -0.6296         -DE/DX =    0.0                 !
 ! D22   D(3,4,5,16)           179.881          -DE/DX =    0.0                 !
 ! D23   D(10,4,5,6)           178.9669         -DE/DX =    0.0                 !
 ! D24   D(10,4,5,16)           -0.5225         -DE/DX =    0.0                 !
 ! D25   D(3,4,10,11)         -179.9202         -DE/DX =    0.0                 !
 ! D26   D(3,4,10,21)           61.8024         -DE/DX =    0.0                 !
 ! D27   D(3,4,10,25)          -61.5509         -DE/DX =    0.0                 !
 ! D28   D(5,4,10,11)            0.5253         -DE/DX =    0.0                 !
 ! D29   D(5,4,10,21)         -117.7521         -DE/DX =    0.0                 !
 ! D30   D(5,4,10,25)          118.8946         -DE/DX =    0.0                 !
 ! D31   D(4,5,6,1)              0.0878         -DE/DX =    0.0                 !
 ! D32   D(4,5,6,9)           -179.7162         -DE/DX =    0.0                 !
 ! D33   D(16,5,6,1)           179.4437         -DE/DX =    0.0                 !
 ! D34   D(16,5,6,9)            -0.3603         -DE/DX =    0.0                 !
 ! D35   D(4,5,16,11)            0.282          -DE/DX =    0.0                 !
 ! D36   D(4,5,16,15)         -179.7264         -DE/DX =    0.0                 !
 ! D37   D(6,5,16,11)         -179.1281         -DE/DX =    0.0                 !
 ! D38   D(6,5,16,15)            0.8634         -DE/DX =    0.0                 !
 ! D39   D(4,10,11,12)         179.6946         -DE/DX =    0.0                 !
 ! D40   D(4,10,11,16)          -0.351          -DE/DX =    0.0                 !
 ! D41   D(21,10,11,12)        -61.937          -DE/DX =    0.0                 !
 ! D42   D(21,10,11,16)        118.0174         -DE/DX =    0.0                 !
 ! D43   D(25,10,11,12)         61.2478         -DE/DX =    0.0                 !
 ! D44   D(25,10,11,16)       -118.7978         -DE/DX =    0.0                 !
 ! D45   D(4,10,21,22)         176.1909         -DE/DX =    0.0                 !
 ! D46   D(4,10,21,23)         -64.3775         -DE/DX =    0.0                 !
 ! D47   D(4,10,21,24)          55.8268         -DE/DX =    0.0                 !
 ! D48   D(11,10,21,22)         64.3096         -DE/DX =    0.0                 !
 ! D49   D(11,10,21,23)       -176.2588         -DE/DX =    0.0                 !
 ! D50   D(11,10,21,24)        -56.0546         -DE/DX =    0.0                 !
 ! D51   D(25,10,21,22)        -59.637          -DE/DX =    0.0                 !
 ! D52   D(25,10,21,23)         59.7946         -DE/DX =    0.0                 !
 ! D53   D(25,10,21,24)        179.9989         -DE/DX =    0.0                 !
 ! D54   D(4,10,25,26)          64.4235         -DE/DX =    0.0                 !
 ! D55   D(4,10,25,27)        -176.1802         -DE/DX =    0.0                 !
 ! D56   D(4,10,25,28)         -55.8073         -DE/DX =    0.0                 !
 ! D57   D(11,10,25,26)        176.3671         -DE/DX =    0.0                 !
 ! D58   D(11,10,25,27)        -64.2367         -DE/DX =    0.0                 !
 ! D59   D(11,10,25,28)         56.1362         -DE/DX =    0.0                 !
 ! D60   D(21,10,25,26)        -59.7229         -DE/DX =    0.0                 !
 ! D61   D(21,10,25,27)         59.6733         -DE/DX =    0.0                 !
 ! D62   D(21,10,25,28)       -179.9538         -DE/DX =    0.0                 !
 ! D63   D(10,11,12,13)        179.9342         -DE/DX =    0.0                 !
 ! D64   D(10,11,12,17)         -0.0311         -DE/DX =    0.0                 !
 ! D65   D(16,11,12,13)         -0.0166         -DE/DX =    0.0                 !
 ! D66   D(16,11,12,17)       -179.9819         -DE/DX =    0.0                 !
 ! D67   D(10,11,16,5)           0.066          -DE/DX =    0.0                 !
 ! D68   D(10,11,16,15)       -179.9265         -DE/DX =    0.0                 !
 ! D69   D(12,11,16,5)        -179.9749         -DE/DX =    0.0                 !
 ! D70   D(12,11,16,15)          0.0326         -DE/DX =    0.0                 !
 ! D71   D(11,12,13,14)         -0.004          -DE/DX =    0.0                 !
 ! D72   D(11,12,13,18)       -179.9835         -DE/DX =    0.0                 !
 ! D73   D(17,12,13,14)        179.9617         -DE/DX =    0.0                 !
 ! D74   D(17,12,13,18)         -0.0178         -DE/DX =    0.0                 !
 ! D75   D(12,13,14,15)          0.0093         -DE/DX =    0.0                 !
 ! D76   D(12,13,14,19)       -179.9838         -DE/DX =    0.0                 !
 ! D77   D(18,13,14,15)        179.9889         -DE/DX =    0.0                 !
 ! D78   D(18,13,14,19)         -0.0043         -DE/DX =    0.0                 !
 ! D79   D(13,14,15,16)          0.0062         -DE/DX =    0.0                 !
 ! D80   D(13,14,15,20)       -179.993          -DE/DX =    0.0                 !
 ! D81   D(19,14,15,16)        179.9994         -DE/DX =    0.0                 !
 ! D82   D(19,14,15,20)          0.0002         -DE/DX =    0.0                 !
 ! D83   D(14,15,16,5)         179.9823         -DE/DX =    0.0                 !
 ! D84   D(14,15,16,11)         -0.027          -DE/DX =    0.0                 !
 ! D85   D(20,15,16,5)          -0.0184         -DE/DX =    0.0                 !
 ! D86   D(20,15,16,11)        179.9723         -DE/DX =    0.0                 !
 ! D87   D(2,29,30,32)         178.4636         -DE/DX =    0.0                 !
 ! D88   D(2,29,30,37)           0.6958         -DE/DX =    0.0                 !
 ! D89   D(31,29,30,32)         -2.0199         -DE/DX =    0.0                 !
 ! D90   D(31,29,30,37)       -179.7878         -DE/DX =    0.0                 !
 ! D91   D(2,29,31,33)        -178.7993         -DE/DX =    0.0                 !
 ! D92   D(2,29,31,34)           4.9988         -DE/DX =    0.0                 !
 ! D93   D(30,29,31,33)          1.6627         -DE/DX =    0.0                 !
 ! D94   D(30,29,31,34)       -174.5393         -DE/DX =    0.0                 !
 ! D95   D(29,30,32,35)          0.496          -DE/DX =    0.0                 !
 ! D96   D(29,30,32,38)       -177.6581         -DE/DX =    0.0                 !
 ! D97   D(37,30,32,35)        178.4865         -DE/DX =    0.0                 !
 ! D98   D(37,30,32,38)          0.3323         -DE/DX =    0.0                 !
 ! D99   D(29,30,37,39)        178.2582         -DE/DX =    0.0                 !
 ! D100  D(32,30,37,39)          0.3695         -DE/DX =    0.0                 !
 ! D101  D(29,31,33,35)          0.3163         -DE/DX =    0.0                 !
 ! D102  D(29,31,33,36)       -176.3113         -DE/DX =    0.0                 !
 ! D103  D(34,31,33,35)        176.568          -DE/DX =    0.0                 !
 ! D104  D(34,31,33,36)         -0.0596         -DE/DX =    0.0                 !
 ! D105  D(30,32,35,33)          1.4455         -DE/DX =    0.0                 !
 ! D106  D(30,32,35,40)       -178.9037         -DE/DX =    0.0                 !
 ! D107  D(38,32,35,33)        179.4079         -DE/DX =    0.0                 !
 ! D108  D(38,32,35,40)         -0.9413         -DE/DX =    0.0                 !
 ! D109  D(30,32,38,39)         -0.8474         -DE/DX =    0.0                 !
 ! D110  D(35,32,38,39)       -178.9238         -DE/DX =    0.0                 !
 ! D111  D(31,33,35,32)         -1.8763         -DE/DX =    0.0                 !
 ! D112  D(31,33,35,40)        178.4591         -DE/DX =    0.0                 !
 ! D113  D(36,33,35,32)        174.7202         -DE/DX =    0.0                 !
 ! D114  D(36,33,35,40)         -4.9444         -DE/DX =    0.0                 !
 ! D115  D(32,35,40,41)        -22.9378         -DE/DX =    0.0                 !
 ! D116  D(32,35,40,42)        157.988          -DE/DX =    0.0                 !
 ! D117  D(33,35,40,41)        156.7026         -DE/DX =    0.0                 !
 ! D118  D(33,35,40,42)        -22.3716         -DE/DX =    0.0                 !
 ! D119  D(30,37,39,38)         -0.7646         -DE/DX =    0.0                 !
 ! D120  D(32,38,39,37)          0.9417         -DE/DX =    0.0                 !
 ! D121  D(35,40,41,43)       -178.0978         -DE/DX =    0.0                 !
 ! D122  D(35,40,41,44)          1.8856         -DE/DX =    0.0                 !
 ! D123  D(42,40,41,43)          1.0091         -DE/DX =    0.0                 !
 ! D124  D(42,40,41,44)       -179.0075         -DE/DX =    0.0                 !
 ! D125  D(35,40,42,45)        178.8943         -DE/DX =    0.0                 !
 ! D126  D(35,40,42,46)         -3.4846         -DE/DX =    0.0                 !
 ! D127  D(41,40,42,45)         -0.23           -DE/DX =    0.0                 !
 ! D128  D(41,40,42,46)        177.3911         -DE/DX =    0.0                 !
 ! D129  D(40,41,43,47)         -1.0152         -DE/DX =    0.0                 !
 ! D130  D(40,41,43,48)        178.8385         -DE/DX =    0.0                 !
 ! D131  D(44,41,43,47)        179.0017         -DE/DX =    0.0                 !
 ! D132  D(44,41,43,48)         -1.1446         -DE/DX =    0.0                 !
 ! D133  D(40,42,45,47)         -0.5733         -DE/DX =    0.0                 !
 ! D134  D(40,42,45,49)        179.2582         -DE/DX =    0.0                 !
 ! D135  D(46,42,45,47)       -178.2206         -DE/DX =    0.0                 !
 ! D136  D(46,42,45,49)          1.611          -DE/DX =    0.0                 !
 ! D137  D(41,43,47,45)          0.1948         -DE/DX =    0.0                 !
 ! D138  D(41,43,47,50)       -177.5075         -DE/DX =    0.0                 !
 ! D139  D(48,43,47,45)       -179.6587         -DE/DX =    0.0                 !
 ! D140  D(48,43,47,50)          2.639          -DE/DX =    0.0                 !
 ! D141  D(42,45,47,43)          0.5935         -DE/DX =    0.0                 !
 ! D142  D(42,45,47,50)        178.3065         -DE/DX =    0.0                 !
 ! D143  D(49,45,47,43)       -179.2383         -DE/DX =    0.0                 !
 ! D144  D(49,45,47,50)         -1.5253         -DE/DX =    0.0                 !
 ! D145  D(43,47,50,51)       -150.6032         -DE/DX =    0.0                 !
 ! D146  D(43,47,50,52)        -32.6764         -DE/DX =    0.0                 !
 ! D147  D(43,47,50,53)         88.4937         -DE/DX =    0.0                 !
 ! D148  D(45,47,50,51)         31.7709         -DE/DX =    0.0                 !
 ! D149  D(45,47,50,52)        149.6978         -DE/DX =    0.0                 !
 ! D150  D(45,47,50,53)        -89.1322         -DE/DX =    0.0                 !
 ! D151  D(47,50,53,54)        -56.3982         -DE/DX =    0.0                 !
 ! D152  D(47,50,53,55)         59.3531         -DE/DX =    0.0                 !
 ! D153  D(47,50,53,56)        177.4257         -DE/DX =    0.0                 !
 ! D154  D(51,50,53,54)       -178.9579         -DE/DX =    0.0                 !
 ! D155  D(51,50,53,55)        -63.2065         -DE/DX =    0.0                 !
 ! D156  D(51,50,53,56)         54.8661         -DE/DX =    0.0                 !
 ! D157  D(52,50,53,54)         65.3864         -DE/DX =    0.0                 !
 ! D158  D(52,50,53,55)       -178.8622         -DE/DX =    0.0                 !
 ! D159  D(52,50,53,56)        -60.7896         -DE/DX =    0.0                 !
 ! D160  D(50,53,56,57)         69.0042         -DE/DX =    0.0                 !
 ! D161  D(50,53,56,58)       -175.1204         -DE/DX =    0.0                 !
 ! D162  D(54,53,56,57)        -53.915          -DE/DX =    0.0                 !
 ! D163  D(54,53,56,58)         61.9603         -DE/DX =    0.0                 !
 ! D164  D(55,53,56,57)       -172.308          -DE/DX =    0.0                 !
 ! D165  D(55,53,56,58)        -56.4327         -DE/DX =    0.0                 !
 --------------------------------------------------------------------------------
 Lowest energy point so far.  Saving SCF results.
 Largest change from initial coordinates is atom   22       0.395 Angstoms.
 GradGradGradGradGradGradGradGradGradGradGradGradGradGradGradGradGradGrad

 Leave Link  103 at Thu Mar 14 10:04:02 2024, MaxMem= 32212254720 cpu:               3.5 elap:               0.1
 (Enter /home/<user>/g16/l202.exe)
 Stoichiometry    C29H25N3S
 Framework group  C1[X(C29H25N3S)]
 Deg. of freedom   168
 Full point group                 C1      NOp   1
 RotChk:  IX=0 Diff= 8.37D-16
 Largest Abelian subgroup         C1      NOp   1
 Largest concise Abelian subgroup C1      NOp   1
                         Standard orientation:                         
 ---------------------------------------------------------------------
 Center     Atomic      Atomic             Coordinates (Angstroms)
 Number     Number       Type             X           Y           Z
 ---------------------------------------------------------------------
      1          6           0       -2.447773    1.657266   -0.310994
      2          6           0       -1.767663    0.407159   -0.176522
      3          6           0       -2.565522   -0.763398    0.005384
      4          6           0       -3.938766   -0.680423    0.034250
      5          6           0       -4.589726    0.571825   -0.121319
      6          6           0       -3.828830    1.738901   -0.293075
      7          1           0       -1.848595    2.550684   -0.419819
      8          1           0       -2.083003   -1.721915    0.162172
      9          1           0       -4.312954    2.704902   -0.408765
     10          6           0       -4.961469   -1.800109    0.230788
     11          6           0       -6.270235   -1.015971    0.151730
     12          6           0       -7.574156   -1.481179    0.252998
     13          6           0       -8.632676   -0.569053    0.150335
     14          6           0       -8.388250    0.797627   -0.051959
     15          6           0       -7.084995    1.275108   -0.155080
     16          6           0       -6.022615    0.364068   -0.053008
     17          1           0       -7.781115   -2.536736    0.410358
     18          1           0       -9.656546   -0.924117    0.228662
     19          1           0       -9.224376    1.486873   -0.128307
     20          1           0       -6.895542    2.333374   -0.311612
     21          6           0       -4.796572   -2.480021    1.608985
     22          1           0       -5.577202   -3.233613    1.763756
     23          1           0       -3.825558   -2.983310    1.676461
     24          1           0       -4.859382   -1.749120    2.421224
     25          6           0       -4.868413   -2.855187   -0.894417
     26          1           0       -3.898819   -3.364956   -0.864618
     27          1           0       -5.650305   -3.614380   -0.778421
     28          1           0       -4.981986   -2.394049   -1.880608
     29          6           0       -0.313601    0.312763   -0.230114
     30          6           0        0.569989    1.426722   -0.008868
     31          6           0        0.297817   -0.934934   -0.525381
     32          6           0        2.000801    1.246809   -0.046375
     33          6           0        1.668513   -1.105617   -0.569391
     34          1           0       -0.326456   -1.781519   -0.787173
     35          6           0        2.575989   -0.046168   -0.315899
     36          1           0        2.055516   -2.074830   -0.861609
     37          7           0        0.171866    2.684243    0.286464
     38          7           0        2.714331    2.360198    0.226106
     39         16           0        1.585798    3.579167    0.491758
     40          6           0        4.015709   -0.299960   -0.344990
     41          6           0        4.964831    0.726171   -0.582953
     42          6           0        4.523133   -1.611204   -0.151344
     43          6           0        6.322606    0.443714   -0.642701
     44          1           0        4.612204    1.739472   -0.718434
     45          6           0        5.882351   -1.876708   -0.197617
     46          1           0        3.842029   -2.424181    0.076215
     47          6           0        6.815831   -0.856428   -0.450902
     48          1           0        7.021675    1.252254   -0.846017
     49          1           0        6.234977   -2.892497   -0.032377
     50          6           0        8.296189   -1.144834   -0.462478
     51          1           0        8.491159   -2.164239   -0.814422
     52          1           0        8.801856   -0.462254   -1.159508
     53          6           0        8.940123   -0.993855    0.930147
     54          1           0        8.736567    0.023797    1.308296
     55          1           0        8.451698   -1.688416    1.624283
     56          7           0       10.362033   -1.345183    0.867745
     57          1           0       10.865165   -0.639418    0.330467
     58          1           0       10.762905   -1.321784    1.804080
 ---------------------------------------------------------------------
 Rotational constants (GHZ):           0.3549535           0.0398680           0.0365226
 Leave Link  202 at Thu Mar 14 10:04:02 2024, MaxMem= 32212254720 cpu:               0.1 elap:               0.0
 (Enter /home/<user>/g16/l601.exe)
 Copying SCF densities to generalized density rwf, IOpCl= 0 IROHF=0.

 **********************************************************************

            Population analysis using the SCF Density.

 **********************************************************************

 Orbital symmetries:
       Occupied  (A) (A) (A) (A) (A) (A) (A) (A) (A) (A) (A) (A)
                 (A) (A) (A) (A) (A) (A) (A) (A) (A) (A) (A) (A)
                 (A) (A) (A) (A) (A) (A) (A) (A) (A) (A) (A) (A)
                 (A) (A) (A) (A) (A) (A) (A) (A) (A) (A) (A) (A)
                 (A) (A) (A) (A) (A) (A) (A) (A) (A) (A) (A) (A)
                 (A) (A) (A) (A) (A) (A) (A) (A) (A) (A) (A) (A)
                 (A) (A) (A) (A) (A) (A) (A) (A) (A) (A) (A) (A)
                 (A) (A) (A) (A) (A) (A) (A) (A) (A) (A) (A) (A)
                 (A) (A) (A) (A) (A) (A) (A) (A) (A) (A) (A) (A)
                 (A) (A) (A) (A) (A) (A) (A) (A) (A) (A)
       Virtual   (A) (A) (A) (A) (A) (A) (A) (A) (A) (A) (A) (A)
                 (A) (A) (A) (A) (A) (A) (A) (A) (A) (A) (A) (A)
                 (A) (A) (A) (A) (A) (A) (A) (A) (A) (A) (A) (A)
                 (A) (A) (A) (A) (A) (A) (A) (A) (A) (A) (A) (A)
                 (A) (A) (A) (A) (A) (A) (A) (A) (A) (A) (A) (A)
                 (A) (A) (A) (A) (A) (A) (A) (A) (A) (A) (A) (A)
                 (A) (A) (A) (A) (A) (A) (A) (A) (A) (A) (A) (A)
                 (A) (A) (A) (A) (A) (A) (A) (A) (A) (A) (A) (A)
                 (A) (A) (A) (A) (A) (A) (A) (A) (A) (A) (A) (A)
                 (A) (A) (A) (A) (A) (A) (A) (A) (A) (A) (A) (A)
                 (A) (A) (A) (A) (A) (A) (A) (A) (A) (A) (A) (A)
                 (A) (A) (A) (A) (A) (A) (A) (A) (A) (A) (A) (A)
                 (A) (A) (A) (A) (A) (A) (A) (A) (A) (A) (A) (A)
                 (A) (A) (A) (A) (A) (A) (A) (A) (A) (A) (A) (A)
                 (A) (A) (A) (A) (A) (A) (A) (A) (A) (A) (A) (A)
                 (A) (A) (A) (A) (A) (A) (A) (A) (A) (A) (A) (A)
                 (A) (A) (A) (A) (A) (A) (A) (A) (A) (A) (A) (A)
                 (A) (A) (A) (A) (A) (A) (A) (A) (A) (A) (A) (A)
                 (A) (A) (A) (A) (A) (A) (A) (A) (A) (A) (A) (A)
                 (A) (A) (A) (A) (A) (A) (A) (A) (A) (A) (A) (A)
                 (A) (A) (A) (A) (A) (A) (A) (A) (A) (A) (A) (A)
                 (A) (A) (A) (A) (A) (A) (A) (A) (A) (A) (A) (A)
                 (A) (A) (A) (A) (A) (A) (A) (A) (A) (A) (A) (A)
                 (A) (A) (A) (A) (A) (A) (A) (A) (A) (A) (A) (A)
                 (A) (A) (A) (A) (A) (A) (A) (A) (A) (A) (A) (A)
                 (A) (A) (A) (A) (A) (A) (A) (A) (A) (A) (A) (A)
                 (A) (A) (A) (A) (A) (A) (A) (A) (A) (A) (A) (A)
                 (A) (A) (A) (A) (A) (A) (A) (A) (A) (A) (A) (A)
                 (A) (A) (A) (A) (A) (A) (A) (A) (A) (A) (A) (A)
                 (A) (A) (A) (A) (A) (A) (A) (A) (A) (A) (A) (A)
                 (A) (A) (A) (A) (A) (A) (A) (A) (A) (A) (A) (A)
                 (A) (A) (A) (A) (A) (A) (A) (A) (A) (A) (A) (A)
                 (A) (A) (A) (A) (A) (A) (A) (A) (A) (A) (A) (A)
                 (A) (A) (A) (A) (A) (A) (A) (A) (A) (A) (A) (A)
                 (A) (A) (A) (A) (A) (A) (A) (A) (A) (A) (A) (A)
                 (A) (A) (A) (A) (A) (A) (A) (A) (A) (A) (A)
 The electronic state is 1-A.
 Alpha  occ. eigenvalues --  -88.97075 -14.37502 -14.37498 -14.31172 -10.24640
 Alpha  occ. eigenvalues --  -10.24595 -10.21588 -10.21534 -10.20796 -10.20760
 Alpha  occ. eigenvalues --  -10.20322 -10.20261 -10.20231 -10.19959 -10.19399
 Alpha  occ. eigenvalues --  -10.19149 -10.19083 -10.18971 -10.18962 -10.18941
 Alpha  occ. eigenvalues --  -10.18917 -10.18914 -10.18860 -10.18844 -10.18801
 Alpha  occ. eigenvalues --  -10.18679 -10.18565 -10.18378 -10.18330 -10.18232
 Alpha  occ. eigenvalues --  -10.18223 -10.18141 -10.18085  -8.02571  -5.99115
 Alpha  occ. eigenvalues --   -5.98555  -5.98290  -1.00430  -0.88944  -0.88565
 Alpha  occ. eigenvalues --   -0.87919  -0.86729  -0.84916  -0.83687  -0.81150
 Alpha  occ. eigenvalues --   -0.79128  -0.77376  -0.76330  -0.74794  -0.74088
 Alpha  occ. eigenvalues --   -0.73981  -0.73044  -0.71513  -0.68804  -0.68766
 Alpha  occ. eigenvalues --   -0.65577  -0.64299  -0.62962  -0.61869  -0.61454
 Alpha  occ. eigenvalues --   -0.59564  -0.58965  -0.57628  -0.57396  -0.56466
 Alpha  occ. eigenvalues --   -0.55057  -0.51253  -0.51005  -0.50313  -0.49478
 Alpha  occ. eigenvalues --   -0.49033  -0.48242  -0.47106  -0.46729  -0.45334
 Alpha  occ. eigenvalues --   -0.45210  -0.44799  -0.44402  -0.44158  -0.43638
 Alpha  occ. eigenvalues --   -0.43421  -0.43027  -0.42837  -0.41759  -0.41420
 Alpha  occ. eigenvalues --   -0.41287  -0.40646  -0.39311  -0.39138  -0.38704
 Alpha  occ. eigenvalues --   -0.38451  -0.38151  -0.38061  -0.37658  -0.37131
 Alpha  occ. eigenvalues --   -0.36230  -0.35746  -0.35283  -0.34914  -0.34420
 Alpha  occ. eigenvalues --   -0.34323  -0.34287  -0.33613  -0.33091  -0.32460
 Alpha  occ. eigenvalues --   -0.32058  -0.31799  -0.30818  -0.29376  -0.28435
 Alpha  occ. eigenvalues --   -0.26900  -0.25807  -0.24771  -0.24736  -0.24359
 Alpha  occ. eigenvalues --   -0.23381  -0.22389  -0.18907
 Alpha virt. eigenvalues --   -0.09901  -0.04428  -0.01665  -0.00671  -0.00284
 Alpha virt. eigenvalues --    0.00178   0.00987   0.01623   0.02685   0.06041
 Alpha virt. eigenvalues --    0.06211   0.08051   0.08231   0.09815   0.10123
 Alpha virt. eigenvalues --    0.10836   0.11676   0.12492   0.12764   0.13183
 Alpha virt. eigenvalues --    0.13601   0.14208   0.14604   0.15544   0.15699
 Alpha virt. eigenvalues --    0.16178   0.16545   0.16932   0.17256   0.17808
 Alpha virt. eigenvalues --    0.18243   0.18592   0.18944   0.19113   0.19488
 Alpha virt. eigenvalues --    0.19682   0.20798   0.21181   0.21776   0.22189
 Alpha virt. eigenvalues --    0.22835   0.23128   0.23891   0.24240   0.24495
 Alpha virt. eigenvalues --    0.25103   0.25402   0.26351   0.26726   0.27414
 Alpha virt. eigenvalues --    0.27483   0.27844   0.28060   0.28641   0.29468
 Alpha virt. eigenvalues --    0.30417   0.31325   0.32541   0.33209   0.33889
 Alpha virt. eigenvalues --    0.34279   0.35100   0.35497   0.36216   0.36867
 Alpha virt. eigenvalues --    0.37612   0.39012   0.40257   0.41258   0.42818
 Alpha virt. eigenvalues --    0.44132   0.45211   0.47178   0.48990   0.49396
 Alpha virt. eigenvalues --    0.49504   0.49994   0.50793   0.51204   0.51321
 Alpha virt. eigenvalues --    0.51789   0.52109   0.52778   0.53212   0.53351
 Alpha virt. eigenvalues --    0.53729   0.54051   0.54449   0.55050   0.55323
 Alpha virt. eigenvalues --    0.55472   0.56032   0.56217   0.56643   0.56876
 Alpha virt. eigenvalues --    0.57214   0.57619   0.58346   0.58509   0.58962
 Alpha virt. eigenvalues --    0.59305   0.59419   0.59608   0.60052   0.60331
 Alpha virt. eigenvalues --    0.60865   0.60981   0.61721   0.62043   0.62450
 Alpha virt. eigenvalues --    0.62559   0.63259   0.63594   0.63986   0.64323
 Alpha virt. eigenvalues --    0.64568   0.64988   0.65488   0.65826   0.66052
 Alpha virt. eigenvalues --    0.67047   0.67476   0.67771   0.68435   0.69075
 Alpha virt. eigenvalues --    0.69559   0.71399   0.72036   0.72534   0.73600
 Alpha virt. eigenvalues --    0.75080   0.75441   0.75781   0.76074   0.76840
 Alpha virt. eigenvalues --    0.77122   0.78224   0.78707   0.78981   0.79315
 Alpha virt. eigenvalues --    0.79512   0.80977   0.81349   0.81678   0.82156
 Alpha virt. eigenvalues --    0.82797   0.83267   0.83760   0.84531   0.84574
 Alpha virt. eigenvalues --    0.84732   0.85656   0.85980   0.86594   0.86887
 Alpha virt. eigenvalues --    0.87501   0.87912   0.88096   0.89189   0.89405
 Alpha virt. eigenvalues --    0.89663   0.90974   0.91083   0.91193   0.91405
 Alpha virt. eigenvalues --    0.91742   0.92018   0.92454   0.93347   0.94235
 Alpha virt. eigenvalues --    0.95129   0.95845   0.96176   0.96772   0.97030
 Alpha virt. eigenvalues --    0.97258   0.98007   0.98065   0.98803   0.99100
 Alpha virt. eigenvalues --    0.99251   0.99826   1.00652   1.01241   1.01664
 Alpha virt. eigenvalues --    1.02350   1.02774   1.04206   1.04937   1.05761
 Alpha virt. eigenvalues --    1.06902   1.07385   1.08264   1.09371   1.09949
 Alpha virt. eigenvalues --    1.11122   1.12149   1.12405   1.13417   1.14431
 Alpha virt. eigenvalues --    1.14741   1.16305   1.16859   1.17568   1.18192
 Alpha virt. eigenvalues --    1.19131   1.20921   1.21938   1.22132   1.23014
 Alpha virt. eigenvalues --    1.23852   1.24355   1.25771   1.26390   1.27060
 Alpha virt. eigenvalues --    1.29840   1.30400   1.31044   1.33785   1.34138
 Alpha virt. eigenvalues --    1.34468   1.35102   1.37297   1.37597   1.38757
 Alpha virt. eigenvalues --    1.39865   1.41346   1.41448   1.42229   1.42451
 Alpha virt. eigenvalues --    1.43763   1.45589   1.45971   1.46215   1.46773
 Alpha virt. eigenvalues --    1.47466   1.47939   1.48808   1.48898   1.49687
 Alpha virt. eigenvalues --    1.50033   1.51100   1.52137   1.52674   1.53149
 Alpha virt. eigenvalues --    1.54532   1.56256   1.57785   1.58326   1.60915
 Alpha virt. eigenvalues --    1.61795   1.64332   1.64835   1.66745   1.68282
 Alpha virt. eigenvalues --    1.69733   1.71926   1.72195   1.73479   1.73788
 Alpha virt. eigenvalues --    1.75331   1.76000   1.76684   1.77560   1.77884
 Alpha virt. eigenvalues --    1.79394   1.80304   1.80446   1.80919   1.81301
 Alpha virt. eigenvalues --    1.81961   1.82497   1.83699   1.84160   1.85080
 Alpha virt. eigenvalues --    1.85935   1.86640   1.87805   1.89666   1.90079
 Alpha virt. eigenvalues --    1.90770   1.90916   1.91483   1.92004   1.92322
 Alpha virt. eigenvalues --    1.92965   1.93542   1.94223   1.95365   1.95850
 Alpha virt. eigenvalues --    1.96379   1.98427   2.00104   2.00247   2.01264
 Alpha virt. eigenvalues --    2.01617   2.02906   2.04230   2.04336   2.04973
 Alpha virt. eigenvalues --    2.05765   2.06391   2.08155   2.09309   2.09744
 Alpha virt. eigenvalues --    2.11449   2.12373   2.12485   2.13721   2.14390
 Alpha virt. eigenvalues --    2.15376   2.16542   2.17931   2.18962   2.19604
 Alpha virt. eigenvalues --    2.19667   2.20708   2.21335   2.23514   2.23744
 Alpha virt. eigenvalues --    2.24483   2.25162   2.25527   2.26014   2.26451
 Alpha virt. eigenvalues --    2.26885   2.27598   2.27688   2.28528   2.29350
 Alpha virt. eigenvalues --    2.30189   2.31463   2.31620   2.32004   2.32335
 Alpha virt. eigenvalues --    2.34039   2.34650   2.35518   2.37600   2.38498
 Alpha virt. eigenvalues --    2.39611   2.40018   2.42148   2.42558   2.43332
 Alpha virt. eigenvalues --    2.43728   2.44039   2.45593   2.47399   2.50059
 Alpha virt. eigenvalues --    2.50518   2.53189   2.54014   2.56151   2.57612
 Alpha virt. eigenvalues --    2.58753   2.59136   2.61220   2.61645   2.62249
 Alpha virt. eigenvalues --    2.62891   2.64656   2.66013   2.66594   2.67115
 Alpha virt. eigenvalues --    2.68013   2.69125   2.70264   2.71401   2.73853
 Alpha virt. eigenvalues --    2.74721   2.75264   2.75425   2.75781   2.77632
 Alpha virt. eigenvalues --    2.78656   2.80975   2.82494   2.83929   2.85310
 Alpha virt. eigenvalues --    2.87505   2.89050   2.92023   2.92886   2.94359
 Alpha virt. eigenvalues --    2.96677   2.97995   3.00343   3.02028   3.06339
 Alpha virt. eigenvalues --    3.08594   3.17241   3.28093   3.30596   3.33891
 Alpha virt. eigenvalues --    3.37435   3.45568   3.51896   3.78533   3.85613
 Alpha virt. eigenvalues --    4.01085   4.02311   4.06978   4.08634   4.09798
 Alpha virt. eigenvalues --    4.10665   4.11301   4.12519   4.15229   4.15587
 Alpha virt. eigenvalues --    4.16207   4.17865   4.18756   4.20802   4.22926
 Alpha virt. eigenvalues --    4.24026   4.29053   4.30609   4.33791   4.34334
 Alpha virt. eigenvalues --    4.35999   4.37858   4.42517   4.43264   4.48784
 Alpha virt. eigenvalues --    4.52277   4.60719   4.70088   4.79650   4.81777
 Alpha virt. eigenvalues --    4.86490
          Condensed to atoms (all electrons):
 Mulliken charges:
               1
     1  C   -0.181967
     2  C    0.097258
     3  C   -0.265464
     4  C    0.105419
     5  C    0.082446
     6  C   -0.199963
     7  H    0.172453
     8  H    0.125440
     9  H    0.130715
    10  C   -0.061173
    11  C    0.104164
    12  C   -0.204193
    13  C   -0.131930
    14  C   -0.136407
    15  C   -0.186299
    16  C    0.073990
    17  H    0.124728
    18  H    0.127118
    19  H    0.128723
    20  H    0.130955
    21  C   -0.436955
    22  H    0.144310
    23  H    0.144024
    24  H    0.159610
    25  C   -0.436829
    26  H    0.141376
    27  H    0.144747
    28  H    0.158684
    29  C    0.100469
    30  C    0.214875
    31  C   -0.199451
    32  C    0.207959
    33  C   -0.204219
    34  H    0.143495
    35  C    0.104232
    36  H    0.145201
    37  N   -0.593317
    38  N   -0.587578
    39  S    0.564171
    40  C    0.087533
    41  C   -0.162754
    42  C   -0.172471
    43  C   -0.192217
    44  H    0.167019
    45  C   -0.190371
    46  H    0.128187
    47  C    0.175707
    48  H    0.121919
    49  H    0.126521
    50  C   -0.342777
    51  H    0.157674
    52  H    0.135847
    53  C   -0.131472
    54  H    0.120850
    55  H    0.144651
    56  N   -0.714455
    57  H    0.292440
    58  H    0.297349
 Sum of Mulliken charges =  -0.00000
 Mulliken charges with hydrogens summed into heavy atoms:
               1
     1  C   -0.009514
     2  C    0.097258
     3  C   -0.140024
     4  C    0.105419
     5  C    0.082446
     6  C   -0.069248
    10  C   -0.061173
    11  C    0.104164
    12  C   -0.079466
    13  C   -0.004812
    14  C   -0.007684
    15  C   -0.055344
    16  C    0.073990
    21  C    0.010989
    25  C    0.007978
    29  C    0.100469
    30  C    0.214875
    31  C   -0.055955
    32  C    0.207959
    33  C   -0.059018
    35  C    0.104232
    37  N   -0.593317
    38  N   -0.587578
    39  S    0.564171
    40  C    0.087533
    41  C    0.004266
    42  C   -0.044284
    43  C   -0.070298
    45  C   -0.063849
    47  C    0.175707
    50  C   -0.049256
    53  C    0.134030
    56  N   -0.124666
 Electronic spatial extent (au):  <R**2>=          27602.1349
 Charge=             -0.0000 electrons
 Dipole moment (field-independent basis, Debye):
    X=             -0.0003    Y=             -0.6147    Z=              0.3622  Tot=              0.7134
 Quadrupole moment (field-independent basis, Debye-Ang):
   XX=           -174.9990   YY=           -185.8515   ZZ=           -201.5014
   XY=             13.2680   XZ=              5.6297   YZ=             -2.2428
 Traceless Quadrupole moment (field-independent basis, Debye-Ang):
   XX=             12.4516   YY=              1.5991   ZZ=            -14.0508
   XY=             13.2680   XZ=              5.6297   YZ=             -2.2428
 Octapole moment (field-independent basis, Debye-Ang**2):
  XXX=             73.0893  YYY=             21.7236  ZZZ=             16.2868  XYY=            -42.6723
  XXY=            121.2313  XXZ=             74.7218  XZZ=             47.4679  YZZ=              0.6071
  YYZ=              0.7558  XYZ=             -0.3695
 Hexadecapole moment (field-independent basis, Debye-Ang**3):
 XXXX=         -30359.2888 YYYY=          -3436.4169 ZZZZ=           -593.3561 XXXY=           1483.3232
 XXXZ=            753.9985 YYYX=             81.6272 YYYZ=              8.3246 ZZZX=            106.3365
 ZZZY=             -4.1534 XXYY=          -6279.8131 XXZZ=          -5711.7290 YYZZ=           -706.9233
 XXYZ=           -159.4282 YYXZ=              8.4370 ZZXY=            -17.4368
 N-N= 3.077733788270D+03 E-N=-1.007717573090D+04  KE= 1.668728849673D+03
 No NMR shielding tensors so no spin-rotation constants.
 Leave Link  601 at Thu Mar 14 10:04:02 2024, MaxMem= 32212254720 cpu:               6.6 elap:               0.2
 (Enter /home/<user>/g16/l9999.exe)
 Electronic transition elements 
                 1             2             3 
      1  -0.168252D+04 -0.168249D+04 -0.168247D+04
      2  -0.270480D+01  0.180948D+00  0.583777D-01
      3   0.874028D-01 -0.308679D+00  0.350047D-01
      4   0.596535D-01  0.165393D-01  0.270355D-02
      5   0.209823D+00 -0.218529D-01 -0.548909D-02
      6  -0.619158D-02  0.380120D-01 -0.543852D-02
      7  -0.473129D-02 -0.157124D-02  0.114566D-04
      8  -0.148456D-01  0.412878D-02 -0.146676D-01
      9  -0.165810D+00  0.289548D-01 -0.487678D-01
     10  -0.216464D-01 -0.107465D+00 -0.178777D+00
     11   0.322098D-01 -0.194567D+01  0.413369D-02
     12   0.120231D-01  0.214804D+00  0.178101D-01
     13   0.167359D-02 -0.775710D-02 -0.803053D-02
     14  -0.126926D+00  0.189300D+00 -0.563776D-01
     15  -0.211382D-01  0.282678D-01 -0.113936D-01
     16   0.192851D-01  0.293387D-01  0.195540D-02

 Test job not archived.
 1\1\GINC-PB-207\FOpt\RB3LYP TD-FC\6-31G(d)\C29H25N3S1\PB-207\14-Mar-20
 24\0\\#p opt td=(nstates=3) b3lyp/6-31g(d)\\S1OPT\\0,1\C,-2.4513895192
 ,1.6436141506,-0.528532471\C,-1.7676698136,0.4143389363,-0.2739543429\
 C,-2.5618501263,-0.7338153666,0.0275290228\C,-3.9351270497,-0.65093723
 41,0.0550780759\C,-4.5898068935,0.5784238294,-0.2208552175\C,-3.832530
 3914,1.7240556036,-0.5117016568\H,-1.854870624,2.5228984655,-0.7287227
 862\H,-2.0762970029,-1.6710946775,0.2763421393\H,-4.3195033991,2.67286
 46286,-0.7203566403\C,-4.9541955153,-1.7474371121,0.3672224501\C,-6.26
 51864293,-0.9774818883,0.2173457843\C,-7.5674883964,-1.4327423999,0.37
 10779903\C,-8.6286563994,-0.5373150966,0.1837006004\C,-8.3884649895,0.
 8029327021,-0.1547148806\C,-7.0868685189,1.2702198718,-0.3115072415\C,
 -6.021845196,0.3758212724,-0.1248463213\H,-7.7711706735,-2.467806859,0
 .6336599512\H,-9.6512841674,-0.8847379457,0.3022126891\H,-9.2265854827
 ,1.4796152527,-0.2948962549\H,-6.9006932785,2.3080297682,-0.573444523\
 C,-4.7808825561,-2.2866443751,1.8053166532\H,-5.5589541133,-3.02256602
 05,2.0382587824\H,-3.8083598557,-2.778923243,1.9174882322\H,-4.8414052
 99,-1.4787264326,2.54118301\C,-4.8642071198,-2.9089853267,-0.647984210
 3\H,-3.893275319,-3.4114592005,-0.5726503896\H,-5.6437191768,-3.654337
 2342,-0.453060595\H,-4.9837425401,-2.5483954973,-1.6745350896\C,-0.313
 6706475,0.3177890709,-0.3253882494\C,0.5683650839,1.4498681583,-0.2205
 373098\C,0.299228583,-0.9519417667,-0.498300478\C,1.9993956141,1.26978
 20342,-0.247344481\C,1.6700905036,-1.123603473,-0.5321864911\H,-0.3243
 268459,-1.821521358,-0.6714133483\C,2.5763,-0.0425135569,-0.389953135\
 H,2.0579343326,-2.1163452772,-0.7285936521\N,0.1687345495,2.7297786303
 ,-0.0496358109\N,2.7116287468,2.4060714771,-0.0905796723\S,1.581543113
 ,3.6433101286,0.0583846771\C,4.0164545812,-0.295260161,-0.4010872556\C
 ,4.9619599965,0.7038919459,-0.7447711901\C,4.5279290515,-1.5798065218,
 -0.0806625672\C,6.3200874072,0.4194223557,-0.7831382063\H,4.6062731081
 ,1.698044273,-0.9784983172\C,5.8875254544,-1.8460648382,-0.1073143101\
 H,3.8498819206,-2.3673964255,0.2300978377\C,6.8173270382,-0.8542880748
 ,-0.4655804543\H,7.0162295159,1.2050414675,-1.0694262426\H,6.243364389
 5,-2.8397342749,0.1562717574\C,8.2982872949,-1.139659227,-0.4560555879
 \H,8.4939258367,-2.1886402704,-0.7059125974\H,8.7988889535,-0.52882353
 97,-1.220087028\C,8.9487376449,-0.8497689576,0.9113248337\H,8.74464691
 35,0.2000579522,1.1874758059\H,8.4653924717,-1.4727823324,1.6735788363
 \N,10.3711485624,-1.2029131311,0.8768331413\H,10.8699484038,-0.5531279
 835,0.2694680071\H,10.7765862689,-1.0857888954,1.8041257278\\Version=E
 S64L-G16RevC.01\State=1-A\HF=-1682.5946176\RMSD=6.167e-09\RMSF=3.556e-
 06\Dipole=-1.9572361,-1.7303392,0.0957407\PG=C01 [X(C29H25N3S1)]\\@


 Sometimes the fool who rushes in gets the job done.
                                    -- Al Bernstein
 Job cpu time:       0 days 21 hours 56 minutes 51.2 seconds.
 Elapsed time:       0 days  0 hours 44 minutes  4.7 seconds.
 File lengths (MBytes):  RWF=   1534 Int=      0 D2E=      0 Chk=     62 Scr=      1
 Normal termination of Gaussian 16 at Thu Mar 14 10:04:02 2024.
