 Entering Gaussian System, Link 0=g16
 Initial command:
 /home/<user>/g16/l1.exe "/media/<user>/Gaussian/g16/scratch/Gau-208339.inp" -scrdir="/media/<user>/Gaussian/g16/scratch/"
 Default is to use a total of  96 processors:
                               96 via shared-memory
                                1 via Linda
 Entering Link 1 = /home/<user>/g16/l1.exe PID=    208341.
  
 Copyright (c) 1988-2019, Gaussian, Inc.  All Rights Reserved.
  
 This is part of the Gaussian(R) 16 program.  It is based on
 the Gaussian(R) 09 system (copyright 2009, Gaussian, Inc.),
 the Gaussian(R) 03 system (copyright 2003, Gaussian, Inc.),
 the Gaussian(R) 98 system (copyright 1998, Gaussian, Inc.),
 the Gaussian(R) 94 system (copyright 1995, Gaussian, Inc.),
 the Gaussian 92(TM) system (copyright 1992, Gaussian, Inc.),
 the Gaussian 90(TM) system (copyright 1990, Gaussian, Inc.),
 the Gaussian 88(TM) system (copyright 1988, Gaussian, Inc.),
 the Gaussian 86(TM) system (copyright 1986, Carnegie Mellon
 University), and the Gaussian 82(TM) system (copyright 1983,
 Carnegie Mellon University). Gaussian is a federally registered
 trademark of Gaussian, Inc.
  
 This software contains proprietary and confidential information,
 including trade secrets, belonging to Gaussian, Inc.
  
 This software is provided under written license and may be
 used, copied, transmitted, or stored only in accord with that
 written license.
  
 The following legend is applicable only to US Government
 contracts under FAR:
  
                    RESTRICTED RIGHTS LEGEND
  
 Use, reproduction and disclosure by the US Government is
 subject to restrictions as set forth in subparagraphs (a)
 and (c) of the Commercial Computer Software - Restricted
 Rights clause in FAR 52.227-19.
  
 Gaussian, Inc.
 340 Quinnipiac St., Bldg. 40, Wallingford CT 06492
  
  
 ---------------------------------------------------------------
 Warning -- This program may not be used in any manner that
 competes with the business of Gaussian, Inc. or will provide
 assistance to any competitor of Gaussian, Inc.  The licensee
 of this program is prohibited from giving any competitor of
 Gaussian, Inc. access to this program.  By using this program,
 the user acknowledges that Gaussian, Inc. is engaged in the
 business of creating and licensing software in the field of
 computational chemistry and represents and warrants to the
 licensee that it is not a competitor of Gaussian, Inc. and that
 it will not use this program in any manner prohibited above.
 ---------------------------------------------------------------
  

 Cite this work as:
 Gaussian 16, Revision C.01,
 M. J. Frisch, G. W. Trucks, H. B. Schlegel, G. E. Scuseria, 
 M. A. Robb, J. R. Cheeseman, G. Scalmani, V. Barone, 
 G. A. Petersson, H. Nakatsuji, X. Li, M. Caricato, A. V. Marenich, 
 J. Bloino, B. G. Janesko, R. Gomperts, B. Mennucci, H. P. Hratchian, 
 J. V. Ortiz, A. F. Izmaylov, J. L. Sonnenberg, D. Williams-Young, 
 F. Ding, F. Lipparini, F. Egidi, J. Goings, B. Peng, A. Petrone, 
 T. Henderson, D. Ranasinghe, V. G. Zakrzewski, J. Gao, N. Rega, 
 G. Zheng, W. Liang, M. Hada, M. Ehara, K. Toyota, R. Fukuda, 
 J. Hasegawa, M. Ishida, T. Nakajima, Y. Honda, O. Kitao, H. Nakai, 
 T. Vreven, K. Throssell, J. A. Montgomery, Jr., J. E. Peralta, 
 F. Ogliaro, M. J. Bearpark, J. J. Heyd, E. N. Brothers, K. N. Kudin, 
 V. N. Staroverov, T. A. Keith, R. Kobayashi, J. Normand, 
 K. Raghavachari, A. P. Rendell, J. C. Burant, S. S. Iyengar, 
 J. Tomasi, M. Cossi, J. M. Millam, M. Klene, C. Adamo, R. Cammi, 
 J. W. Ochterski, R. L. Martin, K. Morokuma, O. Farkas, 
 J. B. Foresman, and D. J. Fox, Gaussian, Inc., Wallingford CT, 2019.
 
 ******************************************
 Gaussian 16:  ES64L-G16RevC.01  3-Jul-2019
                14-Mar-2024 
 ******************************************
 %mem=240GB
 %nprocshared=30
 Will use up to   30 processors via shared memory.
 %chk=FBTP_T1abs.chk
 Default route: IOp(8/117=-99) IOp(7/127=-99)
 ---------------------------------
 #p td=(nstates=10) m062x/def2tzvp
 ---------------------------------
 1/38=1,172=1/1;
 2/12=2,17=6,18=5,40=1/2;
 3/5=44,7=101,11=9,25=1,30=1,74=-55/1,2,3,8;
 4//1;
 5/5=2,38=5/2;
 8/6=1,10=1,108=10,117=-99/1;
 9/41=10,42=1,70=2/14;
 6/7=2,8=2,9=2,10=2/1;
 99/5=1,9=1/99;
 Leave Link    1 at Thu Mar 14 09:28:56 2024, MaxMem= 32212254720 cpu:               1.3 elap:               0.0
 (Enter /home/<user>/g16/l101.exe)
 -----
 T1ABS
 -----
 Symbolic Z-matrix:
 Charge =  0 Multiplicity = 3
 C                    -2.48016   1.68709  -0.25325 
 C                    -1.78061   0.44452  -0.17483 
 C                    -2.5687   -0.74105  -0.03588 
 C                    -3.94379  -0.67283   0.01614 
 C                    -4.6096    0.57202  -0.07709 
 C                    -3.86349   1.7504   -0.21216 
 H                    -1.90513   2.59704  -0.35173 
 H                    -2.0818   -1.70388   0.07421 
 H                    -4.35839   2.71527  -0.28733 
 C                    -4.95083  -1.81331   0.17822 
 C                    -6.27189  -1.04458   0.15062 
 C                    -7.56818  -1.53489   0.25054 
 C                    -8.64273  -0.63798   0.20189 
 C                    -8.41931   0.73648   0.05479 
 C                    -7.12148   1.23733  -0.04616 
 C                    -6.04715   0.34189   0.00186 
 H                    -7.75524  -2.59997   0.36564 
 H                    -9.65994  -1.01233   0.27931 
 H                    -9.26473   1.4182    0.01906 
 H                    -6.95129   2.3047   -0.16024 
 C                    -4.75781  -2.54991   1.52291 
 H                    -5.52786  -3.31843   1.65681 
 H                    -3.78021  -3.04457   1.55666 
 H                    -4.81802  -1.85463   2.36613 
 C                    -4.85963  -2.81809  -0.99197 
 H                    -3.88378  -3.31739  -0.99799 
 H                    -5.6313   -3.59105  -0.89953 
 H                    -4.9925   -2.31567  -1.95537 
 C                    -0.34021   0.36307  -0.24054 
 C                     0.56193   1.47524  -0.0408 
 C                     0.30891  -0.90477  -0.53328 
 C                     2.01933   1.29173  -0.08501 
 C                     1.65726  -1.07077  -0.57447 
 H                    -0.3132   -1.75148  -0.79631 
 C                     2.60579  -0.00214  -0.33089 
 H                     2.04188  -2.0413   -0.86488 
 N                     0.1942    2.72275   0.23696 
 N                     2.70393   2.40664   0.16065 
 S                     1.59172   3.63621   0.42332 
 C                     4.03275  -0.27084  -0.35328 
 C                     5.00441   0.74749  -0.53942 
 C                     4.52229  -1.59618  -0.20055 
 C                     6.3586    0.44796  -0.58099 
 H                     4.67591   1.77084  -0.65813 
 C                     5.8793   -1.87805  -0.23162 
 H                     3.83125  -2.41136  -0.01632 
 C                     6.83203  -0.86494  -0.42785 
 H                     7.07136   1.25378  -0.74395 
 H                     6.21286  -2.90509  -0.0997 
 C                     8.30939  -1.17388  -0.42497 
 H                     8.49629  -2.18155  -0.81321 
 H                     8.83587  -0.47351  -1.0883 
 C                     8.93162  -1.08468   0.98144 
 H                     8.73462  -0.07953   1.39568 
 H                     8.42302  -1.79857   1.64075 
 N                     10.35011  -1.45197   0.92962 
 H                     10.86999  -0.73611   0.42246 
 H                     10.73696  -1.46287   1.87205 
 
 ITRead=  0  0  0  0  0  0  0  0  0  0  0  0  0  0  0  0  0  0  0  0
 ITRead=  0  0  0  0  0  0  0  0  0  0  0  0  0  0  0  0  0  0  0  0
 ITRead=  0  0  0  0  0  0  0  0  0  0  0  0  0  0  0  0  0  0
 MicOpt= -1 -1 -1 -1 -1 -1 -1 -1 -1 -1 -1 -1 -1 -1 -1 -1 -1 -1 -1 -1
 MicOpt= -1 -1 -1 -1 -1 -1 -1 -1 -1 -1 -1 -1 -1 -1 -1 -1 -1 -1 -1 -1
 MicOpt= -1 -1 -1 -1 -1 -1 -1 -1 -1 -1 -1 -1 -1 -1 -1 -1 -1 -1
 NAtoms=     58 NQM=       58 NQMF=       0 NMMI=      0 NMMIF=      0
                NMic=       0 NMicF=      0.
                    Isotopes and Nuclear Properties:
 (Nuclear quadrupole moments (NQMom) in fm**2, nuclear magnetic moments (NMagM)
  in nuclear magnetons)

  Atom         1           2           3           4           5           6           7           8           9          10
 IAtWgt=          12          12          12          12          12          12           1           1           1          12
 AtmWgt=  12.0000000  12.0000000  12.0000000  12.0000000  12.0000000  12.0000000   1.0078250   1.0078250   1.0078250  12.0000000
 NucSpn=           0           0           0           0           0           0           1           1           1           0
 AtZEff=  -0.0000000  -0.0000000  -0.0000000  -0.0000000  -0.0000000  -0.0000000  -0.0000000  -0.0000000  -0.0000000  -0.0000000
 NQMom=    0.0000000   0.0000000   0.0000000   0.0000000   0.0000000   0.0000000   0.0000000   0.0000000   0.0000000   0.0000000
 NMagM=    0.0000000   0.0000000   0.0000000   0.0000000   0.0000000   0.0000000   2.7928460   2.7928460   2.7928460   0.0000000
 AtZNuc=   6.0000000   6.0000000   6.0000000   6.0000000   6.0000000   6.0000000   1.0000000   1.0000000   1.0000000   6.0000000

  Atom        11          12          13          14          15          16          17          18          19          20
 IAtWgt=          12          12          12          12          12          12           1           1           1           1
 AtmWgt=  12.0000000  12.0000000  12.0000000  12.0000000  12.0000000  12.0000000   1.0078250   1.0078250   1.0078250   1.0078250
 NucSpn=           0           0           0           0           0           0           1           1           1           1
 AtZEff=  -0.0000000  -0.0000000  -0.0000000  -0.0000000  -0.0000000  -0.0000000  -0.0000000  -0.0000000  -0.0000000  -0.0000000
 NQMom=    0.0000000   0.0000000   0.0000000   0.0000000   0.0000000   0.0000000   0.0000000   0.0000000   0.0000000   0.0000000
 NMagM=    0.0000000   0.0000000   0.0000000   0.0000000   0.0000000   0.0000000   2.7928460   2.7928460   2.7928460   2.7928460
 AtZNuc=   6.0000000   6.0000000   6.0000000   6.0000000   6.0000000   6.0000000   1.0000000   1.0000000   1.0000000   1.0000000

  Atom        21          22          23          24          25          26          27          28          29          30
 IAtWgt=          12           1           1           1          12           1           1           1          12          12
 AtmWgt=  12.0000000   1.0078250   1.0078250   1.0078250  12.0000000   1.0078250   1.0078250   1.0078250  12.0000000  12.0000000
 NucSpn=           0           1           1           1           0           1           1           1           0           0
 AtZEff=  -0.0000000  -0.0000000  -0.0000000  -0.0000000  -0.0000000  -0.0000000  -0.0000000  -0.0000000  -0.0000000  -0.0000000
 NQMom=    0.0000000   0.0000000   0.0000000   0.0000000   0.0000000   0.0000000   0.0000000   0.0000000   0.0000000   0.0000000
 NMagM=    0.0000000   2.7928460   2.7928460   2.7928460   0.0000000   2.7928460   2.7928460   2.7928460   0.0000000   0.0000000
 AtZNuc=   6.0000000   1.0000000   1.0000000   1.0000000   6.0000000   1.0000000   1.0000000   1.0000000   6.0000000   6.0000000

  Atom        31          32          33          34          35          36          37          38          39          40
 IAtWgt=          12          12          12           1          12           1          14          14          32          12
 AtmWgt=  12.0000000  12.0000000  12.0000000   1.0078250  12.0000000   1.0078250  14.0030740  14.0030740  31.9720718  12.0000000
 NucSpn=           0           0           0           1           0           1           2           2           0           0
 AtZEff=  -0.0000000  -0.0000000  -0.0000000  -0.0000000  -0.0000000  -0.0000000  -0.0000000  -0.0000000  -0.0000000  -0.0000000
 NQMom=    0.0000000   0.0000000   0.0000000   0.0000000   0.0000000   0.0000000   2.0440000   2.0440000   0.0000000   0.0000000
 NMagM=    0.0000000   0.0000000   0.0000000   2.7928460   0.0000000   2.7928460   0.4037610   0.4037610   0.0000000   0.0000000
 AtZNuc=   6.0000000   6.0000000   6.0000000   1.0000000   6.0000000   1.0000000   7.0000000   7.0000000  16.0000000   6.0000000

  Atom        41          42          43          44          45          46          47          48          49          50
 IAtWgt=          12          12          12           1          12           1          12           1           1          12
 AtmWgt=  12.0000000  12.0000000  12.0000000   1.0078250  12.0000000   1.0078250  12.0000000   1.0078250   1.0078250  12.0000000
 NucSpn=           0           0           0           1           0           1           0           1           1           0
 AtZEff=  -0.0000000  -0.0000000  -0.0000000  -0.0000000  -0.0000000  -0.0000000  -0.0000000  -0.0000000  -0.0000000  -0.0000000
 NQMom=    0.0000000   0.0000000   0.0000000   0.0000000   0.0000000   0.0000000   0.0000000   0.0000000   0.0000000   0.0000000
 NMagM=    0.0000000   0.0000000   0.0000000   2.7928460   0.0000000   2.7928460   0.0000000   2.7928460   2.7928460   0.0000000
 AtZNuc=   6.0000000   6.0000000   6.0000000   1.0000000   6.0000000   1.0000000   6.0000000   1.0000000   1.0000000   6.0000000

  Atom        51          52          53          54          55          56          57          58
 IAtWgt=           1           1          12           1           1          14           1           1
 AtmWgt=   1.0078250   1.0078250  12.0000000   1.0078250   1.0078250  14.0030740   1.0078250   1.0078250
 NucSpn=           1           1           0           1           1           2           1           1
 AtZEff=  -0.0000000  -0.0000000  -0.0000000  -0.0000000  -0.0000000  -0.0000000  -0.0000000  -0.0000000
 NQMom=    0.0000000   0.0000000   0.0000000   0.0000000   0.0000000   2.0440000   0.0000000   0.0000000
 NMagM=    2.7928460   2.7928460   0.0000000   2.7928460   2.7928460   0.4037610   2.7928460   2.7928460
 AtZNuc=   1.0000000   1.0000000   6.0000000   1.0000000   1.0000000   7.0000000   1.0000000   1.0000000
 Leave Link  101 at Thu Mar 14 09:28:56 2024, MaxMem= 32212254720 cpu:               4.1 elap:               0.1
 (Enter /home/<user>/g16/l202.exe)
 Stoichiometry    C29H25N3S(3)
 Framework group  C1[X(C29H25N3S)]
 Deg. of freedom   168
 Full point group                 C1      NOp   1
 Largest Abelian subgroup         C1      NOp   1
 Largest concise Abelian subgroup C1      NOp   1
                         Standard orientation:                         
 ---------------------------------------------------------------------
 Center     Atomic      Atomic             Coordinates (Angstroms)
 Number     Number       Type             X           Y           Z
 ---------------------------------------------------------------------
      1          6           0       -2.480164    1.687094   -0.253245
      2          6           0       -1.780608    0.444522   -0.174830
      3          6           0       -2.568704   -0.741048   -0.035878
      4          6           0       -3.943792   -0.672831    0.016142
      5          6           0       -4.609600    0.572019   -0.077093
      6          6           0       -3.863490    1.750404   -0.212163
      7          1           0       -1.905129    2.597041   -0.351729
      8          1           0       -2.081804   -1.703882    0.074209
      9          1           0       -4.358392    2.715272   -0.287329
     10          6           0       -4.950827   -1.813307    0.178221
     11          6           0       -6.271885   -1.044580    0.150618
     12          6           0       -7.568180   -1.534891    0.250544
     13          6           0       -8.642732   -0.637976    0.201894
     14          6           0       -8.419312    0.736483    0.054786
     15          6           0       -7.121475    1.237331   -0.046161
     16          6           0       -6.047146    0.341885    0.001863
     17          1           0       -7.755236   -2.599974    0.365642
     18          1           0       -9.659944   -1.012331    0.279313
     19          1           0       -9.264732    1.418200    0.019059
     20          1           0       -6.951290    2.304703   -0.160242
     21          6           0       -4.757813   -2.549914    1.522906
     22          1           0       -5.527863   -3.318428    1.656810
     23          1           0       -3.780207   -3.044572    1.556663
     24          1           0       -4.818023   -1.854627    2.366130
     25          6           0       -4.859634   -2.818087   -0.991966
     26          1           0       -3.883776   -3.317393   -0.997990
     27          1           0       -5.631295   -3.591049   -0.899529
     28          1           0       -4.992498   -2.315665   -1.955368
     29          6           0       -0.340210    0.363072   -0.240540
     30          6           0        0.561927    1.475241   -0.040796
     31          6           0        0.308906   -0.904768   -0.533278
     32          6           0        2.019331    1.291728   -0.085011
     33          6           0        1.657257   -1.070767   -0.574465
     34          1           0       -0.313198   -1.751477   -0.796306
     35          6           0        2.605787   -0.002143   -0.330888
     36          1           0        2.041884   -2.041304   -0.864884
     37          7           0        0.194200    2.722749    0.236955
     38          7           0        2.703930    2.406635    0.160651
     39         16           0        1.591720    3.636214    0.423322
     40          6           0        4.032751   -0.270843   -0.353281
     41          6           0        5.004407    0.747494   -0.539424
     42          6           0        4.522290   -1.596183   -0.200552
     43          6           0        6.358600    0.447962   -0.580987
     44          1           0        4.675911    1.770842   -0.658126
     45          6           0        5.879304   -1.878047   -0.231617
     46          1           0        3.831251   -2.411357   -0.016320
     47          6           0        6.832029   -0.864936   -0.427854
     48          1           0        7.071364    1.253778   -0.743954
     49          1           0        6.212864   -2.905092   -0.099701
     50          6           0        8.309393   -1.173881   -0.424969
     51          1           0        8.496287   -2.181546   -0.813211
     52          1           0        8.835867   -0.473512   -1.088296
     53          6           0        8.931621   -1.084677    0.981443
     54          1           0        8.734616   -0.079532    1.395676
     55          1           0        8.423018   -1.798571    1.640746
     56          7           0       10.350110   -1.451970    0.929619
     57          1           0       10.869994   -0.736110    0.422460
     58          1           0       10.736958   -1.462873    1.872051
 ---------------------------------------------------------------------
 Rotational constants (GHZ):           0.3474109           0.0397745           0.0363427
 Leave Link  202 at Thu Mar 14 09:28:56 2024, MaxMem= 32212254720 cpu:               0.1 elap:               0.0
 (Enter /home/<user>/g16/l301.exe)
 Standard basis: def2TZVP (5D, 7F)
 Ernie: Thresh=  0.10000D-02 Tol=  0.10000D-05 Strict=F.
 There are  1344 symmetry adapted cartesian basis functions of A   symmetry.
 There are  1179 symmetry adapted basis functions of A   symmetry.
  1179 basis functions,  1901 primitive gaussians,  1344 cartesian basis functions
   119 alpha electrons      117 beta electrons
       nuclear repulsion energy      3072.8775322190 Hartrees.
 IExCor= 4336 DFT=T Ex+Corr=M062X ExCW=0 ScaHFX=  0.540000
 ScaDFX=  1.000000  1.000000  1.000000  1.000000 ScalE2=  1.000000  1.000000
 IRadAn=      5 IRanWt=     -1 IRanGd=            0 ICorTp=0 IEmpDi=  4
 NAtoms=   58 NActive=   58 NUniq=   58 SFac= 1.00D+00 NAtFMM=   60 NAOKFM=F Big=F
 Integral buffers will be    131072 words long.
 Regular integral format.
 Two-electron integral symmetry is turned on.
 Leave Link  301 at Thu Mar 14 09:28:56 2024, MaxMem= 32212254720 cpu:               0.8 elap:               0.0
 (Enter /home/<user>/g16/l302.exe)
 NPDir=0 NMtPBC=     1 NCelOv=     1 NCel=       1 NClECP=     1 NCelD=      1
         NCelK=      1 NCelE2=     1 NClLst=     1 CellRange=     0.0.
 One-electron integrals computed using PRISM.
 One-electron integral symmetry used in STVInt
   1 Symmetry operations used in ECPInt.
 ECPInt:  NShTT=  108345 NPrTT=  334968 LenC2=   73736 LenP2D=  154985.
 LDataN:  DoStor=T MaxTD1= 6 Len=  172
 NBasis=  1179 RedAO= T EigKep=  4.86D-06  NBF=  1179
 NBsUse=  1179 1.00D-06 EigRej= -1.00D+00 NBFU=  1179
 Precomputing XC quadrature grid using
 IXCGrd= 4 IRadAn=           5 IRanWt=          -1 IRanGd=           0 AccXCQ= 0.00D+00.
 Generated NRdTot=       0 NPtTot=           0 NUsed=           0 NTot=          32
 NSgBfM=  1227  1227  1227  1227  1227 MxSgAt=    58 MxSgA2=    58.
 Leave Link  302 at Thu Mar 14 09:28:58 2024, MaxMem= 32212254720 cpu:              56.4 elap:               1.9
 (Enter /home/<user>/g16/l303.exe)
 DipDrv:  MaxL=1.
 Leave Link  303 at Thu Mar 14 09:28:59 2024, MaxMem= 32212254720 cpu:               4.8 elap:               0.2
 (Enter /home/<user>/g16/l308.exe)
 Leave Link  308 at Thu Mar 14 09:28:59 2024, MaxMem= 32212254720 cpu:               8.7 elap:               0.3
 (Enter /home/<user>/g16/l401.exe)
 ExpMin= 9.52D-02 ExpMax= 6.07D+04 ExpMxC= 2.07D+03 IAcc=3 IRadAn=         5 AccDes= 0.00D+00
 Harris functional with IExCor= 1009 and IRadAn=       5 diagonalized for initial guess.
 HarFok:  IExCor= 1009 AccDes= 0.00D+00 IRadAn=         5 IDoV= 1 UseB2=F ITyADJ=14
 ICtDFT=  3500011 ScaDFX=  1.000000  1.000000  1.000000  1.000000
 FoFCou: FMM=F IPFlag=           0 FMFlag=      100000 FMFlg1=           0
         NFxFlg=           0 DoJE=T BraDBF=F KetDBF=T FulRan=T
         wScrn=  0.000000 ICntrl=       500 IOpCl=  0 I1Cent=   200000004 NGrid=           0
         NMat0=    1 NMatS0=      1 NMatT0=    0 NMatD0=    1 NMtDS0=    0 NMtDT0=    0
 Petite list used in FoFCou.
 Harris En= -1681.70906238798    
 JPrj=0 DoOrth=F DoCkMO=F.
 Initial guess <Sx>= 0.0000 <Sy>= 0.0000 <Sz>= 1.0000 <S**2>= 2.0000 S= 1.0000
 Leave Link  401 at Thu Mar 14 09:29:03 2024, MaxMem= 32212254720 cpu:             123.6 elap:               4.1
 (Enter /home/<user>/g16/l502.exe)
 Integral symmetry usage will be decided dynamically.
 UHF open shell SCF:
 Using DIIS extrapolation, IDIIS=  1040.
 NGot= 32212254720 LenX= 32208588722 LenY= 32206781042
 Requested convergence on RMS density matrix=1.00D-08 within 128 cycles.
 Requested convergence on MAX density matrix=1.00D-06.
 Requested convergence on             energy=1.00D-06.
 No special actions if energy rises.
 Fock matrices will be formed incrementally for  20 cycles.
 Integral accuracy reduced to 1.0D-05 until final iterations.

 Cycle   1  Pass 0  IDiag  1:
 FoFJK:  IHMeth= 1 ICntrl=       0 DoSepK=F KAlg= 0 I1Cent=           0 FoldK=F
 IRaf= 590000000 NMat=       1 IRICut=       1 DoRegI=T DoRafI=F ISym2E= 0 IDoP0=0 IntGTp=1.
 FoFCou: FMM=F IPFlag=           0 FMFlag=      100000 FMFlg1=           0
         NFxFlg=           0 DoJE=F BraDBF=F KetDBF=F FulRan=T
         wScrn=  0.000000 ICntrl=         0 IOpCl=  1 I1Cent=           0 NGrid=           0
         NMat0=    1 NMatS0=      1 NMatT0=    0 NMatD0=    1 NMtDS0=    0 NMtDT0=    0
 Symmetry not used in FoFCou.
 E= -1681.49558545886    
 DIIS: error= 2.04D-02 at cycle   1 NSaved=   1.
 NSaved= 1 IEnMin= 1 EnMin= -1681.49558545886     IErMin= 1 ErrMin= 2.04D-02
 ErrMax= 2.04D-02  0.00D+00 EMaxC= 1.00D-01 BMatC= 4.24D+00 BMatP= 4.24D+00
 IDIUse=3 WtCom= 7.96D-01 WtEn= 2.04D-01
 Coeff-Com:  0.100D+01
 Coeff-En:   0.100D+01
 Coeff:      0.100D+01
 Gap=     0.163 Goal=   None    Shift=    0.000
 Gap=     0.266 Goal=   None    Shift=    0.000
 GapD=    0.163 DampG=1.000 DampE=0.500 DampFc=0.5000 IDamp=-1.
 Damping current iteration by 5.00D-01
 RMSDP=1.31D+02 MaxDP=2.03D+04              OVMax= 9.96D-01

 Problem detected with inexpensive integrals.
 Switching to full accuracy and repeating last cycle.
 Cycle   2  Pass 1  IDiag  1:
 E= -1681.49563639011     Delta-E=       -0.000050931241 Rises=F Damp=F
 DIIS: error= 2.04D-02 at cycle   1 NSaved=   1.
 NSaved= 1 IEnMin= 1 EnMin= -1681.49563639011     IErMin= 1 ErrMin= 2.04D-02
 ErrMax= 2.04D-02  0.00D+00 EMaxC= 1.00D-01 BMatC= 4.23D+00 BMatP= 4.23D+00
 IDIUse=3 WtCom= 7.96D-01 WtEn= 2.04D-01
 Coeff-Com:  0.100D+01
 Coeff-En:   0.100D+01
 Coeff:      0.100D+01
 Gap=     0.163 Goal=   None    Shift=    0.000
 Gap=     0.266 Goal=   None    Shift=    0.000
 GapD=    0.163 DampG=1.000 DampE=0.500 DampFc=0.5000 IDamp=-1.
 Damping current iteration by 5.00D-01
 RMSDP=3.83D-03 MaxDP=7.46D-01 DE=-5.09D-05 OVMax= 9.60D-01

 Cycle   3  Pass 1  IDiag  1:
 RMSU=  1.90D-03    CP:  9.65D-01
 E= -1681.81917744366     Delta-E=       -0.323541053556 Rises=F Damp=T
 DIIS: error= 8.53D-03 at cycle   2 NSaved=   2.
 NSaved= 2 IEnMin= 2 EnMin= -1681.81917744366     IErMin= 2 ErrMin= 8.53D-03
 ErrMax= 8.53D-03  0.00D+00 EMaxC= 1.00D-01 BMatC= 4.86D-01 BMatP= 4.23D+00
 IDIUse=3 WtCom= 9.15D-01 WtEn= 8.53D-02
 Coeff-Com:  0.746D-02 0.993D+00
 Coeff-En:   0.220D+00 0.780D+00
 Coeff:      0.256D-01 0.974D+00
 Gap=    -0.181 Goal=   None    Shift=    0.000
 Gap=     0.464 Goal=   None    Shift=    0.000
 GapD=   -0.181 DampG=0.250 DampE=1.000 DampFc=0.2500 IDamp=-1.
 Damping current iteration by 2.50D-01
 RMSDP=2.31D-03 MaxDP=3.72D-01 DE=-3.24D-01 OVMax= 9.01D-01

 Cycle   4  Pass 1  IDiag  1:
 RMSU=  4.93D-04    CP:  9.60D-01  8.42D-01
 E= -1681.98508260943     Delta-E=       -0.165905165765 Rises=F Damp=T
 DIIS: error= 4.75D-03 at cycle   3 NSaved=   3.
 NSaved= 3 IEnMin= 3 EnMin= -1681.98508260943     IErMin= 3 ErrMin= 4.75D-03
 ErrMax= 4.75D-03  0.00D+00 EMaxC= 1.00D-01 BMatC= 1.90D-01 BMatP= 4.86D-01
 IDIUse=3 WtCom= 9.52D-01 WtEn= 4.75D-02
 Coeff-Com: -0.982D-01-0.904D+00 0.200D+01
 Coeff-En:   0.000D+00 0.000D+00 0.100D+01
 Coeff:     -0.935D-01-0.861D+00 0.195D+01
 Gap=     0.111 Goal=   None    Shift=    0.000
 Gap=     0.142 Goal=   None    Shift=    0.000
 RMSDP=1.46D-03 MaxDP=2.79D-01 DE=-1.66D-01 OVMax= 2.70D-01

 Cycle   5  Pass 1  IDiag  1:
 RMSU=  8.33D-04    CP:  9.29D-01  3.98D-01  2.71D+00
 E= -1682.44143814329     Delta-E=       -0.456355533862 Rises=F Damp=F
 DIIS: error= 2.39D-03 at cycle   4 NSaved=   4.
 NSaved= 4 IEnMin= 4 EnMin= -1682.44143814329     IErMin= 4 ErrMin= 2.39D-03
 ErrMax= 2.39D-03  0.00D+00 EMaxC= 1.00D-01 BMatC= 5.56D-02 BMatP= 1.90D-01
 IDIUse=3 WtCom= 9.76D-01 WtEn= 2.39D-02
 Coeff-Com: -0.716D-01-0.490D+00 0.965D+00 0.596D+00
 Coeff-En:   0.000D+00 0.000D+00 0.000D+00 0.100D+01
 Coeff:     -0.699D-01-0.478D+00 0.942D+00 0.606D+00
 Gap=     0.125 Goal=   None    Shift=    0.000
 Gap=     0.125 Goal=   None    Shift=    0.000
 RMSDP=2.18D-04 MaxDP=1.35D-02 DE=-4.56D-01 OVMax= 1.16D-01

 Cycle   6  Pass 1  IDiag  1:
 RMSU=  2.12D-04    CP:  9.27D-01  4.14D-01  2.66D+00  1.04D+00
 E= -1682.45759565705     Delta-E=       -0.016157513759 Rises=F Damp=F
 DIIS: error= 1.51D-03 at cycle   5 NSaved=   5.
 NSaved= 5 IEnMin= 5 EnMin= -1682.45759565705     IErMin= 5 ErrMin= 1.51D-03
 ErrMax= 1.51D-03  0.00D+00 EMaxC= 1.00D-01 BMatC= 7.48D-03 BMatP= 5.56D-02
 IDIUse=3 WtCom= 9.85D-01 WtEn= 1.51D-02
 Coeff-Com: -0.267D-01-0.135D+00 0.270D+00 0.286D+00 0.606D+00
 Coeff-En:   0.000D+00 0.000D+00 0.000D+00 0.000D+00 0.100D+01
 Coeff:     -0.263D-01-0.133D+00 0.266D+00 0.282D+00 0.611D+00
 Gap=     0.136 Goal=   None    Shift=    0.000
 Gap=     0.132 Goal=   None    Shift=    0.000
 RMSDP=1.20D-04 MaxDP=1.02D-02 DE=-1.62D-02 OVMax= 3.89D-02

 Cycle   7  Pass 1  IDiag  1:
 RMSU=  1.18D-04    CP:  9.27D-01  4.10D-01  2.67D+00  1.06D+00  1.02D+00
 E= -1682.46088893738     Delta-E=       -0.003293280331 Rises=F Damp=F
 DIIS: error= 6.45D-04 at cycle   6 NSaved=   6.
 NSaved= 6 IEnMin= 6 EnMin= -1682.46088893738     IErMin= 6 ErrMin= 6.45D-04
 ErrMax= 6.45D-04  0.00D+00 EMaxC= 1.00D-01 BMatC= 1.71D-03 BMatP= 7.48D-03
 IDIUse=3 WtCom= 9.94D-01 WtEn= 6.45D-03
 Coeff-Com: -0.384D-03-0.228D-01 0.256D-01 0.160D-01 0.249D+00 0.733D+00
 Coeff-En:   0.000D+00 0.000D+00 0.000D+00 0.000D+00 0.000D+00 0.100D+01
 Coeff:     -0.381D-03-0.227D-01 0.255D-01 0.159D-01 0.247D+00 0.735D+00
 Gap=     0.145 Goal=   None    Shift=    0.000
 Gap=     0.135 Goal=   None    Shift=    0.000
 RMSDP=8.03D-05 MaxDP=5.88D-03 DE=-3.29D-03 OVMax= 4.41D-02

 Cycle   8  Pass 1  IDiag  1:
 RMSU=  4.70D-05    CP:  9.27D-01  4.07D-01  2.68D+00  1.06D+00  1.22D+00
                    CP:  1.41D+00
 E= -1682.46219150167     Delta-E=       -0.001302564291 Rises=F Damp=F
 DIIS: error= 4.47D-04 at cycle   7 NSaved=   7.
 NSaved= 7 IEnMin= 7 EnMin= -1682.46219150167     IErMin= 7 ErrMin= 4.47D-04
 ErrMax= 4.47D-04  0.00D+00 EMaxC= 1.00D-01 BMatC= 6.93D-04 BMatP= 1.71D-03
 IDIUse=3 WtCom= 9.96D-01 WtEn= 4.47D-03
 Coeff-Com:  0.482D-02-0.229D-01 0.156D-01-0.606D-01-0.466D-01 0.297D+00
 Coeff-Com:  0.813D+00
 Coeff-En:   0.000D+00 0.000D+00 0.000D+00 0.000D+00 0.000D+00 0.000D+00
 Coeff-En:   0.100D+01
 Coeff:      0.479D-02-0.228D-01 0.155D-01-0.603D-01-0.464D-01 0.296D+00
 Coeff:      0.814D+00
 Gap=     0.149 Goal=   None    Shift=    0.000
 Gap=     0.138 Goal=   None    Shift=    0.000
 RMSDP=5.77D-05 MaxDP=3.86D-03 DE=-1.30D-03 OVMax= 2.80D-02

 Cycle   9  Pass 1  IDiag  1:
 RMSU=  2.73D-05    CP:  9.28D-01  4.04D-01  2.71D+00  1.05D+00  1.32D+00
                    CP:  1.74D+00  1.44D+00
 E= -1682.46285892756     Delta-E=       -0.000667425887 Rises=F Damp=F
 DIIS: error= 2.29D-04 at cycle   8 NSaved=   8.
 NSaved= 8 IEnMin= 8 EnMin= -1682.46285892756     IErMin= 8 ErrMin= 2.29D-04
 ErrMax= 2.29D-04  0.00D+00 EMaxC= 1.00D-01 BMatC= 2.88D-04 BMatP= 6.93D-04
 IDIUse=3 WtCom= 9.98D-01 WtEn= 2.29D-03
 Coeff-Com:  0.151D-02-0.268D-01 0.343D-01-0.280D-01-0.955D-01-0.205D+00
 Coeff-Com:  0.419D+00 0.900D+00
 Coeff-En:   0.000D+00 0.000D+00 0.000D+00 0.000D+00 0.000D+00 0.000D+00
 Coeff-En:   0.000D+00 0.100D+01
 Coeff:      0.150D-02-0.267D-01 0.342D-01-0.279D-01-0.953D-01-0.204D+00
 Coeff:      0.418D+00 0.900D+00
 Gap=     0.151 Goal=   None    Shift=    0.000
 Gap=     0.141 Goal=   None    Shift=    0.000
 RMSDP=4.58D-05 MaxDP=3.21D-03 DE=-6.67D-04 OVMax= 2.54D-02

 Cycle  10  Pass 1  IDiag  1:
 RMSU=  1.53D-05    CP:  9.28D-01  4.02D-01  2.72D+00  1.04D+00  1.41D+00
                    CP:  1.93D+00  2.00D+00  1.48D+00
 E= -1682.46320302380     Delta-E=       -0.000344096242 Rises=F Damp=F
 DIIS: error= 1.22D-04 at cycle   9 NSaved=   9.
 NSaved= 9 IEnMin= 9 EnMin= -1682.46320302380     IErMin= 9 ErrMin= 1.22D-04
 ErrMax= 1.22D-04  0.00D+00 EMaxC= 1.00D-01 BMatC= 6.06D-05 BMatP= 2.88D-04
 IDIUse=3 WtCom= 9.99D-01 WtEn= 1.22D-03
 Coeff-Com: -0.737D-03-0.759D-02 0.137D-01 0.350D-02-0.587D-02-0.155D+00
 Coeff-Com: -0.483D-01 0.303D+00 0.898D+00
 Coeff-En:   0.000D+00 0.000D+00 0.000D+00 0.000D+00 0.000D+00 0.000D+00
 Coeff-En:   0.000D+00 0.000D+00 0.100D+01
 Coeff:     -0.736D-03-0.758D-02 0.136D-01 0.350D-02-0.587D-02-0.155D+00
 Coeff:     -0.482D-01 0.302D+00 0.898D+00
 Gap=     0.152 Goal=   None    Shift=    0.000
 Gap=     0.142 Goal=   None    Shift=    0.000
 RMSDP=2.18D-05 MaxDP=1.64D-03 DE=-3.44D-04 OVMax= 1.22D-02

 Cycle  11  Pass 1  IDiag  1:
 RMSU=  9.19D-06    CP:  9.28D-01  4.02D-01  2.72D+00  1.04D+00  1.45D+00
                    CP:  2.00D+00  2.24D+00  1.83D+00  1.43D+00
 E= -1682.46329668503     Delta-E=       -0.000093661235 Rises=F Damp=F
 DIIS: error= 6.65D-05 at cycle  10 NSaved=  10.
 NSaved=10 IEnMin=10 EnMin= -1682.46329668503     IErMin=10 ErrMin= 6.65D-05
 ErrMax= 6.65D-05  0.00D+00 EMaxC= 1.00D-01 BMatC= 2.02D-05 BMatP= 6.06D-05
 IDIUse=1 WtCom= 1.00D+00 WtEn= 0.00D+00
 Coeff-Com: -0.812D-03 0.514D-02-0.455D-02 0.858D-02 0.307D-01-0.125D-01
 Coeff-Com: -0.136D+00-0.155D+00 0.387D+00 0.878D+00
 Coeff:     -0.812D-03 0.514D-02-0.455D-02 0.858D-02 0.307D-01-0.125D-01
 Coeff:     -0.136D+00-0.155D+00 0.387D+00 0.878D+00
 Gap=     0.153 Goal=   None    Shift=    0.000
 Gap=     0.142 Goal=   None    Shift=    0.000
 RMSDP=1.26D-05 MaxDP=9.27D-04 DE=-9.37D-05 OVMax= 7.51D-03

 Cycle  12  Pass 1  IDiag  1:
 RMSU=  5.14D-06    CP:  9.28D-01  4.02D-01  2.72D+00  1.04D+00  1.47D+00
                    CP:  2.01D+00  2.35D+00  2.03D+00  1.82D+00  1.34D+00
 E= -1682.46333004687     Delta-E=       -0.000033361835 Rises=F Damp=F
 DIIS: error= 4.38D-05 at cycle  11 NSaved=  11.
 NSaved=11 IEnMin=11 EnMin= -1682.46333004687     IErMin=11 ErrMin= 4.38D-05
 ErrMax= 4.38D-05  0.00D+00 EMaxC= 1.00D-01 BMatC= 5.48D-06 BMatP= 2.02D-05
 IDIUse=1 WtCom= 1.00D+00 WtEn= 0.00D+00
 Coeff-Com: -0.234D-03 0.331D-02-0.387D-02 0.243D-02 0.125D-01 0.273D-01
 Coeff-Com: -0.215D-01-0.116D+00-0.121D+00 0.280D+00 0.938D+00
 Coeff:     -0.234D-03 0.331D-02-0.387D-02 0.243D-02 0.125D-01 0.273D-01
 Coeff:     -0.215D-01-0.116D+00-0.121D+00 0.280D+00 0.938D+00
 Gap=     0.153 Goal=   None    Shift=    0.000
 Gap=     0.142 Goal=   None    Shift=    0.000
 RMSDP=6.94D-06 MaxDP=5.96D-04 DE=-3.34D-05 OVMax= 3.95D-03

 Cycle  13  Pass 1  IDiag  1:
 RMSU=  2.69D-06    CP:  9.28D-01  4.02D-01  2.72D+00  1.04D+00  1.48D+00
                    CP:  2.01D+00  2.39D+00  2.12D+00  2.01D+00  1.68D+00
                    CP:  1.49D+00
 E= -1682.46333974507     Delta-E=       -0.000009698197 Rises=F Damp=F
 DIIS: error= 2.50D-05 at cycle  12 NSaved=  12.
 NSaved=12 IEnMin=12 EnMin= -1682.46333974507     IErMin=12 ErrMin= 2.50D-05
 ErrMax= 2.50D-05  0.00D+00 EMaxC= 1.00D-01 BMatC= 2.57D-06 BMatP= 5.48D-06
 IDIUse=1 WtCom= 1.00D+00 WtEn= 0.00D+00
 Coeff-Com:  0.825D-04-0.207D-03 0.169D-04-0.108D-02-0.271D-02 0.152D-01
 Coeff-Com:  0.337D-01-0.751D-02-0.199D+00-0.140D+00 0.533D+00 0.769D+00
 Coeff:      0.825D-04-0.207D-03 0.169D-04-0.108D-02-0.271D-02 0.152D-01
 Coeff:      0.337D-01-0.751D-02-0.199D+00-0.140D+00 0.533D+00 0.769D+00
 Gap=     0.153 Goal=   None    Shift=    0.000
 Gap=     0.142 Goal=   None    Shift=    0.000
 RMSDP=3.98D-06 MaxDP=2.92D-04 DE=-9.70D-06 OVMax= 2.36D-03

 Cycle  14  Pass 1  IDiag  1:
 RMSU=  1.58D-06    CP:  9.28D-01  4.02D-01  2.72D+00  1.04D+00  1.49D+00
                    CP:  2.02D+00  2.42D+00  2.16D+00  2.11D+00  1.89D+00
                    CP:  1.85D+00  1.10D+00
 E= -1682.46334331313     Delta-E=       -0.000003568070 Rises=F Damp=F
 DIIS: error= 1.27D-05 at cycle  13 NSaved=  13.
 NSaved=13 IEnMin=13 EnMin= -1682.46334331313     IErMin=13 ErrMin= 1.27D-05
 ErrMax= 1.27D-05  0.00D+00 EMaxC= 1.00D-01 BMatC= 6.88D-07 BMatP= 2.57D-06
 IDIUse=1 WtCom= 1.00D+00 WtEn= 0.00D+00
 Coeff-Com:  0.806D-04-0.194D-02 0.242D-02-0.832D-03-0.472D-02-0.385D-02
 Coeff-Com:  0.196D-01 0.342D-01-0.436D-01-0.142D+00-0.725D-01 0.306D+00
 Coeff-Com:  0.907D+00
 Coeff:      0.806D-04-0.194D-02 0.242D-02-0.832D-03-0.472D-02-0.385D-02
 Coeff:      0.196D-01 0.342D-01-0.436D-01-0.142D+00-0.725D-01 0.306D+00
 Coeff:      0.907D+00
 Gap=     0.153 Goal=   None    Shift=    0.000
 Gap=     0.142 Goal=   None    Shift=    0.000
 RMSDP=2.41D-06 MaxDP=2.05D-04 DE=-3.57D-06 OVMax= 1.53D-03

 Cycle  15  Pass 1  IDiag  1:
 RMSU=  7.81D-07    CP:  9.28D-01  4.02D-01  2.72D+00  1.04D+00  1.49D+00
                    CP:  2.02D+00  2.43D+00  2.18D+00  2.16D+00  1.98D+00
                    CP:  2.02D+00  1.45D+00  1.50D+00
 E= -1682.46334450927     Delta-E=       -0.000001196133 Rises=F Damp=F
 DIIS: error= 7.10D-06 at cycle  14 NSaved=  14.
 NSaved=14 IEnMin=14 EnMin= -1682.46334450927     IErMin=14 ErrMin= 7.10D-06
 ErrMax= 7.10D-06  0.00D+00 EMaxC= 1.00D-01 BMatC= 2.36D-07 BMatP= 6.88D-07
 IDIUse=1 WtCom= 1.00D+00 WtEn= 0.00D+00
 Coeff-Com: -0.914D-05-0.137D-02 0.192D-02 0.308D-03-0.700D-03-0.669D-02
 Coeff-Com: -0.642D-02 0.131D-01 0.573D-01 0.392D-02-0.221D+00-0.181D+00
 Coeff-Com:  0.313D+00 0.103D+01
 Coeff:     -0.914D-05-0.137D-02 0.192D-02 0.308D-03-0.700D-03-0.669D-02
 Coeff:     -0.642D-02 0.131D-01 0.573D-01 0.392D-02-0.221D+00-0.181D+00
 Coeff:      0.313D+00 0.103D+01
 Gap=     0.153 Goal=   None    Shift=    0.000
 Gap=     0.142 Goal=   None    Shift=    0.000
 RMSDP=1.87D-06 MaxDP=1.37D-04 DE=-1.20D-06 OVMax= 1.06D-03

 Cycle  16  Pass 1  IDiag  1:
 RMSU=  4.65D-07    CP:  9.28D-01  4.02D-01  2.72D+00  1.04D+00  1.49D+00
                    CP:  2.03D+00  2.45D+00  2.20D+00  2.19D+00  2.03D+00
                    CP:  2.11D+00  1.63D+00  2.08D+00  1.55D+00
 E= -1682.46334494350     Delta-E=       -0.000000434235 Rises=F Damp=F
 DIIS: error= 2.96D-06 at cycle  15 NSaved=  15.
 NSaved=15 IEnMin=15 EnMin= -1682.46334494350     IErMin=15 ErrMin= 2.96D-06
 ErrMax= 2.96D-06  0.00D+00 EMaxC= 1.00D-01 BMatC= 6.45D-08 BMatP= 2.36D-07
 IDIUse=1 WtCom= 1.00D+00 WtEn= 0.00D+00
 Coeff-Com: -0.231D-04-0.211D-03 0.364D-03 0.386D-03 0.102D-02-0.115D-02
 Coeff-Com: -0.914D-02-0.597D-02 0.378D-01 0.499D-01-0.672D-01-0.180D+00
 Coeff-Com: -0.161D+00 0.440D+00 0.896D+00
 Coeff:     -0.231D-04-0.211D-03 0.364D-03 0.386D-03 0.102D-02-0.115D-02
 Coeff:     -0.914D-02-0.597D-02 0.378D-01 0.499D-01-0.672D-01-0.180D+00
 Coeff:     -0.161D+00 0.440D+00 0.896D+00
 Gap=     0.153 Goal=   None    Shift=    0.000
 Gap=     0.142 Goal=   None    Shift=    0.000
 RMSDP=9.91D-07 MaxDP=8.31D-05 DE=-4.34D-07 OVMax= 4.72D-04

 Cycle  17  Pass 1  IDiag  1:
 RMSU=  2.41D-07    CP:  9.28D-01  4.02D-01  2.72D+00  1.04D+00  1.49D+00
                    CP:  2.03D+00  2.45D+00  2.21D+00  2.20D+00  2.05D+00
                    CP:  2.12D+00  1.72D+00  2.36D+00  2.02D+00  1.39D+00
 E= -1682.46334502918     Delta-E=       -0.000000085682 Rises=F Damp=F
 DIIS: error= 1.45D-06 at cycle  16 NSaved=  16.
 NSaved=16 IEnMin=16 EnMin= -1682.46334502918     IErMin=16 ErrMin= 1.45D-06
 ErrMax= 1.45D-06  0.00D+00 EMaxC= 1.00D-01 BMatC= 1.37D-08 BMatP= 6.45D-08
 IDIUse=1 WtCom= 1.00D+00 WtEn= 0.00D+00
 Coeff-Com: -0.803D-05 0.104D-03-0.116D-03 0.121D-03 0.540D-03 0.693D-03
 Coeff-Com: -0.315D-02-0.471D-02 0.780D-02 0.229D-01 0.579D-02-0.553D-01
 Coeff-Com: -0.124D+00 0.266D-01 0.411D+00 0.711D+00
 Coeff:     -0.803D-05 0.104D-03-0.116D-03 0.121D-03 0.540D-03 0.693D-03
 Coeff:     -0.315D-02-0.471D-02 0.780D-02 0.229D-01 0.579D-02-0.553D-01
 Coeff:     -0.124D+00 0.266D-01 0.411D+00 0.711D+00
 Gap=     0.153 Goal=   None    Shift=    0.000
 Gap=     0.142 Goal=   None    Shift=    0.000
 RMSDP=2.79D-07 MaxDP=2.19D-05 DE=-8.57D-08 OVMax= 1.06D-04

 Cycle  18  Pass 1  IDiag  1:
 RMSU=  1.14D-07    CP:  9.28D-01  4.02D-01  2.72D+00  1.04D+00  1.49D+00
                    CP:  2.03D+00  2.46D+00  2.21D+00  2.21D+00  2.05D+00
                    CP:  2.12D+00  1.73D+00  2.43D+00  2.14D+00  1.63D+00
                    CP:  1.21D+00
 E= -1682.46334503964     Delta-E=       -0.000000010454 Rises=F Damp=F
 DIIS: error= 9.19D-07 at cycle  17 NSaved=  17.
 NSaved=17 IEnMin=17 EnMin= -1682.46334503964     IErMin=17 ErrMin= 9.19D-07
 ErrMax= 9.19D-07  0.00D+00 EMaxC= 1.00D-01 BMatC= 3.66D-09 BMatP= 1.37D-08
 IDIUse=1 WtCom= 1.00D+00 WtEn= 0.00D+00
 Coeff-Com: -0.272D-06 0.983D-04-0.131D-03-0.294D-04-0.401D-04 0.556D-03
 Coeff-Com:  0.996D-03-0.226D-03-0.680D-02-0.354D-02 0.203D-01 0.241D-01
 Coeff-Com: -0.882D-02-0.114D+00-0.711D-01 0.347D+00 0.812D+00
 Coeff:     -0.272D-06 0.983D-04-0.131D-03-0.294D-04-0.401D-04 0.556D-03
 Coeff:      0.996D-03-0.226D-03-0.680D-02-0.354D-02 0.203D-01 0.241D-01
 Coeff:     -0.882D-02-0.114D+00-0.711D-01 0.347D+00 0.812D+00
 Gap=     0.153 Goal=   None    Shift=    0.000
 Gap=     0.142 Goal=   None    Shift=    0.000
 RMSDP=1.47D-07 MaxDP=1.19D-05 DE=-1.05D-08 OVMax= 4.73D-05

 Cycle  19  Pass 1  IDiag  1:
 RMSU=  5.99D-08    CP:  9.28D-01  4.02D-01  2.72D+00  1.04D+00  1.49D+00
                    CP:  2.03D+00  2.46D+00  2.21D+00  2.21D+00  2.05D+00
                    CP:  2.12D+00  1.73D+00  2.46D+00  2.21D+00  1.75D+00
                    CP:  1.48D+00  1.18D+00
 E= -1682.46334504262     Delta-E=       -0.000000002985 Rises=F Damp=F
 DIIS: error= 4.69D-07 at cycle  18 NSaved=  18.
 NSaved=18 IEnMin=18 EnMin= -1682.46334504262     IErMin=18 ErrMin= 4.69D-07
 ErrMax= 4.69D-07  0.00D+00 EMaxC= 1.00D-01 BMatC= 9.60D-10 BMatP= 3.66D-09
 IDIUse=1 WtCom= 1.00D+00 WtEn= 0.00D+00
 Coeff-Com:  0.135D-05 0.439D-04-0.639D-04-0.367D-04-0.965D-04 0.174D-03
 Coeff-Com:  0.993D-03 0.591D-03-0.452D-02-0.517D-02 0.938D-02 0.208D-01
 Coeff-Com:  0.147D-01-0.617D-01-0.100D+00 0.554D-01 0.408D+00 0.662D+00
 Coeff:      0.135D-05 0.439D-04-0.639D-04-0.367D-04-0.965D-04 0.174D-03
 Coeff:      0.993D-03 0.591D-03-0.452D-02-0.517D-02 0.938D-02 0.208D-01
 Coeff:      0.147D-01-0.617D-01-0.100D+00 0.554D-01 0.408D+00 0.662D+00
 Gap=     0.153 Goal=   None    Shift=    0.000
 Gap=     0.142 Goal=   None    Shift=    0.000
 RMSDP=5.60D-08 MaxDP=4.59D-06 DE=-2.98D-09 OVMax= 1.83D-05

 Cycle  20  Pass 1  IDiag  1:
 RMSU=  2.97D-08    CP:  9.28D-01  4.02D-01  2.72D+00  1.04D+00  1.49D+00
                    CP:  2.03D+00  2.46D+00  2.21D+00  2.21D+00  2.05D+00
                    CP:  2.12D+00  1.73D+00  2.46D+00  2.23D+00  1.79D+00
                    CP:  1.58D+00  1.45D+00  1.11D+00
 E= -1682.46334504311     Delta-E=       -0.000000000485 Rises=F Damp=F
 DIIS: error= 3.85D-07 at cycle  19 NSaved=  19.
 NSaved=19 IEnMin=19 EnMin= -1682.46334504311     IErMin=19 ErrMin= 3.85D-07
 ErrMax= 3.85D-07  0.00D+00 EMaxC= 1.00D-01 BMatC= 3.03D-10 BMatP= 9.60D-10
 IDIUse=1 WtCom= 1.00D+00 WtEn= 0.00D+00
 Coeff-Com:  0.733D-06-0.928D-05 0.939D-05-0.724D-05-0.189D-04-0.114D-03
 Coeff-Com:  0.105D-03 0.284D-03 0.419D-03-0.104D-02-0.343D-02 0.877D-03
 Coeff-Com:  0.100D-01 0.151D-01-0.197D-01-0.117D+00-0.119D+00 0.355D+00
 Coeff-Com:  0.878D+00
 Coeff:      0.733D-06-0.928D-05 0.939D-05-0.724D-05-0.189D-04-0.114D-03
 Coeff:      0.105D-03 0.284D-03 0.419D-03-0.104D-02-0.343D-02 0.877D-03
 Coeff:      0.100D-01 0.151D-01-0.197D-01-0.117D+00-0.119D+00 0.355D+00
 Coeff:      0.878D+00
 Gap=     0.153 Goal=   None    Shift=    0.000
 Gap=     0.142 Goal=   None    Shift=    0.000
 RMSDP=3.96D-08 MaxDP=3.34D-06 DE=-4.85D-10 OVMax= 1.32D-05

 Cycle  21  Pass 1  IDiag  1:
 RMSU=  1.97D-08    CP:  9.28D-01  4.02D-01  2.72D+00  1.04D+00  1.49D+00
                    CP:  2.03D+00  2.46D+00  2.21D+00  2.21D+00  2.05D+00
                    CP:  2.12D+00  1.73D+00  2.46D+00  2.23D+00  1.81D+00
                    CP:  1.64D+00  1.60D+00  1.46D+00  1.23D+00
 E= -1682.46334504332     Delta-E=       -0.000000000209 Rises=F Damp=F
 DIIS: error= 1.26D-07 at cycle  20 NSaved=  20.
 NSaved=20 IEnMin=20 EnMin= -1682.46334504332     IErMin=20 ErrMin= 1.26D-07
 ErrMax= 1.26D-07  0.00D+00 EMaxC= 1.00D-01 BMatC= 7.61D-11 BMatP= 3.03D-10
 IDIUse=1 WtCom= 1.00D+00 WtEn= 0.00D+00
 Coeff-Com: -0.137D-06-0.107D-04 0.144D-04 0.457D-05 0.252D-04-0.879D-04
 Coeff-Com: -0.195D-03-0.621D-04 0.124D-02 0.874D-03-0.372D-02-0.459D-02
 Coeff-Com:  0.300D-04 0.218D-01 0.173D-01-0.651D-01-0.159D+00-0.208D-01
 Coeff-Com:  0.371D+00 0.842D+00
 Coeff:     -0.137D-06-0.107D-04 0.144D-04 0.457D-05 0.252D-04-0.879D-04
 Coeff:     -0.195D-03-0.621D-04 0.124D-02 0.874D-03-0.372D-02-0.459D-02
 Coeff:      0.300D-04 0.218D-01 0.173D-01-0.651D-01-0.159D+00-0.208D-01
 Coeff:      0.371D+00 0.842D+00
 Gap=     0.153 Goal=   None    Shift=    0.000
 Gap=     0.142 Goal=   None    Shift=    0.000
 RMSDP=2.22D-08 MaxDP=1.87D-06 DE=-2.09D-10 OVMax= 9.20D-06

 Cycle  22  Pass 1  IDiag  1:
 Restarting incremental Fock formation.
 E= -1682.46334504350     Delta-E=       -0.000000000185 Rises=F Damp=F
 DIIS: error= 7.64D-08 at cycle  21 NSaved=  20.
 NSaved=20 IEnMin=20 EnMin= -1682.46334504350     IErMin=20 ErrMin= 7.64D-08
 ErrMax= 7.64D-08  0.00D+00 EMaxC= 1.00D-01 BMatC= 2.21D-11 BMatP= 7.61D-11
 IDIUse=1 WtCom= 1.00D+00 WtEn= 0.00D+00
 Coeff-Com:  0.106D-05-0.144D-05 0.879D-06 0.165D-04-0.809D-06-0.799D-04
 Coeff-Com: -0.892D-04 0.306D-03 0.577D-03-0.486D-03-0.181D-02-0.297D-02
 Coeff-Com:  0.409D-02 0.130D-01 0.120D-01-0.278D-01-0.120D+00-0.148D+00
 Coeff-Com:  0.343D+00 0.928D+00
 Coeff:      0.106D-05-0.144D-05 0.879D-06 0.165D-04-0.809D-06-0.799D-04
 Coeff:     -0.892D-04 0.306D-03 0.577D-03-0.486D-03-0.181D-02-0.297D-02
 Coeff:      0.409D-02 0.130D-01 0.120D-01-0.278D-01-0.120D+00-0.148D+00
 Coeff:      0.343D+00 0.928D+00
 Gap=     0.153 Goal=   None    Shift=    0.000
 Gap=     0.142 Goal=   None    Shift=    0.000
 RMSDP=1.47D-08 MaxDP=1.02D-06 DE=-1.85D-10 OVMax= 5.89D-06

 Cycle  23  Pass 1  IDiag  1:
 RMSU=  1.46D-08    CP:  1.00D+00
 E= -1682.46334504352     Delta-E=       -0.000000000023 Rises=F Damp=F
 DIIS: error= 4.34D-08 at cycle  22 NSaved=  20.
 NSaved=20 IEnMin=20 EnMin= -1682.46334504352     IErMin=20 ErrMin= 4.34D-08
 ErrMax= 4.34D-08  0.00D+00 EMaxC= 1.00D-01 BMatC= 4.26D-12 BMatP= 2.21D-11
 IDIUse=1 WtCom= 1.00D+00 WtEn= 0.00D+00
 Coeff-Com:  0.252D-06-0.449D-06-0.185D-05 0.371D-05 0.257D-04 0.193D-04
 Coeff-Com: -0.102D-03-0.553D-04 0.273D-03 0.274D-03-0.608D-03-0.183D-02
 Coeff-Com:  0.915D-03 0.150D-01 0.183D-01-0.297D-01-0.119D+00-0.723D-01
 Coeff-Com:  0.271D+00 0.918D+00
 Coeff:      0.252D-06-0.449D-06-0.185D-05 0.371D-05 0.257D-04 0.193D-04
 Coeff:     -0.102D-03-0.553D-04 0.273D-03 0.274D-03-0.608D-03-0.183D-02
 Coeff:      0.915D-03 0.150D-01 0.183D-01-0.297D-01-0.119D+00-0.723D-01
 Coeff:      0.271D+00 0.918D+00
 Gap=     0.153 Goal=   None    Shift=    0.000
 Gap=     0.142 Goal=   None    Shift=    0.000
 RMSDP=7.44D-09 MaxDP=5.90D-07 DE=-2.27D-11 OVMax= 2.80D-06

 SCF Done:  E(UM062X) =  -1682.46334504     A.U. after   23 cycles
            NFock= 23  Conv=0.74D-08     -V/T= 2.0047
 <Sx>= 0.0000 <Sy>= 0.0000 <Sz>= 1.0000 <S**2>= 2.0438 S= 1.0145
 <L.S>= 0.000000000000E+00
 KE= 1.674674877163D+03 PE=-1.007225509912D+04 EE= 3.642239344695D+03
 Annihilation of the first spin contaminant:
 S**2 before annihilation     2.0438,   after     2.0012
 Leave Link  502 at Thu Mar 14 09:49:01 2024, MaxMem= 32212254720 cpu:           35943.0 elap:            1198.2
 (Enter /home/<user>/g16/l801.exe)
 DoSCS=F DFT=T ScalE2(SS,OS)=  1.000000  1.000000
 ExpMin= 9.52D-02 ExpMax= 6.07D+04 ExpMxC= 2.07D+03 IAcc=3 IRadAn=         5 AccDes= 0.00D+00
 HarFok:  IExCor=  205 AccDes= 0.00D+00 IRadAn=         5 IDoV=-2 UseB2=F ITyADJ=14
 ICtDFT= 12500011 ScaDFX=  1.000000  1.000000  1.000000  1.000000
 GSVD:  LWork=       -1665 too small for GESVD, short by        7400 words or        7400 for optimal perf.
 Largest valence mixing into a core orbital is  1.99D-04
 Largest core mixing into a valence orbital is  4.04D-05
 Largest valence mixing into a core orbital is  1.83D-04
 Largest core mixing into a valence orbital is  4.03D-05
 Range of M.O.s used for correlation:    38  1179
 NBasis=  1179 NAE=   119 NBE=   117 NFC=    37 NFV=     0
 NROrb=   1142 NOA=    82 NOB=    80 NVA=  1060 NVB=  1062

 **** Warning!!: The largest alpha MO coefficient is  0.58250318D+02


 **** Warning!!: The largest beta MO coefficient is  0.51556940D+02

 Leave Link  801 at Thu Mar 14 09:49:02 2024, MaxMem= 32212254720 cpu:              13.8 elap:               0.5
 (Enter /home/<user>/g16/l914.exe)
 UHF ground state
 Two-electron integrals replicated using symmetry.
 MDV= 32212254720 DFT=T DoStab=F Mixed=T DoRPA=T DoScal=F NonHer=T
 Making orbital integer symmetry assigments:
 Orbital symmetries:
 Alpha Orbitals:
       Occupied  (A) (A) (A) (A) (A) (A) (A) (A) (A) (A) (A) (A)
                 (A) (A) (A) (A) (A) (A) (A) (A) (A) (A) (A) (A)
                 (A) (A) (A) (A) (A) (A) (A) (A) (A) (A) (A) (A)
                 (A) (A) (A) (A) (A) (A) (A) (A) (A) (A) (A) (A)
                 (A) (A) (A) (A) (A) (A) (A) (A) (A) (A) (A) (A)
                 (A) (A) (A) (A) (A) (A) (A) (A) (A) (A) (A) (A)
                 (A) (A) (A) (A) (A) (A) (A) (A) (A) (A) (A) (A)
                 (A) (A) (A) (A) (A) (A) (A) (A) (A) (A) (A) (A)
                 (A) (A) (A) (A) (A) (A) (A) (A) (A) (A) (A) (A)
                 (A) (A) (A) (A) (A) (A) (A) (A) (A) (A) (A)
       Virtual   (A) (A) (A) (A) (A) (A) (A) (A) (A) (A) (A) (A)
                 (A) (A) (A) (A) (A) (A) (A) (A) (A) (A) (A) (A)
                 (A) (A) (A) (A) (A) (A) (A) (A) (A) (A) (A) (A)
                 (A) (A) (A) (A) (A) (A) (A) (A) (A) (A) (A) (A)
                 (A) (A) (A) (A) (A) (A) (A) (A) (A) (A) (A) (A)
                 (A) (A) (A) (A) (A) (A) (A) (A) (A) (A) (A) (A)
                 (A) (A) (A) (A) (A) (A) (A) (A) (A) (A) (A) (A)
                 (A) (A) (A) (A) (A) (A) (A) (A) (A) (A) (A) (A)
                 (A) (A) (A) (A) (A) (A) (A) (A) (A) (A) (A) (A)
                 (A) (A) (A) (A) (A) (A) (A) (A) (A) (A) (A) (A)
                 (A) (A) (A) (A) (A) (A) (A) (A) (A) (A) (A) (A)
                 (A) (A) (A) (A) (A) (A) (A) (A) (A) (A) (A) (A)
                 (A) (A) (A) (A) (A) (A) (A) (A) (A) (A) (A) (A)
                 (A) (A) (A) (A) (A) (A) (A) (A) (A) (A) (A) (A)
                 (A) (A) (A) (A) (A) (A) (A) (A) (A) (A) (A) (A)
                 (A) (A) (A) (A) (A) (A) (A) (A) (A) (A) (A) (A)
                 (A) (A) (A) (A) (A) (A) (A) (A) (A) (A) (A) (A)
                 (A) (A) (A) (A) (A) (A) (A) (A) (A) (A) (A) (A)
                 (A) (A) (A) (A) (A) (A) (A) (A) (A) (A) (A) (A)
                 (A) (A) (A) (A) (A) (A) (A) (A) (A) (A) (A) (A)
                 (A) (A) (A) (A) (A) (A) (A) (A) (A) (A) (A) (A)
                 (A) (A) (A) (A) (A) (A) (A) (A) (A) (A) (A) (A)
                 (A) (A) (A) (A) (A) (A) (A) (A) (A) (A) (A) (A)
                 (A) (A) (A) (A) (A) (A) (A) (A) (A) (A) (A) (A)
                 (A) (A) (A) (A) (A) (A) (A) (A) (A) (A) (A) (A)
                 (A) (A) (A) (A) (A) (A) (A) (A) (A) (A) (A) (A)
                 (A) (A) (A) (A) (A) (A) (A) (A) (A) (A) (A) (A)
                 (A) (A) (A) (A) (A) (A) (A) (A) (A) (A) (A) (A)
                 (A) (A) (A) (A) (A) (A) (A) (A) (A) (A) (A) (A)
                 (A) (A) (A) (A) (A) (A) (A) (A) (A) (A) (A) (A)
                 (A) (A) (A) (A) (A) (A) (A) (A) (A) (A) (A) (A)
                 (A) (A) (A) (A) (A) (A) (A) (A) (A) (A) (A) (A)
                 (A) (A) (A) (A) (A) (A) (A) (A) (A) (A) (A) (A)
                 (A) (A) (A) (A) (A) (A) (A) (A) (A) (A) (A) (A)
                 (A) (A) (A) (A) (A) (A) (A) (A) (A) (A) (A) (A)
                 (A) (A) (A) (A) (A) (A) (A) (A) (A) (A) (A) (A)
                 (A) (A) (A) (A) (A) (A) (A) (A) (A) (A) (A) (A)
                 (A) (A) (A) (A) (A) (A) (A) (A) (A) (A) (A) (A)
                 (A) (A) (A) (A) (A) (A) (A) (A) (A) (A) (A) (A)
                 (A) (A) (A) (A) (A) (A) (A) (A) (A) (A) (A) (A)
                 (A) (A) (A) (A) (A) (A) (A) (A) (A) (A) (A) (A)
                 (A) (A) (A) (A) (A) (A) (A) (A) (A) (A) (A) (A)
                 (A) (A) (A) (A) (A) (A) (A) (A) (A) (A) (A) (A)
                 (A) (A) (A) (A) (A) (A) (A) (A) (A) (A) (A) (A)
                 (A) (A) (A) (A) (A) (A) (A) (A) (A) (A) (A) (A)
                 (A) (A) (A) (A) (A) (A) (A) (A) (A) (A) (A) (A)
                 (A) (A) (A) (A) (A) (A) (A) (A) (A) (A) (A) (A)
                 (A) (A) (A) (A) (A) (A) (A) (A) (A) (A) (A) (A)
                 (A) (A) (A) (A) (A) (A) (A) (A) (A) (A) (A) (A)
                 (A) (A) (A) (A) (A) (A) (A) (A) (A) (A) (A) (A)
                 (A) (A) (A) (A) (A) (A) (A) (A) (A) (A) (A) (A)
                 (A) (A) (A) (A) (A) (A) (A) (A) (A) (A) (A) (A)
                 (A) (A) (A) (A) (A) (A) (A) (A) (A) (A) (A) (A)
                 (A) (A) (A) (A) (A) (A) (A) (A) (A) (A) (A) (A)
                 (A) (A) (A) (A) (A) (A) (A) (A) (A) (A) (A) (A)
                 (A) (A) (A) (A) (A) (A) (A) (A) (A) (A) (A) (A)
                 (A) (A) (A) (A) (A) (A) (A) (A) (A) (A) (A) (A)
                 (A) (A) (A) (A) (A) (A) (A) (A) (A) (A) (A) (A)
                 (A) (A) (A) (A) (A) (A) (A) (A) (A) (A) (A) (A)
                 (A) (A) (A) (A) (A) (A) (A) (A) (A) (A) (A) (A)
                 (A) (A) (A) (A) (A) (A) (A) (A) (A) (A) (A) (A)
                 (A) (A) (A) (A) (A) (A) (A) (A) (A) (A) (A) (A)
                 (A) (A) (A) (A) (A) (A) (A) (A) (A) (A) (A) (A)
                 (A) (A) (A) (A) (A) (A) (A) (A) (A) (A) (A) (A)
                 (A) (A) (A) (A) (A) (A) (A) (A) (A) (A) (A) (A)
                 (A) (A) (A) (A) (A) (A) (A) (A) (A) (A) (A) (A)
                 (A) (A) (A) (A) (A) (A) (A) (A) (A) (A) (A) (A)
                 (A) (A) (A) (A) (A) (A) (A) (A) (A) (A) (A) (A)
                 (A) (A) (A) (A) (A) (A) (A) (A) (A) (A) (A) (A)
                 (A) (A) (A) (A) (A) (A) (A) (A) (A) (A) (A) (A)
                 (A) (A) (A) (A) (A) (A) (A) (A) (A) (A) (A) (A)
                 (A) (A) (A) (A) (A) (A) (A) (A) (A) (A) (A) (A)
                 (A) (A) (A) (A) (A) (A) (A) (A) (A) (A) (A) (A)
                 (A) (A) (A) (A) (A) (A) (A) (A) (A) (A) (A) (A)
                 (A) (A) (A) (A) (A) (A) (A) (A) (A) (A) (A) (A)
                 (A) (A) (A) (A) (A) (A) (A) (A) (A) (A) (A) (A)
                 (A) (A) (A) (A) (A) (A) (A) (A) (A) (A) (A) (A)
                 (A) (A) (A) (A) (A) (A) (A) (A) (A) (A) (A) (A)
                 (A) (A) (A) (A) (A) (A) (A) (A) (A) (A) (A) (A)
                 (A) (A) (A) (A) (A) (A) (A) (A) (A) (A) (A) (A)
                 (A) (A) (A) (A) (A) (A) (A) (A) (A) (A) (A) (A)
                 (A) (A) (A) (A) (A) (A) (A) (A) (A) (A) (A) (A)
                 (A) (A) (A) (A) (A) (A) (A) (A) (A) (A) (A) (A)
                 (A) (A) (A) (A) (A) (A) (A) (A) (A) (A) (A) (A)
                 (A) (A) (A) (A) (A) (A) (A) (A) (A) (A) (A) (A)
                 (A) (A) (A) (A) (A) (A) (A) (A) (A) (A) (A) (A)
                 (A) (A) (A) (A) (A) (A) (A) (A) (A) (A) (A) (A)
                 (A) (A) (A) (A) (A) (A) (A) (A) (A) (A) (A) (A)
                 (A) (A) (A) (A)
 Beta  Orbitals:
       Occupied  (A) (A) (A) (A) (A) (A) (A) (A) (A) (A) (A) (A)
                 (A) (A) (A) (A) (A) (A) (A) (A) (A) (A) (A) (A)
                 (A) (A) (A) (A) (A) (A) (A) (A) (A) (A) (A) (A)
                 (A) (A) (A) (A) (A) (A) (A) (A) (A) (A) (A) (A)
                 (A) (A) (A) (A) (A) (A) (A) (A) (A) (A) (A) (A)
                 (A) (A) (A) (A) (A) (A) (A) (A) (A) (A) (A) (A)
                 (A) (A) (A) (A) (A) (A) (A) (A) (A) (A) (A) (A)
                 (A) (A) (A) (A) (A) (A) (A) (A) (A) (A) (A) (A)
                 (A) (A) (A) (A) (A) (A) (A) (A) (A) (A) (A) (A)
                 (A) (A) (A) (A) (A) (A) (A) (A) (A)
       Virtual   (A) (A) (A) (A) (A) (A) (A) (A) (A) (A) (A) (A)
                 (A) (A) (A) (A) (A) (A) (A) (A) (A) (A) (A) (A)
                 (A) (A) (A) (A) (A) (A) (A) (A) (A) (A) (A) (A)
                 (A) (A) (A) (A) (A) (A) (A) (A) (A) (A) (A) (A)
                 (A) (A) (A) (A) (A) (A) (A) (A) (A) (A) (A) (A)
                 (A) (A) (A) (A) (A) (A) (A) (A) (A) (A) (A) (A)
                 (A) (A) (A) (A) (A) (A) (A) (A) (A) (A) (A) (A)
                 (A) (A) (A) (A) (A) (A) (A) (A) (A) (A) (A) (A)
                 (A) (A) (A) (A) (A) (A) (A) (A) (A) (A) (A) (A)
                 (A) (A) (A) (A) (A) (A) (A) (A) (A) (A) (A) (A)
                 (A) (A) (A) (A) (A) (A) (A) (A) (A) (A) (A) (A)
                 (A) (A) (A) (A) (A) (A) (A) (A) (A) (A) (A) (A)
                 (A) (A) (A) (A) (A) (A) (A) (A) (A) (A) (A) (A)
                 (A) (A) (A) (A) (A) (A) (A) (A) (A) (A) (A) (A)
                 (A) (A) (A) (A) (A) (A) (A) (A) (A) (A) (A) (A)
                 (A) (A) (A) (A) (A) (A) (A) (A) (A) (A) (A) (A)
                 (A) (A) (A) (A) (A) (A) (A) (A) (A) (A) (A) (A)
                 (A) (A) (A) (A) (A) (A) (A) (A) (A) (A) (A) (A)
                 (A) (A) (A) (A) (A) (A) (A) (A) (A) (A) (A) (A)
                 (A) (A) (A) (A) (A) (A) (A) (A) (A) (A) (A) (A)
                 (A) (A) (A) (A) (A) (A) (A) (A) (A) (A) (A) (A)
                 (A) (A) (A) (A) (A) (A) (A) (A) (A) (A) (A) (A)
                 (A) (A) (A) (A) (A) (A) (A) (A) (A) (A) (A) (A)
                 (A) (A) (A) (A) (A) (A) (A) (A) (A) (A) (A) (A)
                 (A) (A) (A) (A) (A) (A) (A) (A) (A) (A) (A) (A)
                 (A) (A) (A) (A) (A) (A) (A) (A) (A) (A) (A) (A)
                 (A) (A) (A) (A) (A) (A) (A) (A) (A) (A) (A) (A)
                 (A) (A) (A) (A) (A) (A) (A) (A) (A) (A) (A) (A)
                 (A) (A) (A) (A) (A) (A) (A) (A) (A) (A) (A) (A)
                 (A) (A) (A) (A) (A) (A) (A) (A) (A) (A) (A) (A)
                 (A) (A) (A) (A) (A) (A) (A) (A) (A) (A) (A) (A)
                 (A) (A) (A) (A) (A) (A) (A) (A) (A) (A) (A) (A)
                 (A) (A) (A) (A) (A) (A) (A) (A) (A) (A) (A) (A)
                 (A) (A) (A) (A) (A) (A) (A) (A) (A) (A) (A) (A)
                 (A) (A) (A) (A) (A) (A) (A) (A) (A) (A) (A) (A)
                 (A) (A) (A) (A) (A) (A) (A) (A) (A) (A) (A) (A)
                 (A) (A) (A) (A) (A) (A) (A) (A) (A) (A) (A) (A)
                 (A) (A) (A) (A) (A) (A) (A) (A) (A) (A) (A) (A)
                 (A) (A) (A) (A) (A) (A) (A) (A) (A) (A) (A) (A)
                 (A) (A) (A) (A) (A) (A) (A) (A) (A) (A) (A) (A)
                 (A) (A) (A) (A) (A) (A) (A) (A) (A) (A) (A) (A)
                 (A) (A) (A) (A) (A) (A) (A) (A) (A) (A) (A) (A)
                 (A) (A) (A) (A) (A) (A) (A) (A) (A) (A) (A) (A)
                 (A) (A) (A) (A) (A) (A) (A) (A) (A) (A) (A) (A)
                 (A) (A) (A) (A) (A) (A) (A) (A) (A) (A) (A) (A)
                 (A) (A) (A) (A) (A) (A) (A) (A) (A) (A) (A) (A)
                 (A) (A) (A) (A) (A) (A) (A) (A) (A) (A) (A) (A)
                 (A) (A) (A) (A) (A) (A) (A) (A) (A) (A) (A) (A)
                 (A) (A) (A) (A) (A) (A) (A) (A) (A) (A) (A) (A)
                 (A) (A) (A) (A) (A) (A) (A) (A) (A) (A) (A) (A)
                 (A) (A) (A) (A) (A) (A) (A) (A) (A) (A) (A) (A)
                 (A) (A) (A) (A) (A) (A) (A) (A) (A) (A) (A) (A)
                 (A) (A) (A) (A) (A) (A) (A) (A) (A) (A) (A) (A)
                 (A) (A) (A) (A) (A) (A) (A) (A) (A) (A) (A) (A)
                 (A) (A) (A) (A) (A) (A) (A) (A) (A) (A) (A) (A)
                 (A) (A) (A) (A) (A) (A) (A) (A) (A) (A) (A) (A)
                 (A) (A) (A) (A) (A) (A) (A) (A) (A) (A) (A) (A)
                 (A) (A) (A) (A) (A) (A) (A) (A) (A) (A) (A) (A)
                 (A) (A) (A) (A) (A) (A) (A) (A) (A) (A) (A) (A)
                 (A) (A) (A) (A) (A) (A) (A) (A) (A) (A) (A) (A)
                 (A) (A) (A) (A) (A) (A) (A) (A) (A) (A) (A) (A)
                 (A) (A) (A) (A) (A) (A) (A) (A) (A) (A) (A) (A)
                 (A) (A) (A) (A) (A) (A) (A) (A) (A) (A) (A) (A)
                 (A) (A) (A) (A) (A) (A) (A) (A) (A) (A) (A) (A)
                 (A) (A) (A) (A) (A) (A) (A) (A) (A) (A) (A) (A)
                 (A) (A) (A) (A) (A) (A) (A) (A) (A) (A) (A) (A)
                 (A) (A) (A) (A) (A) (A) (A) (A) (A) (A) (A) (A)
                 (A) (A) (A) (A) (A) (A) (A) (A) (A) (A) (A) (A)
                 (A) (A) (A) (A) (A) (A) (A) (A) (A) (A) (A) (A)
                 (A) (A) (A) (A) (A) (A) (A) (A) (A) (A) (A) (A)
                 (A) (A) (A) (A) (A) (A) (A) (A) (A) (A) (A) (A)
                 (A) (A) (A) (A) (A) (A) (A) (A) (A) (A) (A) (A)
                 (A) (A) (A) (A) (A) (A) (A) (A) (A) (A) (A) (A)
                 (A) (A) (A) (A) (A) (A) (A) (A) (A) (A) (A) (A)
                 (A) (A) (A) (A) (A) (A) (A) (A) (A) (A) (A) (A)
                 (A) (A) (A) (A) (A) (A) (A) (A) (A) (A) (A) (A)
                 (A) (A) (A) (A) (A) (A) (A) (A) (A) (A) (A) (A)
                 (A) (A) (A) (A) (A) (A) (A) (A) (A) (A) (A) (A)
                 (A) (A) (A) (A) (A) (A) (A) (A) (A) (A) (A) (A)
                 (A) (A) (A) (A) (A) (A) (A) (A) (A) (A) (A) (A)
                 (A) (A) (A) (A) (A) (A) (A) (A) (A) (A) (A) (A)
                 (A) (A) (A) (A) (A) (A) (A) (A) (A) (A) (A) (A)
                 (A) (A) (A) (A) (A) (A) (A) (A) (A) (A) (A) (A)
                 (A) (A) (A) (A) (A) (A) (A) (A) (A) (A) (A) (A)
                 (A) (A) (A) (A) (A) (A) (A) (A) (A) (A) (A) (A)
                 (A) (A) (A) (A) (A) (A) (A) (A) (A) (A) (A) (A)
                 (A) (A) (A) (A) (A) (A) (A) (A) (A) (A) (A) (A)
                 (A) (A) (A) (A) (A) (A) (A) (A) (A) (A) (A) (A)
                 (A) (A) (A) (A) (A) (A)
    40 initial guesses have been made.
 Convergence on wavefunction:    0.001000000000000
 Davidson Disk Diagonalization:  ConvIn= 1.00D-03 SkipCon=T Conv= 1.00D-03.
 Max sub-space:  2000 roots to seek:    40 dimension of matrix:       171880
 Iteration     1 Dimension    40 NMult     0 NNew     40
 CISAX will form    40 AO SS matrices at one time.
 NMat=    40 NSing=    40 JSym2X= 0.
 FoFJK:  IHMeth= 1 ICntrl=       0 DoSepK=F KAlg= 0 I1Cent=           0 FoldK=F
 IRaf= 590000000 NMat=      80 IRICut=     100 DoRegI=T DoRafI=T ISym2E= 0 IDoP0=3 IntGTp=3.
 FoFCou: FMM=F IPFlag=           0 FMFlag=      100000 FMFlg1=           0
         NFxFlg=           0 DoJE=F BraDBF=F KetDBF=F FulRan=T
         wScrn=  0.000000 ICntrl=         0 IOpCl=  1 I1Cent=           0 NGrid=           0
         NMat0=   80 NMatS0=     40 NMatT0=    0 NMatD0=   80 NMtDS0=    0 NMtDT0=    0
 Symmetry not used in FoFCou.
 Raff kept on since  57.78% of shell-pairs survive, threshold=   0.20 IRatSp=58.
 New state      2 was old state      3
 New state      3 was old state      4
 New state      4 was old state      8
 New state      5 was old state      6
 New state      6 was old state      5
 New state      8 was old state     14
 New state      9 was old state     11
 Excitation Energies [eV] at current iteration:
 Root      1 :     2.065747342018352
 Root      2 :     2.231184273931585
 Root      3 :     2.337593276379904
 Root      4 :     2.846728675560535
 Root      5 :     3.014649762502842
 Root      6 :     3.070557878788180
 Root      7 :     3.259010168035529
 Root      8 :     3.391206660326259
 Root      9 :     3.434500604392996
 Root     10 :     3.648026259848959
 Root     11 :     3.688661603554585
 Root     12 :     3.740899143180117
 Root     13 :     3.792833483501885
 Root     14 :     3.886072460219541
 Root     15 :     3.986471197430743
 Root     16 :     4.048748411291786
 Root     17 :     4.195417187326103
 Root     18 :     4.412709892927825
 Root     19 :     4.516791890234253
 Root     20 :     4.539156454760334
 Root     21 :     4.634664057104357
 Root     22 :     4.932575622727341
 Root     23 :     5.009516792964699
 Root     24 :     5.084560557210803
 Root     25 :     5.134141277828745
 Root     26 :     5.159067045928846
 Root     27 :     5.260631832983266
 Root     28 :     5.302424133140706
 Root     29 :     5.442283943986495
 Root     30 :     5.451982856054271
 Root     31 :     5.476410863018627
 Root     32 :     5.549710032254967
 Root     33 :     5.591484413896116
 Root     34 :     5.662486008750842
 Root     35 :     5.803415764359336
 Root     36 :     5.829276400073230
 Root     37 :     5.879664721394741
 Root     38 :     5.958365748965678
 Root     39 :     6.169446548028684
 Root     40 :     6.175758851312242
 Iteration     2 Dimension    60 NMult    40 NNew     20
 CISAX will form    20 AO SS matrices at one time.
 NMat=    20 NSing=    20 JSym2X= 0.
 Root      1 not converged, maximum delta is    0.062381088669596
 Root      2 not converged, maximum delta is    0.169572639626532
 Root      3 not converged, maximum delta is    0.190090004775003
 Root      4 not converged, maximum delta is    0.210198105082036
 New state      5 was old state      6
 Root      5 not converged, maximum delta is    0.552138512726720
 New state      6 was old state      5
 Root      6 not converged, maximum delta is    0.352010045427564
 Root      7 not converged, maximum delta is    0.171528242035983
 Root      8 not converged, maximum delta is    0.110227183822936
 Root      9 not converged, maximum delta is    0.111548745509356
 Root     10 not converged, maximum delta is    0.172365086649800
 Excitation Energies [eV] at current iteration:
 Root      1 :     1.842119748252998   Change is   -0.223627593765354
 Root      2 :     2.042232045186067   Change is   -0.188952228745518
 Root      3 :     2.073300709124617   Change is   -0.264292567255287
 Root      4 :     2.611071419367434   Change is   -0.235657256193100
 Root      5 :     2.786971712926602   Change is   -0.283586165861578
 Root      6 :     2.850854576022677   Change is   -0.163795186480165
 Root      7 :     2.964339391306867   Change is   -0.294670776728663
 Root      8 :     3.101678283431264   Change is   -0.289528376894996
 Root      9 :     3.180167549677537   Change is   -0.254333054715458
 Root     10 :     3.484027540397822   Change is   -0.163998719451136
 Iteration     3 Dimension    80 NMult    60 NNew     20
 CISAX will form    20 AO SS matrices at one time.
 NMat=    20 NSing=    20 JSym2X= 0.
 Root      1 not converged, maximum delta is    0.019750236228670
 Root      2 not converged, maximum delta is    0.081811674094475
 Root      3 not converged, maximum delta is    0.098337426337386
 Root      4 not converged, maximum delta is    0.043992805852668
 Root      5 not converged, maximum delta is    0.042285401306162
 Root      6 not converged, maximum delta is    0.031857453989573
 Root      7 not converged, maximum delta is    0.043556981424437
 Root      8 not converged, maximum delta is    0.044149150830982
 Root      9 not converged, maximum delta is    0.057536966290173
 Root     10 not converged, maximum delta is    0.325618815860943
 Excitation Energies [eV] at current iteration:
 Root      1 :     1.807526303112764   Change is   -0.034593445140234
 Root      2 :     1.998105927241242   Change is   -0.044126117944826
 Root      3 :     2.035147741765241   Change is   -0.038152967359377
 Root      4 :     2.569200552850726   Change is   -0.041870866516708
 Root      5 :     2.750509645770745   Change is   -0.036462067155857
 Root      6 :     2.813921809595508   Change is   -0.036932766427169
 Root      7 :     2.926949777387826   Change is   -0.037389613919041
 Root      8 :     3.057922245658529   Change is   -0.043756037772734
 Root      9 :     3.118867247815502   Change is   -0.061300301862035
 Root     10 :     3.397447922170855   Change is   -0.086579618226967
 Iteration     4 Dimension   100 NMult    80 NNew     20
 CISAX will form    20 AO SS matrices at one time.
 NMat=    20 NSing=    20 JSym2X= 0.
 Root      1 not converged, maximum delta is    0.006637042269275
 Root      2 not converged, maximum delta is    0.009128725320121
 Root      3 not converged, maximum delta is    0.006936897687325
 Root      4 not converged, maximum delta is    0.015604337274368
 Root      5 not converged, maximum delta is    0.017897645149030
 Root      6 not converged, maximum delta is    0.013101874956400
 Root      7 not converged, maximum delta is    0.010732590405357
 Root      8 not converged, maximum delta is    0.016574592543058
 Root      9 not converged, maximum delta is    0.027204206175312
 Root     10 not converged, maximum delta is    0.276259421598092
 Excitation Energies [eV] at current iteration:
 Root      1 :     1.801432556207144   Change is   -0.006093746905620
 Root      2 :     1.991437724138894   Change is   -0.006668203102348
 Root      3 :     2.029061114336928   Change is   -0.006086627428312
 Root      4 :     2.561442867058128   Change is   -0.007757685792598
 Root      5 :     2.744180274760984   Change is   -0.006329371009762
 Root      6 :     2.810365104142690   Change is   -0.003556705452817
 Root      7 :     2.920453219305495   Change is   -0.006496558082330
 Root      8 :     3.051880032516725   Change is   -0.006042213141804
 Root      9 :     3.105804122261656   Change is   -0.013063125553845
 Root     10 :     3.325555899427282   Change is   -0.071892022743573
 Iteration     5 Dimension   120 NMult   100 NNew     20
 CISAX will form    20 AO SS matrices at one time.
 NMat=    20 NSing=    20 JSym2X= 0.
 Root      1 not converged, maximum delta is    0.002569899821228
 Root      2 not converged, maximum delta is    0.001763409486855
 Root      3 not converged, maximum delta is    0.003066792584696
 Root      4 not converged, maximum delta is    0.005110803998400
 Root      5 not converged, maximum delta is    0.003550342830513
 Root      6 not converged, maximum delta is    0.001816511756698
 Root      7 not converged, maximum delta is    0.003220135876632
 Root      8 not converged, maximum delta is    0.006579544912194
 Root      9 not converged, maximum delta is    0.011103532573249
 Root     10 not converged, maximum delta is    0.057790422239212
 Excitation Energies [eV] at current iteration:
 Root      1 :     1.800463615252633   Change is   -0.000968940954512
 Root      2 :     1.990528971949909   Change is   -0.000908752188985
 Root      3 :     2.028044662277283   Change is   -0.001016452059646
 Root      4 :     2.559843117114755   Change is   -0.001599749943374
 Root      5 :     2.743124723360742   Change is   -0.001055551400242
 Root      6 :     2.809893047803669   Change is   -0.000472056339022
 Root      7 :     2.919175438348172   Change is   -0.001277780957323
 Root      8 :     3.051150125315163   Change is   -0.000729907201561
 Root      9 :     3.102894573796067   Change is   -0.002909548465590
 Root     10 :     3.308127924622041   Change is   -0.017427974805241
 Iteration     6 Dimension   140 NMult   120 NNew     20
 CISAX will form    20 AO SS matrices at one time.
 NMat=    20 NSing=    20 JSym2X= 0.
 Root      1 has converged.
 Root      2 has converged.
 Root      3 not converged, maximum delta is    0.001362667470720
 Root      4 not converged, maximum delta is    0.002386360078599
 Root      5 not converged, maximum delta is    0.001773995516518
 Root      6 has converged.
 Root      7 not converged, maximum delta is    0.001553027993646
 Root      8 not converged, maximum delta is    0.002465185990404
 Root      9 not converged, maximum delta is    0.002991630612841
 Root     10 not converged, maximum delta is    0.033831877979737
 Excitation Energies [eV] at current iteration:
 Root      1 :     1.800323571812982   Change is   -0.000140043439651
 Root      2 :     1.990435013882359   Change is   -0.000093958067550
 Root      3 :     2.027899984737149   Change is   -0.000144677540134
 Root      4 :     2.559577826871187   Change is   -0.000265290243568
 Root      5 :     2.742954954484832   Change is   -0.000169768875910
 Root      6 :     2.809841691370253   Change is   -0.000051356433416
 Root      7 :     2.918971165226446   Change is   -0.000204273121726
 Root      8 :     3.051025642798010   Change is   -0.000124482517154
 Root      9 :     3.102324467369606   Change is   -0.000570106426460
 Root     10 :     3.303766747439200   Change is   -0.004361177182841
 Iteration     7 Dimension   154 NMult   140 NNew     14
 CISAX will form    14 AO SS matrices at one time.
 NMat=    14 NSing=    14 JSym2X= 0.
 Root      1 has converged.
 Root      2 has converged.
 Root      3 has converged.
 Root      4 has converged.
 Root      5 has converged.
 Root      6 has converged.
 Root      7 has converged.
 Root      8 not converged, maximum delta is    0.002164433702169
 Root      9 has converged.
 Root     10 not converged, maximum delta is    0.076954877801616
 Excitation Energies [eV] at current iteration:
 Root      1 :     1.800320022339492   Change is   -0.000003549473490
 Root      2 :     1.990423864198446   Change is   -0.000011149683913
 Root      3 :     2.027876278634879   Change is   -0.000023706102270
 Root      4 :     2.559533276398669   Change is   -0.000044550472517
 Root      5 :     2.742922979299833   Change is   -0.000031975184999
 Root      6 :     2.809837306638207   Change is   -0.000004384732045
 Root      7 :     2.918930567979956   Change is   -0.000040597246489
 Root      8 :     3.051002514939533   Change is   -0.000023127858477
 Root      9 :     3.102239243454241   Change is   -0.000085223915366
 Root     10 :     3.300455949351551   Change is   -0.003310798087649
 Iteration     8 Dimension   158 NMult   154 NNew      4
 CISAX will form     4 AO SS matrices at one time.
 NMat=     4 NSing=     4 JSym2X= 0.
 Root      1 has converged.
 Root      2 has converged.
 Root      3 has converged.
 Root      4 has converged.
 Root      5 has converged.
 Root      6 has converged.
 Root      7 has converged.
 Root      8 has converged.
 Root      9 has converged.
 Root     10 not converged, maximum delta is    0.105091438968650
 Excitation Energies [eV] at current iteration:
 Root      1 :     1.800319949512286   Change is   -0.000000072827206
 Root      2 :     1.990423773925852   Change is   -0.000000090272594
 Root      3 :     2.027875814815399   Change is   -0.000000463819480
 Root      4 :     2.559532810845451   Change is   -0.000000465553218
 Root      5 :     2.742922769228489   Change is   -0.000000210071345
 Root      6 :     2.809836663513326   Change is   -0.000000643124881
 Root      7 :     2.918929590732038   Change is   -0.000000977247919
 Root      8 :     3.050998537421661   Change is   -0.000003977517872
 Root      9 :     3.102236835021996   Change is   -0.000002408432244
 Root     10 :     3.297179077175134   Change is   -0.003276872176417
 Iteration     9 Dimension   160 NMult   158 NNew      2
 CISAX will form     2 AO SS matrices at one time.
 NMat=     2 NSing=     2 JSym2X= 0.
 Root      1 has converged.
 Root      2 has converged.
 Root      3 has converged.
 Root      4 has converged.
 Root      5 has converged.
 Root      6 has converged.
 Root      7 has converged.
 Root      8 has converged.
 Root      9 has converged.
 Root     10 not converged, maximum delta is    0.036127651805638
 Excitation Energies [eV] at current iteration:
 Root      1 :     1.800319906576812   Change is   -0.000000042935474
 Root      2 :     1.990423748574859   Change is   -0.000000025350993
 Root      3 :     2.027875786219660   Change is   -0.000000028595739
 Root      4 :     2.559532806086630   Change is   -0.000000004758821
 Root      5 :     2.742922753925532   Change is   -0.000000015302957
 Root      6 :     2.809836600185078   Change is   -0.000000063328248
 Root      7 :     2.918929587118340   Change is   -0.000000003613698
 Root      8 :     3.050998328514904   Change is   -0.000000208906757
 Root      9 :     3.102236827277245   Change is   -0.000000007744751
 Root     10 :     3.296155793491292   Change is   -0.001023283683843
 Iteration    10 Dimension   162 NMult   160 NNew      2
 CISAX will form     2 AO SS matrices at one time.
 NMat=     2 NSing=     2 JSym2X= 0.
 Root      1 has converged.
 Root      2 has converged.
 Root      3 has converged.
 Root      4 has converged.
 Root      5 has converged.
 Root      6 has converged.
 Root      7 has converged.
 Root      8 has converged.
 Root      9 has converged.
 Root     10 not converged, maximum delta is    0.006109567322776
 Excitation Energies [eV] at current iteration:
 Root      1 :     1.800319633043268   Change is   -0.000000273533544
 Root      2 :     1.990423725854771   Change is   -0.000000022720087
 Root      3 :     2.027875766571428   Change is   -0.000000019648232
 Root      4 :     2.559532734567103   Change is   -0.000000071519527
 Root      5 :     2.742922720467479   Change is   -0.000000033458053
 Root      6 :     2.809836595966329   Change is   -0.000000004218749
 Root      7 :     2.918929538417393   Change is   -0.000000048700947
 Root      8 :     3.050998320669673   Change is   -0.000000007845231
 Root      9 :     3.102236754288638   Change is   -0.000000072988607
 Root     10 :     3.295999082241055   Change is   -0.000156711250236
 Iteration    11 Dimension   164 NMult   162 NNew      2
 CISAX will form     2 AO SS matrices at one time.
 NMat=     2 NSing=     2 JSym2X= 0.
 Root      1 has converged.
 Root      2 has converged.
 Root      3 has converged.
 Root      4 has converged.
 Root      5 has converged.
 Root      6 has converged.
 Root      7 has converged.
 Root      8 has converged.
 Root      9 has converged.
 Root     10 has converged.
 Excitation Energies [eV] at current iteration:
 Root      1 :     1.800319599859657   Change is   -0.000000033183611
 Root      2 :     1.990423584099416   Change is   -0.000000141755355
 Root      3 :     2.027875737118821   Change is   -0.000000029452606
 Root      4 :     2.559532503657693   Change is   -0.000000230909410
 Root      5 :     2.742922453339190   Change is   -0.000000267128289
 Root      6 :     2.809836509211846   Change is   -0.000000086754483
 Root      7 :     2.918929506719139   Change is   -0.000000031698254
 Root      8 :     3.050998310781135   Change is   -0.000000009888537
 Root      9 :     3.102236605065106   Change is   -0.000000149223533
 Root     10 :     3.295978219769154   Change is   -0.000020862471902
 Convergence achieved on expansion vectors.
 ***********************************************************************
 Excited states from <AA,BB:AA,BB> singles matrix:
 ***********************************************************************
 
 ExtSpn:  IState=     1 X2= 1.017 Y2= 0.017 X2-Y2-1= 1.11D-15
          S2Grnd=  2.044 Ra=  0.005 Rb=  0.013 T=  0.008 S2Ext=  0.026 S2=  2.069
 ExtSpn:  IState=     2 X2= 1.007 Y2= 0.007 X2-Y2-1= 2.22D-16
          S2Grnd=  2.044 Ra=  0.007 Rb=  0.011 T=  0.019 S2Ext=  0.037 S2=  2.081
 ExtSpn:  IState=     3 X2= 1.014 Y2= 0.014 X2-Y2-1= 6.66D-16
          S2Grnd=  2.044 Ra=  0.003 Rb=  0.010 T=  0.002 S2Ext=  0.015 S2=  2.059
 ExtSpn:  IState=     4 X2= 1.009 Y2= 0.009 X2-Y2-1= 2.66D-15
          S2Grnd=  2.044 Ra=  0.012 Rb=  0.020 T=  0.015 S2Ext=  0.046 S2=  2.090
 ExtSpn:  IState=     5 X2= 1.006 Y2= 0.006 X2-Y2-1= 2.44D-15
          S2Grnd=  2.044 Ra=  0.012 Rb=  0.028 T=  0.020 S2Ext=  0.059 S2=  2.103
 ExtSpn:  IState=     6 X2= 1.004 Y2= 0.004 X2-Y2-1= 2.89D-15
          S2Grnd=  2.044 Ra=  0.013 Rb=  0.029 T=  0.021 S2Ext=  0.062 S2=  2.106
 ExtSpn:  IState=     7 X2= 1.008 Y2= 0.008 X2-Y2-1=-1.11D-16
          S2Grnd=  2.044 Ra=  0.023 Rb=  0.013 T=  0.022 S2Ext=  0.058 S2=  2.101
 ExtSpn:  IState=     8 X2= 1.003 Y2= 0.003 X2-Y2-1= 8.88D-16
          S2Grnd=  2.044 Ra=  0.005 Rb=  0.038 T=  0.018 S2Ext=  0.061 S2=  2.105
 ExtSpn:  IState=     9 X2= 1.009 Y2= 0.009 X2-Y2-1=-6.66D-16
          S2Grnd=  2.044 Ra=  0.067 Rb=  0.032 T=  0.080 S2Ext=  0.179 S2=  2.222
 ExtSpn:  IState=    10 X2= 1.002 Y2= 0.002 X2-Y2-1=-1.55D-15
          S2Grnd=  2.044 Ra=  0.070 Rb=  0.024 T=  0.031 S2Ext=  0.125 S2=  2.169
 1PDM for each excited state written to RWF  633
 Ground to excited state transition densities written to RWF  633
 Ground to excited state transition electric dipole moments (Au):
       state          X           Y           Z        Dip. S.      Osc.
         1        -1.3966      0.4724      0.1146      2.1867      0.0964
         2        -0.1536      0.1273      0.0281      0.0406      0.0020
         3        -2.5022     -0.5130     -0.0428      6.5261      0.3242
         4         0.3665      0.5552      0.0689      0.4473      0.0280
         5         0.1291      0.5414      0.0169      0.3101      0.0208
         6        -0.8903     -0.1896      0.0572      0.8318      0.0573
         7         2.2806     -0.3887     -0.0755      5.3579      0.3832
         8         0.3439      0.0695     -0.0401      0.1247      0.0093
         9         2.5244     -0.0041     -0.0615      6.3765      0.4846
        10         0.0925      0.0222     -0.0009      0.0090      0.0007
 Ground to excited state transition velocity dipole moments (Au):
       state          X           Y           Z        Dip. S.      Osc.
         1         0.0950     -0.0328     -0.0076      0.0101      0.1023
         2         0.0118     -0.0098     -0.0021      0.0002      0.0022
         3         0.1928      0.0401      0.0031      0.0388      0.3470
         4        -0.0368     -0.0537     -0.0068      0.0043      0.0304
         5        -0.0134     -0.0566     -0.0017      0.0034      0.0224
         6         0.0966      0.0207     -0.0066      0.0098      0.0634
         7        -0.2556      0.0433      0.0085      0.0673      0.4181
         8        -0.0398     -0.0085      0.0065      0.0017      0.0101
         9        -0.2985      0.0003      0.0068      0.0892      0.5214
        10        -0.0121     -0.0029      0.0002      0.0002      0.0009
 Ground to excited state transition magnetic dipole moments (Au):
       state          X           Y           Z
         1        -0.0187     -0.0703     -0.0592
         2        -0.0049      0.1650     -0.7366
         3         0.0003     -0.1194     -0.2059
         4        -0.0233      0.0756     -0.3540
         5         0.0157      0.0559      0.5367
         6        -0.0012     -0.1182      0.6315
         7         0.0574      0.4915     -0.1015
         8         0.0399     -0.0258      0.3004
         9         0.0159      0.0890      0.9699
        10        -0.0732     -0.6134     -0.0086
 Ground to excited state transition velocity quadrupole moments (Au):
       state          XX          YY          ZZ          XY          XZ          YZ
         1         0.1534     -0.1502      0.0050     -0.1777     -0.0279     -0.0137
         2         0.0584     -0.0567      0.0007     -0.0007     -0.0014     -0.0068
         3        -0.7177      0.2231     -0.0002      0.0273      0.0180      0.0467
         4         2.2027     -0.2787      0.0063     -0.2766     -0.0497     -0.0637
         5         1.5834     -0.2217      0.0092     -0.1024     -0.0490     -0.0292
         6        -0.3961      0.0265      0.0005      0.0292     -0.0285     -0.0068
         7        -0.9195      0.1106     -0.0060      0.5370      0.0413      0.0032
         8         0.3981     -0.0807      0.0163     -0.0160      0.0073      0.0242
         9         0.3787      0.0188     -0.0052      0.2666      0.0134     -0.0285
        10         0.0907     -0.0184      0.0027      0.0493     -0.0225      0.0021
 <0|del|b> * <b|rxdel|0> + <0|del|b> * <b|delr+rdel|0>
 Rotatory Strengths (R) in cgs (10**-40 erg-esu-cm/Gauss)
       state          XX          YY          ZZ    R(velocity)    E-M Angle
         1        17.1138    -21.2742     14.6826      3.5074       84.02
         2        -0.3112      6.8458     -7.6078     -0.3577       90.55
         3       -28.7506     39.5843    -61.7318    -16.9660       96.57
         4        -9.1138     14.0299    -10.8244     -1.9694       91.90
         5       -23.4198     -3.1667     -3.4749    -10.0204       97.84
         6       -21.3698    -16.3356     -8.5843    -15.4299       96.10
         7        76.4184    -68.9802     30.3874     12.6085       87.49
         8         6.7360     -1.5220     -1.4809      1.2444       87.29
         9        26.2364     26.5691    -41.0278      3.9259       89.63
        10         4.9992      2.4830      8.0199      5.1674       69.84
 1/2[<0|r|b>*<b|rxdel|0> + (<0|rxdel|b>*<b|r|0>)*]
 Rotatory Strengths (R) in cgs (10**-40 erg-esu-cm/Gauss)
       state          XX          YY          ZZ     R(length)
         1       -18.4712     23.4990      4.8002      3.2760
         2        -0.5363    -14.8501     14.6426     -0.2479
         3         0.5382    -43.3225     -6.2257    -16.3366
         4         6.0350    -29.6892     17.2428     -2.1371
         5        -1.4329    -21.4103     -6.4310     -9.7581
         6        -0.7852    -15.8428    -25.5530    -14.0603
         7       -92.5606    135.1150     -5.4202     12.3781
         8        -9.7039      1.2700      8.5116      0.0259
         9       -28.3801      0.2586     42.1519      4.6768
        10         4.7858      9.6307     -0.0052      4.8038
  1/2[<0|del|b>*<b|r|0> + (<0|r|b>*<b|del|0>)*] (Au)
       state          X           Y           Z        Dip. S.   Osc.(frdel)
         1        -0.1326     -0.0155     -0.0009      0.1490      0.0993
         2        -0.0018     -0.0012     -0.0001      0.0031      0.0021
         3        -0.4824     -0.0206     -0.0001      0.5031      0.3354
         4        -0.0135     -0.0298     -0.0005      0.0438      0.0292
         5        -0.0017     -0.0306     -0.0000      0.0324      0.0216
         6        -0.0860     -0.0039     -0.0004      0.0903      0.0602
         7        -0.5829     -0.0168     -0.0006      0.6004      0.4002
         8        -0.0137     -0.0006     -0.0003      0.0145      0.0097
         9        -0.7536     -0.0000     -0.0004      0.7540      0.5027
        10        -0.0011     -0.0001     -0.0000      0.0012      0.0008

 Excitation energies and oscillator strengths:
 
 Excited State   1:  3.046-A      1.8003 eV  688.68 nm  f=0.0964  <S**2>=2.069
    118A -> 120A       0.10084
    119A -> 120A      -0.63168
    119A -> 125A       0.14210
    110B -> 118B      -0.22971
    116B -> 118B      -0.18256
    117B -> 118B       0.65023
    117B -> 119B      -0.14038
 This state for optimization and/or second-order correction.
 Total Energy, E(TD-HF/TD-DFT) =  -1682.39718452    
 Copying the excited state density for this state as the 1-particle RhoCI density.
 
 Excited State   2:  3.053-A      1.9904 eV  622.90 nm  f=0.0020  <S**2>=2.081
    119A -> 121A      -0.13540
    104B -> 118B      -0.10474
    114B -> 118B      -0.29058
    115B -> 118B      -0.49692
    116B -> 118B       0.73773
    117B -> 118B       0.15005
 
 Excited State   3:  3.039-A      2.0279 eV  611.40 nm  f=0.3242  <S**2>=2.059
    119A -> 120A       0.50998
    119A -> 121A       0.38891
    107B -> 118B       0.13286
    114B -> 118B       0.11095
    115B -> 118B       0.20246
    116B -> 118B       0.22481
    116B -> 119B       0.14812
    117B -> 118B       0.60704
 
 Excited State   4:  3.059-A      2.5595 eV  484.40 nm  f=0.0280  <S**2>=2.090
    119A -> 120A      -0.30938
    119A -> 121A       0.12353
    119A -> 124A      -0.12925
    119A -> 125A       0.16222
    111B -> 118B      -0.11706
    112B -> 118B      -0.20670
    114B -> 119B       0.10122
    115B -> 118B       0.65704
    116B -> 118B       0.45457
    117B -> 118B      -0.17284
    117B -> 119B       0.11974
 
 Excited State   5:  3.068-A      2.7429 eV  452.01 nm  f=0.0208  <S**2>=2.103
    119A -> 120A      -0.11736
    119A -> 125A       0.12855
    111B -> 118B      -0.19430
    112B -> 118B       0.59658
    112B -> 119B      -0.11809
    113B -> 118B       0.14632
    114B -> 118B       0.58193
    115B -> 119B       0.17830
    116B -> 118B       0.27736
    117B -> 118B      -0.10458
 
 Excited State   6:  3.070-A      2.8098 eV  441.25 nm  f=0.0573  <S**2>=2.106
    119A -> 120A       0.10632
    119A -> 121A      -0.25327
    119A -> 123A      -0.22666
    119A -> 125A      -0.12154
    119A -> 126A       0.10405
    109B -> 118B      -0.17483
    111B -> 118B      -0.25344
    112B -> 118B      -0.17506
    113B -> 118B       0.75752
    113B -> 119B       0.20281
    115B -> 118B       0.16589
    117B -> 118B       0.10004
 
 Excited State   7:  3.067-A      2.9189 eV  424.76 nm  f=0.3832  <S**2>=2.101
    119A -> 120A      -0.14054
    119A -> 121A       0.60687
    119A -> 123A       0.18907
    119A -> 124A      -0.24001
    119A -> 125A       0.19533
    119A -> 126A      -0.31719
    113B -> 118B       0.41176
    113B -> 119B       0.10659
    115B -> 118B      -0.29077
    117B -> 118B      -0.13987
 
 Excited State   8:  3.069-A      3.0510 eV  406.37 nm  f=0.0093  <S**2>=2.105
    119A -> 123A      -0.14872
    119A -> 126A       0.10357
    108B -> 119B       0.16275
    109B -> 118B       0.90260
    109B -> 129B       0.12250
    113B -> 118B       0.10123
 
 Excited State   9:  3.145-A      3.1022 eV  399.66 nm  f=0.4846  <S**2>=2.222
    117A -> 121A       0.10153
    118A -> 120A       0.38581
    119A -> 120A      -0.25634
    119A -> 121A       0.40208
    119A -> 122A       0.24102
    119A -> 123A      -0.31729
    119A -> 124A       0.20642
    119A -> 125A      -0.19378
    119A -> 126A       0.32409
    119A -> 130A      -0.11620
    104B -> 118B      -0.12930
    109B -> 118B      -0.19316
    110B -> 118B       0.20299
    117B -> 118B      -0.17019
    117B -> 119B      -0.13946
 
 Excited State  10:  3.110-A      3.2960 eV  376.17 nm  f=0.0007  <S**2>=2.169
    112A -> 127A       0.17853
    117A -> 127A      -0.10761
    119A -> 122A      -0.11031
    119A -> 125A      -0.12470
    119A -> 126A       0.16807
    119A -> 127A       0.71707
    119A -> 128A      -0.18305
    108B -> 118B       0.46221
    109B -> 119B       0.19659
    109B -> 120B      -0.12571
 SavETr:  write IOETrn=   770 NScale= 10 NData=  16 NLR=1 NState=   10 LETran=     190.
 Leave Link  914 at Thu Mar 14 11:31:03 2024, MaxMem= 32212254720 cpu:          183634.9 elap:            6121.2
 (Enter /home/<user>/g16/l601.exe)
 Copying SCF densities to generalized density rwf, IOpCl= 1 IROHF=0.

 **********************************************************************

            Population analysis using the SCF Density.

 **********************************************************************

 Orbital symmetries:
 Alpha Orbitals:
       Occupied  (A) (A) (A) (A) (A) (A) (A) (A) (A) (A) (A) (A)
                 (A) (A) (A) (A) (A) (A) (A) (A) (A) (A) (A) (A)
                 (A) (A) (A) (A) (A) (A) (A) (A) (A) (A) (A) (A)
                 (A) (A) (A) (A) (A) (A) (A) (A) (A) (A) (A) (A)
                 (A) (A) (A) (A) (A) (A) (A) (A) (A) (A) (A) (A)
                 (A) (A) (A) (A) (A) (A) (A) (A) (A) (A) (A) (A)
                 (A) (A) (A) (A) (A) (A) (A) (A) (A) (A) (A) (A)
                 (A) (A) (A) (A) (A) (A) (A) (A) (A) (A) (A) (A)
                 (A) (A) (A) (A) (A) (A) (A) (A) (A) (A) (A) (A)
                 (A) (A) (A) (A) (A) (A) (A) (A) (A) (A) (A)
       Virtual   (A) (A) (A) (A) (A) (A) (A) (A) (A) (A) (A) (A)
                 (A) (A) (A) (A) (A) (A) (A) (A) (A) (A) (A) (A)
                 (A) (A) (A) (A) (A) (A) (A) (A) (A) (A) (A) (A)
                 (A) (A) (A) (A) (A) (A) (A) (A) (A) (A) (A) (A)
                 (A) (A) (A) (A) (A) (A) (A) (A) (A) (A) (A) (A)
                 (A) (A) (A) (A) (A) (A) (A) (A) (A) (A) (A) (A)
                 (A) (A) (A) (A) (A) (A) (A) (A) (A) (A) (A) (A)
                 (A) (A) (A) (A) (A) (A) (A) (A) (A) (A) (A) (A)
                 (A) (A) (A) (A) (A) (A) (A) (A) (A) (A) (A) (A)
                 (A) (A) (A) (A) (A) (A) (A) (A) (A) (A) (A) (A)
                 (A) (A) (A) (A) (A) (A) (A) (A) (A) (A) (A) (A)
                 (A) (A) (A) (A) (A) (A) (A) (A) (A) (A) (A) (A)
                 (A) (A) (A) (A) (A) (A) (A) (A) (A) (A) (A) (A)
                 (A) (A) (A) (A) (A) (A) (A) (A) (A) (A) (A) (A)
                 (A) (A) (A) (A) (A) (A) (A) (A) (A) (A) (A) (A)
                 (A) (A) (A) (A) (A) (A) (A) (A) (A) (A) (A) (A)
                 (A) (A) (A) (A) (A) (A) (A) (A) (A) (A) (A) (A)
                 (A) (A) (A) (A) (A) (A) (A) (A) (A) (A) (A) (A)
                 (A) (A) (A) (A) (A) (A) (A) (A) (A) (A) (A) (A)
                 (A) (A) (A) (A) (A) (A) (A) (A) (A) (A) (A) (A)
                 (A) (A) (A) (A) (A) (A) (A) (A) (A) (A) (A) (A)
                 (A) (A) (A) (A) (A) (A) (A) (A) (A) (A) (A) (A)
                 (A) (A) (A) (A) (A) (A) (A) (A) (A) (A) (A) (A)
                 (A) (A) (A) (A) (A) (A) (A) (A) (A) (A) (A) (A)
                 (A) (A) (A) (A) (A) (A) (A) (A) (A) (A) (A) (A)
                 (A) (A) (A) (A) (A) (A) (A) (A) (A) (A) (A) (A)
                 (A) (A) (A) (A) (A) (A) (A) (A) (A) (A) (A) (A)
                 (A) (A) (A) (A) (A) (A) (A) (A) (A) (A) (A) (A)
                 (A) (A) (A) (A) (A) (A) (A) (A) (A) (A) (A) (A)
                 (A) (A) (A) (A) (A) (A) (A) (A) (A) (A) (A) (A)
                 (A) (A) (A) (A) (A) (A) (A) (A) (A) (A) (A) (A)
                 (A) (A) (A) (A) (A) (A) (A) (A) (A) (A) (A) (A)
                 (A) (A) (A) (A) (A) (A) (A) (A) (A) (A) (A) (A)
                 (A) (A) (A) (A) (A) (A) (A) (A) (A) (A) (A) (A)
                 (A) (A) (A) (A) (A) (A) (A) (A) (A) (A) (A) (A)
                 (A) (A) (A) (A) (A) (A) (A) (A) (A) (A) (A) (A)
                 (A) (A) (A) (A) (A) (A) (A) (A) (A) (A) (A) (A)
                 (A) (A) (A) (A) (A) (A) (A) (A) (A) (A) (A) (A)
                 (A) (A) (A) (A) (A) (A) (A) (A) (A) (A) (A) (A)
                 (A) (A) (A) (A) (A) (A) (A) (A) (A) (A) (A) (A)
                 (A) (A) (A) (A) (A) (A) (A) (A) (A) (A) (A) (A)
                 (A) (A) (A) (A) (A) (A) (A) (A) (A) (A) (A) (A)
                 (A) (A) (A) (A) (A) (A) (A) (A) (A) (A) (A) (A)
                 (A) (A) (A) (A) (A) (A) (A) (A) (A) (A) (A) (A)
                 (A) (A) (A) (A) (A) (A) (A) (A) (A) (A) (A) (A)
                 (A) (A) (A) (A) (A) (A) (A) (A) (A) (A) (A) (A)
                 (A) (A) (A) (A) (A) (A) (A) (A) (A) (A) (A) (A)
                 (A) (A) (A) (A) (A) (A) (A) (A) (A) (A) (A) (A)
                 (A) (A) (A) (A) (A) (A) (A) (A) (A) (A) (A) (A)
                 (A) (A) (A) (A) (A) (A) (A) (A) (A) (A) (A) (A)
                 (A) (A) (A) (A) (A) (A) (A) (A) (A) (A) (A) (A)
                 (A) (A) (A) (A) (A) (A) (A) (A) (A) (A) (A) (A)
                 (A) (A) (A) (A) (A) (A) (A) (A) (A) (A) (A) (A)
                 (A) (A) (A) (A) (A) (A) (A) (A) (A) (A) (A) (A)
                 (A) (A) (A) (A) (A) (A) (A) (A) (A) (A) (A) (A)
                 (A) (A) (A) (A) (A) (A) (A) (A) (A) (A) (A) (A)
                 (A) (A) (A) (A) (A) (A) (A) (A) (A) (A) (A) (A)
                 (A) (A) (A) (A) (A) (A) (A) (A) (A) (A) (A) (A)
                 (A) (A) (A) (A) (A) (A) (A) (A) (A) (A) (A) (A)
                 (A) (A) (A) (A) (A) (A) (A) (A) (A) (A) (A) (A)
                 (A) (A) (A) (A) (A) (A) (A) (A) (A) (A) (A) (A)
                 (A) (A) (A) (A) (A) (A) (A) (A) (A) (A) (A) (A)
                 (A) (A) (A) (A) (A) (A) (A) (A) (A) (A) (A) (A)
                 (A) (A) (A) (A) (A) (A) (A) (A) (A) (A) (A) (A)
                 (A) (A) (A) (A) (A) (A) (A) (A) (A) (A) (A) (A)
                 (A) (A) (A) (A) (A) (A) (A) (A) (A) (A) (A) (A)
                 (A) (A) (A) (A) (A) (A) (A) (A) (A) (A) (A) (A)
                 (A) (A) (A) (A) (A) (A) (A) (A) (A) (A) (A) (A)
                 (A) (A) (A) (A) (A) (A) (A) (A) (A) (A) (A) (A)
                 (A) (A) (A) (A) (A) (A) (A) (A) (A) (A) (A) (A)
                 (A) (A) (A) (A) (A) (A) (A) (A) (A) (A) (A) (A)
                 (A) (A) (A) (A) (A) (A) (A) (A) (A) (A) (A) (A)
                 (A) (A) (A) (A) (A) (A) (A) (A) (A) (A) (A) (A)
                 (A) (A) (A) (A) (A) (A) (A) (A) (A) (A) (A) (A)
                 (A) (A) (A) (A) (A) (A) (A) (A) (A) (A) (A) (A)
                 (A) (A) (A) (A) (A) (A) (A) (A) (A) (A) (A) (A)
                 (A) (A) (A) (A) (A) (A) (A) (A) (A) (A) (A) (A)
                 (A) (A) (A) (A) (A) (A) (A) (A) (A) (A) (A) (A)
                 (A) (A) (A) (A) (A) (A) (A) (A) (A) (A) (A) (A)
                 (A) (A) (A) (A) (A) (A) (A) (A) (A) (A) (A) (A)
                 (A) (A) (A) (A) (A) (A) (A) (A) (A) (A) (A) (A)
                 (A) (A) (A) (A) (A) (A) (A) (A) (A) (A) (A) (A)
                 (A) (A) (A) (A) (A) (A) (A) (A) (A) (A) (A) (A)
                 (A) (A) (A) (A) (A) (A) (A) (A) (A) (A) (A) (A)
                 (A) (A) (A) (A) (A) (A) (A) (A) (A) (A) (A) (A)
                 (A) (A) (A) (A) (A) (A) (A) (A) (A) (A) (A) (A)
                 (A) (A) (A) (A) (A) (A) (A) (A) (A) (A) (A) (A)
                 (A) (A) (A) (A) (A) (A) (A) (A) (A) (A) (A) (A)
                 (A) (A) (A) (A)
 Beta  Orbitals:
       Occupied  (A) (A) (A) (A) (A) (A) (A) (A) (A) (A) (A) (A)
                 (A) (A) (A) (A) (A) (A) (A) (A) (A) (A) (A) (A)
                 (A) (A) (A) (A) (A) (A) (A) (A) (A) (A) (A) (A)
                 (A) (A) (A) (A) (A) (A) (A) (A) (A) (A) (A) (A)
                 (A) (A) (A) (A) (A) (A) (A) (A) (A) (A) (A) (A)
                 (A) (A) (A) (A) (A) (A) (A) (A) (A) (A) (A) (A)
                 (A) (A) (A) (A) (A) (A) (A) (A) (A) (A) (A) (A)
                 (A) (A) (A) (A) (A) (A) (A) (A) (A) (A) (A) (A)
                 (A) (A) (A) (A) (A) (A) (A) (A) (A) (A) (A) (A)
                 (A) (A) (A) (A) (A) (A) (A) (A) (A)
       Virtual   (A) (A) (A) (A) (A) (A) (A) (A) (A) (A) (A) (A)
                 (A) (A) (A) (A) (A) (A) (A) (A) (A) (A) (A) (A)
                 (A) (A) (A) (A) (A) (A) (A) (A) (A) (A) (A) (A)
                 (A) (A) (A) (A) (A) (A) (A) (A) (A) (A) (A) (A)
                 (A) (A) (A) (A) (A) (A) (A) (A) (A) (A) (A) (A)
                 (A) (A) (A) (A) (A) (A) (A) (A) (A) (A) (A) (A)
                 (A) (A) (A) (A) (A) (A) (A) (A) (A) (A) (A) (A)
                 (A) (A) (A) (A) (A) (A) (A) (A) (A) (A) (A) (A)
                 (A) (A) (A) (A) (A) (A) (A) (A) (A) (A) (A) (A)
                 (A) (A) (A) (A) (A) (A) (A) (A) (A) (A) (A) (A)
                 (A) (A) (A) (A) (A) (A) (A) (A) (A) (A) (A) (A)
                 (A) (A) (A) (A) (A) (A) (A) (A) (A) (A) (A) (A)
                 (A) (A) (A) (A) (A) (A) (A) (A) (A) (A) (A) (A)
                 (A) (A) (A) (A) (A) (A) (A) (A) (A) (A) (A) (A)
                 (A) (A) (A) (A) (A) (A) (A) (A) (A) (A) (A) (A)
                 (A) (A) (A) (A) (A) (A) (A) (A) (A) (A) (A) (A)
                 (A) (A) (A) (A) (A) (A) (A) (A) (A) (A) (A) (A)
                 (A) (A) (A) (A) (A) (A) (A) (A) (A) (A) (A) (A)
                 (A) (A) (A) (A) (A) (A) (A) (A) (A) (A) (A) (A)
                 (A) (A) (A) (A) (A) (A) (A) (A) (A) (A) (A) (A)
                 (A) (A) (A) (A) (A) (A) (A) (A) (A) (A) (A) (A)
                 (A) (A) (A) (A) (A) (A) (A) (A) (A) (A) (A) (A)
                 (A) (A) (A) (A) (A) (A) (A) (A) (A) (A) (A) (A)
                 (A) (A) (A) (A) (A) (A) (A) (A) (A) (A) (A) (A)
                 (A) (A) (A) (A) (A) (A) (A) (A) (A) (A) (A) (A)
                 (A) (A) (A) (A) (A) (A) (A) (A) (A) (A) (A) (A)
                 (A) (A) (A) (A) (A) (A) (A) (A) (A) (A) (A) (A)
                 (A) (A) (A) (A) (A) (A) (A) (A) (A) (A) (A) (A)
                 (A) (A) (A) (A) (A) (A) (A) (A) (A) (A) (A) (A)
                 (A) (A) (A) (A) (A) (A) (A) (A) (A) (A) (A) (A)
                 (A) (A) (A) (A) (A) (A) (A) (A) (A) (A) (A) (A)
                 (A) (A) (A) (A) (A) (A) (A) (A) (A) (A) (A) (A)
                 (A) (A) (A) (A) (A) (A) (A) (A) (A) (A) (A) (A)
                 (A) (A) (A) (A) (A) (A) (A) (A) (A) (A) (A) (A)
                 (A) (A) (A) (A) (A) (A) (A) (A) (A) (A) (A) (A)
                 (A) (A) (A) (A) (A) (A) (A) (A) (A) (A) (A) (A)
                 (A) (A) (A) (A) (A) (A) (A) (A) (A) (A) (A) (A)
                 (A) (A) (A) (A) (A) (A) (A) (A) (A) (A) (A) (A)
                 (A) (A) (A) (A) (A) (A) (A) (A) (A) (A) (A) (A)
                 (A) (A) (A) (A) (A) (A) (A) (A) (A) (A) (A) (A)
                 (A) (A) (A) (A) (A) (A) (A) (A) (A) (A) (A) (A)
                 (A) (A) (A) (A) (A) (A) (A) (A) (A) (A) (A) (A)
                 (A) (A) (A) (A) (A) (A) (A) (A) (A) (A) (A) (A)
                 (A) (A) (A) (A) (A) (A) (A) (A) (A) (A) (A) (A)
                 (A) (A) (A) (A) (A) (A) (A) (A) (A) (A) (A) (A)
                 (A) (A) (A) (A) (A) (A) (A) (A) (A) (A) (A) (A)
                 (A) (A) (A) (A) (A) (A) (A) (A) (A) (A) (A) (A)
                 (A) (A) (A) (A) (A) (A) (A) (A) (A) (A) (A) (A)
                 (A) (A) (A) (A) (A) (A) (A) (A) (A) (A) (A) (A)
                 (A) (A) (A) (A) (A) (A) (A) (A) (A) (A) (A) (A)
                 (A) (A) (A) (A) (A) (A) (A) (A) (A) (A) (A) (A)
                 (A) (A) (A) (A) (A) (A) (A) (A) (A) (A) (A) (A)
                 (A) (A) (A) (A) (A) (A) (A) (A) (A) (A) (A) (A)
                 (A) (A) (A) (A) (A) (A) (A) (A) (A) (A) (A) (A)
                 (A) (A) (A) (A) (A) (A) (A) (A) (A) (A) (A) (A)
                 (A) (A) (A) (A) (A) (A) (A) (A) (A) (A) (A) (A)
                 (A) (A) (A) (A) (A) (A) (A) (A) (A) (A) (A) (A)
                 (A) (A) (A) (A) (A) (A) (A) (A) (A) (A) (A) (A)
                 (A) (A) (A) (A) (A) (A) (A) (A) (A) (A) (A) (A)
                 (A) (A) (A) (A) (A) (A) (A) (A) (A) (A) (A) (A)
                 (A) (A) (A) (A) (A) (A) (A) (A) (A) (A) (A) (A)
                 (A) (A) (A) (A) (A) (A) (A) (A) (A) (A) (A) (A)
                 (A) (A) (A) (A) (A) (A) (A) (A) (A) (A) (A) (A)
                 (A) (A) (A) (A) (A) (A) (A) (A) (A) (A) (A) (A)
                 (A) (A) (A) (A) (A) (A) (A) (A) (A) (A) (A) (A)
                 (A) (A) (A) (A) (A) (A) (A) (A) (A) (A) (A) (A)
                 (A) (A) (A) (A) (A) (A) (A) (A) (A) (A) (A) (A)
                 (A) (A) (A) (A) (A) (A) (A) (A) (A) (A) (A) (A)
                 (A) (A) (A) (A) (A) (A) (A) (A) (A) (A) (A) (A)
                 (A) (A) (A) (A) (A) (A) (A) (A) (A) (A) (A) (A)
                 (A) (A) (A) (A) (A) (A) (A) (A) (A) (A) (A) (A)
                 (A) (A) (A) (A) (A) (A) (A) (A) (A) (A) (A) (A)
                 (A) (A) (A) (A) (A) (A) (A) (A) (A) (A) (A) (A)
                 (A) (A) (A) (A) (A) (A) (A) (A) (A) (A) (A) (A)
                 (A) (A) (A) (A) (A) (A) (A) (A) (A) (A) (A) (A)
                 (A) (A) (A) (A) (A) (A) (A) (A) (A) (A) (A) (A)
                 (A) (A) (A) (A) (A) (A) (A) (A) (A) (A) (A) (A)
                 (A) (A) (A) (A) (A) (A) (A) (A) (A) (A) (A) (A)
                 (A) (A) (A) (A) (A) (A) (A) (A) (A) (A) (A) (A)
                 (A) (A) (A) (A) (A) (A) (A) (A) (A) (A) (A) (A)
                 (A) (A) (A) (A) (A) (A) (A) (A) (A) (A) (A) (A)
                 (A) (A) (A) (A) (A) (A) (A) (A) (A) (A) (A) (A)
                 (A) (A) (A) (A) (A) (A) (A) (A) (A) (A) (A) (A)
                 (A) (A) (A) (A) (A) (A) (A) (A) (A) (A) (A) (A)
                 (A) (A) (A) (A) (A) (A) (A) (A) (A) (A) (A) (A)
                 (A) (A) (A) (A) (A) (A) (A) (A) (A) (A) (A) (A)
                 (A) (A) (A) (A) (A) (A) (A) (A) (A) (A) (A) (A)
                 (A) (A) (A) (A) (A) (A) (A) (A) (A) (A) (A) (A)
                 (A) (A) (A) (A) (A) (A)
 The electronic state is 3-A.
 Alpha  occ. eigenvalues --  -89.95890 -14.76920 -14.76917 -14.73202 -10.59435
 Alpha  occ. eigenvalues --  -10.59333 -10.58141 -10.58123 -10.57050 -10.56935
 Alpha  occ. eigenvalues --  -10.56615 -10.56447 -10.56129 -10.56052 -10.55929
 Alpha  occ. eigenvalues --  -10.55784 -10.55651 -10.55636 -10.55512 -10.55425
 Alpha  occ. eigenvalues --  -10.55388 -10.55317 -10.55246 -10.55125 -10.55051
 Alpha  occ. eigenvalues --  -10.55004 -10.54795 -10.54732 -10.54604 -10.54481
 Alpha  occ. eigenvalues --  -10.54246 -10.53886 -10.53836  -8.31099  -6.23076
 Alpha  occ. eigenvalues --   -6.22846  -6.22745  -1.10094  -1.00672  -0.99392
 Alpha  occ. eigenvalues --   -0.98743  -0.97808  -0.96246  -0.94953  -0.92284
 Alpha  occ. eigenvalues --   -0.90108  -0.88290  -0.85410  -0.85335  -0.84712
 Alpha  occ. eigenvalues --   -0.84342  -0.83503  -0.81891  -0.78916  -0.78680
 Alpha  occ. eigenvalues --   -0.74760  -0.73781  -0.71497  -0.70912  -0.70557
 Alpha  occ. eigenvalues --   -0.68423  -0.67759  -0.66747  -0.66160  -0.65317
 Alpha  occ. eigenvalues --   -0.63588  -0.59451  -0.59269  -0.58236  -0.57229
 Alpha  occ. eigenvalues --   -0.56783  -0.55895  -0.55175  -0.54433  -0.53161
 Alpha  occ. eigenvalues --   -0.52988  -0.52564  -0.52141  -0.51808  -0.51394
 Alpha  occ. eigenvalues --   -0.51164  -0.51040  -0.50433  -0.49383  -0.49057
 Alpha  occ. eigenvalues --   -0.48904  -0.48227  -0.46750  -0.46520  -0.46075
 Alpha  occ. eigenvalues --   -0.45866  -0.45655  -0.45275  -0.44312  -0.43914
 Alpha  occ. eigenvalues --   -0.43411  -0.43054  -0.42042  -0.41889  -0.41634
 Alpha  occ. eigenvalues --   -0.41201  -0.41148  -0.40980  -0.39919  -0.39701
 Alpha  occ. eigenvalues --   -0.38585  -0.38367  -0.36566  -0.35826  -0.35069
 Alpha  occ. eigenvalues --   -0.33214  -0.32194  -0.31856  -0.31634  -0.31305
 Alpha  occ. eigenvalues --   -0.30993  -0.29144  -0.25337  -0.18526
 Alpha virt. eigenvalues --   -0.03196  -0.00593   0.00442   0.01338   0.02344
 Alpha virt. eigenvalues --    0.03281   0.04642   0.05002   0.05373   0.05775
 Alpha virt. eigenvalues --    0.07298   0.07695   0.08038   0.08410   0.08990
 Alpha virt. eigenvalues --    0.09497   0.10209   0.10318   0.10608   0.11062
 Alpha virt. eigenvalues --    0.11098   0.12238   0.12403   0.13063   0.13427
 Alpha virt. eigenvalues --    0.13646   0.14055   0.14201   0.14487   0.14822
 Alpha virt. eigenvalues --    0.15413   0.15769   0.16247   0.16354   0.16627
 Alpha virt. eigenvalues --    0.16957   0.17052   0.17712   0.17886   0.18310
 Alpha virt. eigenvalues --    0.18678   0.18955   0.19348   0.19699   0.20238
 Alpha virt. eigenvalues --    0.20316   0.21332   0.21597   0.21853   0.21946
 Alpha virt. eigenvalues --    0.22444   0.22712   0.22917   0.23260   0.23649
 Alpha virt. eigenvalues --    0.23830   0.24109   0.24333   0.24485   0.24944
 Alpha virt. eigenvalues --    0.25037   0.25294   0.25799   0.25982   0.26066
 Alpha virt. eigenvalues --    0.26232   0.26666   0.27087   0.27615   0.27860
 Alpha virt. eigenvalues --    0.28109   0.28853   0.29151   0.29278   0.29468
 Alpha virt. eigenvalues --    0.29930   0.30284   0.30538   0.30762   0.31438
 Alpha virt. eigenvalues --    0.31610   0.32032   0.32364   0.32626   0.32768
 Alpha virt. eigenvalues --    0.32997   0.33139   0.33619   0.33731   0.34047
 Alpha virt. eigenvalues --    0.34202   0.34615   0.34804   0.35000   0.35150
 Alpha virt. eigenvalues --    0.35390   0.36083   0.36281   0.36586   0.37141
 Alpha virt. eigenvalues --    0.37222   0.37442   0.37777   0.37953   0.38032
 Alpha virt. eigenvalues --    0.38493   0.38549   0.39148   0.39408   0.39669
 Alpha virt. eigenvalues --    0.39782   0.40170   0.40380   0.40710   0.41078
 Alpha virt. eigenvalues --    0.41441   0.41806   0.42237   0.42584   0.42779
 Alpha virt. eigenvalues --    0.42969   0.43390   0.43519   0.43705   0.44279
 Alpha virt. eigenvalues --    0.44381   0.44690   0.44876   0.45213   0.45401
 Alpha virt. eigenvalues --    0.45645   0.45929   0.46156   0.46279   0.46444
 Alpha virt. eigenvalues --    0.46655   0.47145   0.47312   0.47525   0.47956
 Alpha virt. eigenvalues --    0.48115   0.49028   0.49208   0.49680   0.49751
 Alpha virt. eigenvalues --    0.49952   0.50116   0.50389   0.50421   0.50656
 Alpha virt. eigenvalues --    0.51421   0.51849   0.52125   0.52387   0.52749
 Alpha virt. eigenvalues --    0.52919   0.53379   0.53618   0.53941   0.54253
 Alpha virt. eigenvalues --    0.54730   0.55252   0.55620   0.55829   0.56140
 Alpha virt. eigenvalues --    0.56533   0.56569   0.56972   0.57428   0.57534
 Alpha virt. eigenvalues --    0.57911   0.58152   0.58880   0.59103   0.59451
 Alpha virt. eigenvalues --    0.60060   0.60406   0.61016   0.61466   0.61615
 Alpha virt. eigenvalues --    0.61691   0.62130   0.62828   0.63295   0.64092
 Alpha virt. eigenvalues --    0.64581   0.65048   0.65318   0.65497   0.66046
 Alpha virt. eigenvalues --    0.66368   0.66833   0.67044   0.67284   0.67751
 Alpha virt. eigenvalues --    0.68010   0.68204   0.68818   0.69432   0.69549
 Alpha virt. eigenvalues --    0.69796   0.70359   0.70624   0.70882   0.71180
 Alpha virt. eigenvalues --    0.71486   0.72011   0.72146   0.72351   0.72876
 Alpha virt. eigenvalues --    0.73452   0.73646   0.74150   0.74676   0.74817
 Alpha virt. eigenvalues --    0.74970   0.75407   0.76058   0.76381   0.76726
 Alpha virt. eigenvalues --    0.76937   0.77253   0.77829   0.78066   0.78706
 Alpha virt. eigenvalues --    0.79125   0.79479   0.79618   0.80454   0.80784
 Alpha virt. eigenvalues --    0.81055   0.81501   0.81787   0.82223   0.82414
 Alpha virt. eigenvalues --    0.83132   0.83288   0.84249   0.84603   0.84666
 Alpha virt. eigenvalues --    0.85176   0.85648   0.86399   0.86736   0.87221
 Alpha virt. eigenvalues --    0.87571   0.88145   0.88591   0.88991   0.89181
 Alpha virt. eigenvalues --    0.90084   0.90688   0.90982   0.91612   0.91899
 Alpha virt. eigenvalues --    0.92195   0.92436   0.92805   0.93480   0.93774
 Alpha virt. eigenvalues --    0.93966   0.94452   0.94560   0.95089   0.95626
 Alpha virt. eigenvalues --    0.95934   0.96720   0.97297   0.98121   0.98203
 Alpha virt. eigenvalues --    0.98306   0.99705   0.99898   1.01167   1.01537
 Alpha virt. eigenvalues --    1.02057   1.02269   1.02766   1.03369   1.03611
 Alpha virt. eigenvalues --    1.04306   1.04899   1.05570   1.06136   1.06989
 Alpha virt. eigenvalues --    1.07531   1.07610   1.07869   1.08122   1.08620
 Alpha virt. eigenvalues --    1.09650   1.10136   1.10361   1.10491   1.11050
 Alpha virt. eigenvalues --    1.11390   1.12452   1.12797   1.13668   1.13891
 Alpha virt. eigenvalues --    1.14557   1.15080   1.15807   1.15927   1.16607
 Alpha virt. eigenvalues --    1.17296   1.18360   1.18758   1.19663   1.20465
 Alpha virt. eigenvalues --    1.20928   1.21326   1.21873   1.22426   1.23539
 Alpha virt. eigenvalues --    1.23983   1.24453   1.24960   1.25181   1.25543
 Alpha virt. eigenvalues --    1.26471   1.27009   1.27688   1.28083   1.28240
 Alpha virt. eigenvalues --    1.28614   1.29092   1.29379   1.29566   1.29653
 Alpha virt. eigenvalues --    1.30525   1.31132   1.31770   1.31953   1.32570
 Alpha virt. eigenvalues --    1.32957   1.33673   1.34375   1.34712   1.35512
 Alpha virt. eigenvalues --    1.35591   1.35887   1.36499   1.36850   1.37210
 Alpha virt. eigenvalues --    1.38103   1.38488   1.38802   1.39324   1.39691
 Alpha virt. eigenvalues --    1.40061   1.40811   1.41259   1.41479   1.41697
 Alpha virt. eigenvalues --    1.42482   1.43075   1.43566   1.43758   1.44969
 Alpha virt. eigenvalues --    1.45123   1.45825   1.46764   1.47202   1.47744
 Alpha virt. eigenvalues --    1.48362   1.48701   1.48989   1.49498   1.50021
 Alpha virt. eigenvalues --    1.50200   1.50656   1.51016   1.51670   1.52185
 Alpha virt. eigenvalues --    1.52741   1.53212   1.53390   1.53593   1.54760
 Alpha virt. eigenvalues --    1.55128   1.55333   1.55693   1.56227   1.56441
 Alpha virt. eigenvalues --    1.56740   1.57665   1.58248   1.58634   1.58923
 Alpha virt. eigenvalues --    1.59543   1.59651   1.60584   1.60802   1.60995
 Alpha virt. eigenvalues --    1.61381   1.61507   1.61691   1.62008   1.62334
 Alpha virt. eigenvalues --    1.62954   1.63299   1.63756   1.64018   1.64643
 Alpha virt. eigenvalues --    1.65008   1.65255   1.65671   1.66262   1.66424
 Alpha virt. eigenvalues --    1.67022   1.67118   1.67844   1.68514   1.68795
 Alpha virt. eigenvalues --    1.69348   1.70087   1.70131   1.72133   1.72791
 Alpha virt. eigenvalues --    1.72881   1.73274   1.73720   1.74243   1.74701
 Alpha virt. eigenvalues --    1.75213   1.75380   1.75886   1.76253   1.77224
 Alpha virt. eigenvalues --    1.77345   1.77985   1.78500   1.79027   1.79280
 Alpha virt. eigenvalues --    1.79692   1.80247   1.80536   1.81165   1.81298
 Alpha virt. eigenvalues --    1.81558   1.82082   1.82773   1.82948   1.83705
 Alpha virt. eigenvalues --    1.84840   1.85335   1.86190   1.87680   1.88554
 Alpha virt. eigenvalues --    1.88789   1.89121   1.89604   1.89829   1.90831
 Alpha virt. eigenvalues --    1.91360   1.91802   1.92536   1.92618   1.93923
 Alpha virt. eigenvalues --    1.94347   1.94687   1.95460   1.95675   1.96132
 Alpha virt. eigenvalues --    1.96624   1.96897   1.97801   1.97892   1.98751
 Alpha virt. eigenvalues --    1.99575   1.99632   2.00786   2.01786   2.03010
 Alpha virt. eigenvalues --    2.03225   2.03346   2.03820   2.04753   2.05279
 Alpha virt. eigenvalues --    2.05485   2.05864   2.06053   2.06776   2.07294
 Alpha virt. eigenvalues --    2.07629   2.08056   2.08317   2.09202   2.09671
 Alpha virt. eigenvalues --    2.10103   2.11289   2.11873   2.12072   2.12653
 Alpha virt. eigenvalues --    2.13549   2.14287   2.15178   2.15959   2.16523
 Alpha virt. eigenvalues --    2.16663   2.17127   2.17509   2.17762   2.18325
 Alpha virt. eigenvalues --    2.19030   2.19517   2.20429   2.20505   2.20981
 Alpha virt. eigenvalues --    2.21426   2.21593   2.22222   2.22849   2.23416
 Alpha virt. eigenvalues --    2.24593   2.25232   2.25511   2.26067   2.26430
 Alpha virt. eigenvalues --    2.27088   2.27501   2.28288   2.29159   2.30090
 Alpha virt. eigenvalues --    2.30232   2.30623   2.31506   2.32163   2.32527
 Alpha virt. eigenvalues --    2.32993   2.33365   2.34518   2.35142   2.35887
 Alpha virt. eigenvalues --    2.36546   2.36878   2.37831   2.38782   2.39252
 Alpha virt. eigenvalues --    2.39371   2.40154   2.40828   2.41540   2.42141
 Alpha virt. eigenvalues --    2.42985   2.43657   2.44135   2.44233   2.44934
 Alpha virt. eigenvalues --    2.45676   2.45954   2.46648   2.46701   2.47254
 Alpha virt. eigenvalues --    2.48005   2.48769   2.48844   2.49600   2.50910
 Alpha virt. eigenvalues --    2.52118   2.52369   2.52520   2.54068   2.54510
 Alpha virt. eigenvalues --    2.54824   2.54925   2.55682   2.56481   2.56530
 Alpha virt. eigenvalues --    2.57140   2.57620   2.58474   2.58757   2.59135
 Alpha virt. eigenvalues --    2.59668   2.60168   2.60784   2.61378   2.61495
 Alpha virt. eigenvalues --    2.62088   2.62557   2.63078   2.63459   2.64290
 Alpha virt. eigenvalues --    2.64700   2.64862   2.65414   2.65791   2.66185
 Alpha virt. eigenvalues --    2.66684   2.66999   2.67501   2.67834   2.68145
 Alpha virt. eigenvalues --    2.68837   2.69078   2.69527   2.69708   2.70344
 Alpha virt. eigenvalues --    2.70704   2.71615   2.72282   2.72443   2.73034
 Alpha virt. eigenvalues --    2.73366   2.73855   2.74000   2.74114   2.74437
 Alpha virt. eigenvalues --    2.75010   2.75322   2.75875   2.75967   2.76613
 Alpha virt. eigenvalues --    2.77187   2.77676   2.77994   2.78224   2.78371
 Alpha virt. eigenvalues --    2.78692   2.79083   2.80025   2.80415   2.80852
 Alpha virt. eigenvalues --    2.81290   2.81364   2.81906   2.82407   2.82753
 Alpha virt. eigenvalues --    2.83489   2.83616   2.83734   2.84833   2.85267
 Alpha virt. eigenvalues --    2.85824   2.86827   2.87132   2.87299   2.87483
 Alpha virt. eigenvalues --    2.88054   2.88481   2.88797   2.89438   2.89763
 Alpha virt. eigenvalues --    2.90187   2.91012   2.91560   2.91987   2.92573
 Alpha virt. eigenvalues --    2.92995   2.93611   2.93932   2.94566   2.95124
 Alpha virt. eigenvalues --    2.96347   2.96604   2.97446   2.97549   2.98132
 Alpha virt. eigenvalues --    2.98532   2.99519   3.00039   3.00838   3.01187
 Alpha virt. eigenvalues --    3.01905   3.02345   3.03237   3.03413   3.03736
 Alpha virt. eigenvalues --    3.04482   3.04862   3.05047   3.05675   3.06507
 Alpha virt. eigenvalues --    3.06837   3.07243   3.07726   3.07804   3.08343
 Alpha virt. eigenvalues --    3.08626   3.09397   3.09468   3.10032   3.10894
 Alpha virt. eigenvalues --    3.11498   3.11919   3.12221   3.12357   3.12668
 Alpha virt. eigenvalues --    3.13446   3.13910   3.14200   3.14506   3.15134
 Alpha virt. eigenvalues --    3.15210   3.16049   3.16143   3.17261   3.17475
 Alpha virt. eigenvalues --    3.17614   3.17921   3.18246   3.18274   3.18835
 Alpha virt. eigenvalues --    3.19256   3.19636   3.20235   3.20532   3.20961
 Alpha virt. eigenvalues --    3.21049   3.21376   3.22019   3.22371   3.22447
 Alpha virt. eigenvalues --    3.23563   3.24201   3.24271   3.25016   3.25266
 Alpha virt. eigenvalues --    3.26044   3.26290   3.26984   3.27090   3.27491
 Alpha virt. eigenvalues --    3.28499   3.28834   3.28942   3.29211   3.29273
 Alpha virt. eigenvalues --    3.29817   3.29976   3.30628   3.30705   3.31487
 Alpha virt. eigenvalues --    3.31774   3.32413   3.32824   3.33137   3.33567
 Alpha virt. eigenvalues --    3.34259   3.34597   3.35191   3.35401   3.35717
 Alpha virt. eigenvalues --    3.36141   3.36752   3.37137   3.37677   3.37903
 Alpha virt. eigenvalues --    3.38555   3.38930   3.39294   3.39812   3.40274
 Alpha virt. eigenvalues --    3.40528   3.40815   3.41152   3.41745   3.41907
 Alpha virt. eigenvalues --    3.42681   3.43118   3.43460   3.43903   3.44466
 Alpha virt. eigenvalues --    3.45002   3.45138   3.45546   3.46038   3.46672
 Alpha virt. eigenvalues --    3.46928   3.47340   3.47477   3.47918   3.48753
 Alpha virt. eigenvalues --    3.49067   3.49257   3.49785   3.50355   3.50465
 Alpha virt. eigenvalues --    3.51336   3.51698   3.51892   3.52354   3.52752
 Alpha virt. eigenvalues --    3.53162   3.53313   3.53828   3.54040   3.54506
 Alpha virt. eigenvalues --    3.55024   3.55159   3.56024   3.56279   3.57125
 Alpha virt. eigenvalues --    3.57568   3.58053   3.58276   3.58980   3.59585
 Alpha virt. eigenvalues --    3.59698   3.60287   3.60595   3.61537   3.62099
 Alpha virt. eigenvalues --    3.62595   3.63636   3.65361   3.66042   3.67469
 Alpha virt. eigenvalues --    3.67574   3.68206   3.68681   3.69819   3.70839
 Alpha virt. eigenvalues --    3.71386   3.71710   3.72768   3.73359   3.74242
 Alpha virt. eigenvalues --    3.74542   3.75789   3.77505   3.77953   3.78539
 Alpha virt. eigenvalues --    3.80546   3.80722   3.81534   3.82127   3.83585
 Alpha virt. eigenvalues --    3.84491   3.84714   3.84771   3.85320   3.85676
 Alpha virt. eigenvalues --    3.86412   3.86885   3.88369   3.88579   3.89376
 Alpha virt. eigenvalues --    3.89903   3.91289   3.92050   3.92349   3.92994
 Alpha virt. eigenvalues --    3.93339   3.94394   3.95254   3.95502   3.96219
 Alpha virt. eigenvalues --    3.96668   3.97329   3.98732   3.99090   4.00144
 Alpha virt. eigenvalues --    4.00886   4.01841   4.02041   4.02884   4.03482
 Alpha virt. eigenvalues --    4.04235   4.04769   4.05443   4.05619   4.06900
 Alpha virt. eigenvalues --    4.07640   4.08228   4.08746   4.09583   4.10127
 Alpha virt. eigenvalues --    4.10421   4.11035   4.11603   4.11995   4.12774
 Alpha virt. eigenvalues --    4.13459   4.14065   4.14884   4.15390   4.15748
 Alpha virt. eigenvalues --    4.16159   4.16607   4.17069   4.17972   4.18547
 Alpha virt. eigenvalues --    4.19197   4.19903   4.20675   4.21192   4.22237
 Alpha virt. eigenvalues --    4.23128   4.23403   4.23940   4.24732   4.25739
 Alpha virt. eigenvalues --    4.26313   4.26630   4.27243   4.27487   4.27974
 Alpha virt. eigenvalues --    4.29238   4.29491   4.29828   4.29850   4.30835
 Alpha virt. eigenvalues --    4.31077   4.31761   4.32287   4.33326   4.34207
 Alpha virt. eigenvalues --    4.36249   4.36771   4.37704   4.37816   4.39014
 Alpha virt. eigenvalues --    4.40304   4.40932   4.41154   4.41898   4.42916
 Alpha virt. eigenvalues --    4.43680   4.44765   4.45649   4.47011   4.48032
 Alpha virt. eigenvalues --    4.48441   4.50055   4.50357   4.51327   4.53671
 Alpha virt. eigenvalues --    4.53930   4.55177   4.55799   4.56587   4.57132
 Alpha virt. eigenvalues --    4.57532   4.58275   4.59509   4.60988   4.62673
 Alpha virt. eigenvalues --    4.63817   4.66814   4.68293   4.69572   4.69924
 Alpha virt. eigenvalues --    4.70589   4.71031   4.71506   4.72950   4.73841
 Alpha virt. eigenvalues --    4.74281   4.74591   4.75433   4.77390   4.77782
 Alpha virt. eigenvalues --    4.79267   4.79766   4.81312   4.81838   4.82628
 Alpha virt. eigenvalues --    4.83261   4.84177   4.84946   4.85345   4.85885
 Alpha virt. eigenvalues --    4.86630   4.87439   4.88901   4.89597   4.90640
 Alpha virt. eigenvalues --    4.90683   4.92277   4.92696   4.94595   4.95303
 Alpha virt. eigenvalues --    4.96678   4.97968   4.98882   5.00957   5.04023
 Alpha virt. eigenvalues --    5.04801   5.06189   5.07162   5.08366   5.09612
 Alpha virt. eigenvalues --    5.10278   5.10668   5.11914   5.13602   5.17183
 Alpha virt. eigenvalues --    5.18460   5.21247   5.23358   5.23780   5.25203
 Alpha virt. eigenvalues --    5.25713   5.27995   5.29069   5.30980   5.32150
 Alpha virt. eigenvalues --    5.32948   5.34322   5.35132   5.37841   5.38941
 Alpha virt. eigenvalues --    5.41694   5.44412   5.46419   5.49241   5.51678
 Alpha virt. eigenvalues --    5.51927   5.52764   5.55511   5.57160   5.58763
 Alpha virt. eigenvalues --    5.65202   5.68152   5.70507   5.72961   5.74875
 Alpha virt. eigenvalues --    5.78877   5.82816   5.99560   6.21238   8.89689
 Alpha virt. eigenvalues --    9.41226   9.46735  19.83249  22.24887  22.40711
 Alpha virt. eigenvalues --   22.51676  22.52422  22.58575  22.62744  22.66856
 Alpha virt. eigenvalues --   22.68666  22.71791  22.74299  22.79179  22.79772
 Alpha virt. eigenvalues --   22.82392  22.83689  22.84744  22.90726  22.92044
 Alpha virt. eigenvalues --   22.94685  23.01404  23.04777  23.07874  23.11091
 Alpha virt. eigenvalues --   23.17031  23.20243  23.25330  23.42334  23.67393
 Alpha virt. eigenvalues --   23.73853  23.88611  32.04680  32.33784  32.47228
  Beta  occ. eigenvalues --  -89.95689 -14.76644 -14.76628 -14.73201 -10.59525
  Beta  occ. eigenvalues --  -10.59430 -10.57828 -10.57827 -10.57049 -10.57001
  Beta  occ. eigenvalues --  -10.56599 -10.56515 -10.56028 -10.55965 -10.55880
  Beta  occ. eigenvalues --  -10.55752 -10.55658 -10.55576 -10.55491 -10.55427
  Beta  occ. eigenvalues --  -10.55348 -10.55293 -10.55226 -10.55132 -10.55095
  Beta  occ. eigenvalues --  -10.55015 -10.54772 -10.54716 -10.54568 -10.54484
  Beta  occ. eigenvalues --  -10.54255 -10.53888 -10.53838  -8.31030  -6.23029
  Beta  occ. eigenvalues --   -6.22703  -6.22245  -1.09377  -1.00543  -0.99348
  Beta  occ. eigenvalues --   -0.97970  -0.97219  -0.95839  -0.94499  -0.92118
  Beta  occ. eigenvalues --   -0.89620  -0.88072  -0.85077  -0.84990  -0.84410
  Beta  occ. eigenvalues --   -0.84059  -0.83388  -0.81712  -0.78686  -0.78368
  Beta  occ. eigenvalues --   -0.74272  -0.73426  -0.70994  -0.70683  -0.70295
  Beta  occ. eigenvalues --   -0.68182  -0.67485  -0.66582  -0.65913  -0.65119
  Beta  occ. eigenvalues --   -0.63410  -0.59311  -0.59025  -0.57959  -0.56931
  Beta  occ. eigenvalues --   -0.56428  -0.55596  -0.54951  -0.54121  -0.53013
  Beta  occ. eigenvalues --   -0.52646  -0.52309  -0.51861  -0.51308  -0.51096
  Beta  occ. eigenvalues --   -0.51019  -0.50393  -0.50223  -0.49222  -0.48904
  Beta  occ. eigenvalues --   -0.48740  -0.47968  -0.46557  -0.46095  -0.45684
  Beta  occ. eigenvalues --   -0.45493  -0.45205  -0.45015  -0.43747  -0.43190
  Beta  occ. eigenvalues --   -0.42709  -0.42234  -0.41765  -0.41518  -0.41328
  Beta  occ. eigenvalues --   -0.41035  -0.40734  -0.39557  -0.39309  -0.38528
  Beta  occ. eigenvalues --   -0.38245  -0.37345  -0.36117  -0.34216  -0.34090
  Beta  occ. eigenvalues --   -0.31816  -0.31375  -0.31127  -0.30804  -0.30539
  Beta  occ. eigenvalues --   -0.30082  -0.27486
  Beta virt. eigenvalues --   -0.13285  -0.05724  -0.01315   0.00622   0.01083
  Beta virt. eigenvalues --    0.01969   0.02757   0.04676   0.05255   0.05492
  Beta virt. eigenvalues --    0.05776   0.05989   0.07467   0.07942   0.08399
  Beta virt. eigenvalues --    0.08962   0.09350   0.09676   0.10195   0.10420
  Beta virt. eigenvalues --    0.10594   0.11027   0.11153   0.12243   0.12445
  Beta virt. eigenvalues --    0.13081   0.13414   0.13702   0.14080   0.14208
  Beta virt. eigenvalues --    0.14787   0.14837   0.15377   0.15733   0.16275
  Beta virt. eigenvalues --    0.16350   0.16763   0.16913   0.17016   0.17644
  Beta virt. eigenvalues --    0.17850   0.18394   0.18658   0.18959   0.19233
  Beta virt. eigenvalues --    0.20203   0.20303   0.20367   0.21426   0.21649
  Beta virt. eigenvalues --    0.21819   0.22086   0.22467   0.22779   0.22965
  Beta virt. eigenvalues --    0.23303   0.23709   0.23889   0.24165   0.24422
  Beta virt. eigenvalues --    0.24673   0.24916   0.25096   0.25429   0.25906
  Beta virt. eigenvalues --    0.25976   0.26041   0.26250   0.26619   0.27261
  Beta virt. eigenvalues --    0.27822   0.27869   0.28198   0.28903   0.29177
  Beta virt. eigenvalues --    0.29340   0.29627   0.29927   0.30279   0.30659
  Beta virt. eigenvalues --    0.30755   0.31522   0.31571   0.32127   0.32484
  Beta virt. eigenvalues --    0.32737   0.32848   0.32987   0.33231   0.33598
  Beta virt. eigenvalues --    0.33820   0.34160   0.34324   0.34640   0.34881
  Beta virt. eigenvalues --    0.35116   0.35274   0.35478   0.36169   0.36453
  Beta virt. eigenvalues --    0.36667   0.37070   0.37293   0.37436   0.37822
  Beta virt. eigenvalues --    0.38010   0.38058   0.38541   0.38662   0.39197
  Beta virt. eigenvalues --    0.39493   0.39775   0.39921   0.40262   0.40530
  Beta virt. eigenvalues --    0.40853   0.41060   0.41580   0.41908   0.42423
  Beta virt. eigenvalues --    0.42691   0.42893   0.43351   0.43531   0.43658
  Beta virt. eigenvalues --    0.43772   0.44345   0.44518   0.44732   0.44942
  Beta virt. eigenvalues --    0.45287   0.45466   0.45605   0.45975   0.46169
  Beta virt. eigenvalues --    0.46281   0.46440   0.46697   0.47197   0.47320
  Beta virt. eigenvalues --    0.47542   0.48027   0.48189   0.49125   0.49219
  Beta virt. eigenvalues --    0.49742   0.49789   0.49980   0.50136   0.50368
  Beta virt. eigenvalues --    0.50435   0.50700   0.51475   0.51855   0.52135
  Beta virt. eigenvalues --    0.52376   0.52811   0.52959   0.53390   0.53592
  Beta virt. eigenvalues --    0.53990   0.54276   0.54699   0.55223   0.55694
  Beta virt. eigenvalues --    0.55915   0.56320   0.56511   0.56737   0.56967
  Beta virt. eigenvalues --    0.57425   0.57638   0.57921   0.58282   0.58971
  Beta virt. eigenvalues --    0.59122   0.59522   0.60123   0.60424   0.61232
  Beta virt. eigenvalues --    0.61497   0.61612   0.61855   0.62145   0.62893
  Beta virt. eigenvalues --    0.63304   0.64087   0.64616   0.65047   0.65268
  Beta virt. eigenvalues --    0.65512   0.66025   0.66397   0.66780   0.67056
  Beta virt. eigenvalues --    0.67268   0.67776   0.68014   0.68188   0.68838
  Beta virt. eigenvalues --    0.69490   0.69598   0.69982   0.70483   0.70714
  Beta virt. eigenvalues --    0.71033   0.71229   0.71605   0.72048   0.72215
  Beta virt. eigenvalues --    0.72432   0.73096   0.73495   0.73718   0.74208
  Beta virt. eigenvalues --    0.74702   0.74852   0.75137   0.75487   0.76041
  Beta virt. eigenvalues --    0.76407   0.76740   0.76963   0.77277   0.77840
  Beta virt. eigenvalues --    0.78170   0.78828   0.79195   0.79579   0.79747
  Beta virt. eigenvalues --    0.80563   0.80805   0.81123   0.81513   0.81899
  Beta virt. eigenvalues --    0.82232   0.82443   0.83107   0.83271   0.84384
  Beta virt. eigenvalues --    0.84662   0.84720   0.85247   0.85635   0.86447
  Beta virt. eigenvalues --    0.86801   0.87197   0.87540   0.88167   0.88683
  Beta virt. eigenvalues --    0.89035   0.89210   0.90099   0.90693   0.91022
  Beta virt. eigenvalues --    0.91669   0.92035   0.92271   0.92471   0.92876
  Beta virt. eigenvalues --    0.93555   0.93809   0.94053   0.94542   0.94618
  Beta virt. eigenvalues --    0.95100   0.95753   0.95961   0.96825   0.97456
  Beta virt. eigenvalues --    0.98108   0.98180   0.98424   0.99838   0.99998
  Beta virt. eigenvalues --    1.01336   1.01608   1.02087   1.02376   1.02827
  Beta virt. eigenvalues --    1.03385   1.03708   1.04382   1.05038   1.05569
  Beta virt. eigenvalues --    1.06216   1.07003   1.07544   1.07743   1.07990
  Beta virt. eigenvalues --    1.08228   1.08736   1.09725   1.10229   1.10399
  Beta virt. eigenvalues --    1.10632   1.11161   1.11579   1.12495   1.12984
  Beta virt. eigenvalues --    1.13768   1.13974   1.14613   1.15097   1.15945
  Beta virt. eigenvalues --    1.16156   1.16818   1.17408   1.18556   1.18870
  Beta virt. eigenvalues --    1.19743   1.20686   1.21096   1.21516   1.22035
  Beta virt. eigenvalues --    1.22643   1.23577   1.24125   1.24603   1.25158
  Beta virt. eigenvalues --    1.25451   1.25743   1.26702   1.27269   1.27846
  Beta virt. eigenvalues --    1.28143   1.28471   1.28740   1.29229   1.29526
  Beta virt. eigenvalues --    1.29747   1.29839   1.30700   1.31467   1.32023
  Beta virt. eigenvalues --    1.32121   1.32759   1.33199   1.33950   1.34667
  Beta virt. eigenvalues --    1.34909   1.35676   1.35831   1.36263   1.36667
  Beta virt. eigenvalues --    1.36944   1.37430   1.38238   1.38703   1.38905
  Beta virt. eigenvalues --    1.39633   1.39853   1.40283   1.41240   1.41607
  Beta virt. eigenvalues --    1.41803   1.41985   1.42671   1.43238   1.43622
  Beta virt. eigenvalues --    1.44014   1.45197   1.45380   1.45930   1.47031
  Beta virt. eigenvalues --    1.47425   1.48446   1.48557   1.49014   1.49133
  Beta virt. eigenvalues --    1.49776   1.50203   1.50578   1.50977   1.51315
  Beta virt. eigenvalues --    1.52065   1.52442   1.52996   1.53514   1.53827
  Beta virt. eigenvalues --    1.53939   1.55045   1.55487   1.55692   1.56175
  Beta virt. eigenvalues --    1.56504   1.56774   1.57166   1.57914   1.58494
  Beta virt. eigenvalues --    1.58938   1.58999   1.59710   1.59990   1.60780
  Beta virt. eigenvalues --    1.61066   1.61275   1.61637   1.61681   1.61971
  Beta virt. eigenvalues --    1.62182   1.62527   1.63206   1.63661   1.64016
  Beta virt. eigenvalues --    1.64322   1.64873   1.65307   1.65372   1.65832
  Beta virt. eigenvalues --    1.66480   1.66702   1.67194   1.67533   1.68182
  Beta virt. eigenvalues --    1.68932   1.69247   1.69499   1.70390   1.70803
  Beta virt. eigenvalues --    1.72478   1.73001   1.73162   1.73549   1.74407
  Beta virt. eigenvalues --    1.74629   1.75036   1.75360   1.75555   1.76178
  Beta virt. eigenvalues --    1.76461   1.77623   1.77889   1.78671   1.78979
  Beta virt. eigenvalues --    1.79344   1.79526   1.80022   1.80538   1.80925
  Beta virt. eigenvalues --    1.81325   1.81683   1.82035   1.82216   1.82894
  Beta virt. eigenvalues --    1.83136   1.83957   1.85174   1.85601   1.86466
  Beta virt. eigenvalues --    1.87925   1.88929   1.88951   1.89443   1.89754
  Beta virt. eigenvalues --    1.90130   1.91187   1.91562   1.92195   1.92908
  Beta virt. eigenvalues --    1.93000   1.94213   1.94684   1.95408   1.95859
  Beta virt. eigenvalues --    1.95874   1.96508   1.97118   1.97422   1.98044
  Beta virt. eigenvalues --    1.98229   1.99094   1.99923   2.00130   2.01273
  Beta virt. eigenvalues --    2.01927   2.03182   2.03332   2.03397   2.03938
  Beta virt. eigenvalues --    2.05048   2.05526   2.05775   2.06085   2.06153
  Beta virt. eigenvalues --    2.06960   2.07498   2.07870   2.08293   2.08524
  Beta virt. eigenvalues --    2.09467   2.10225   2.10401   2.11525   2.12161
  Beta virt. eigenvalues --    2.12625   2.13127   2.13765   2.14507   2.15552
  Beta virt. eigenvalues --    2.16184   2.16904   2.17064   2.17424   2.17867
  Beta virt. eigenvalues --    2.18069   2.18691   2.19347   2.19734   2.20653
  Beta virt. eigenvalues --    2.20888   2.21401   2.21613   2.22042   2.22635
  Beta virt. eigenvalues --    2.23066   2.23771   2.24955   2.25450   2.25827
  Beta virt. eigenvalues --    2.26266   2.26581   2.27378   2.27965   2.28486
  Beta virt. eigenvalues --    2.29353   2.30346   2.30437   2.30975   2.31719
  Beta virt. eigenvalues --    2.32545   2.32824   2.33416   2.33682   2.34787
  Beta virt. eigenvalues --    2.35417   2.36096   2.36735   2.37353   2.37998
  Beta virt. eigenvalues --    2.39213   2.39458   2.40186   2.40555   2.41219
  Beta virt. eigenvalues --    2.41890   2.42535   2.43461   2.43818   2.44277
  Beta virt. eigenvalues --    2.44782   2.45328   2.46145   2.46373   2.46945
  Beta virt. eigenvalues --    2.47223   2.47526   2.48327   2.48956   2.49328
  Beta virt. eigenvalues --    2.49957   2.51122   2.52644   2.52790   2.53054
  Beta virt. eigenvalues --    2.54367   2.54710   2.55046   2.55247   2.55957
  Beta virt. eigenvalues --    2.56706   2.56892   2.57527   2.57999   2.58735
  Beta virt. eigenvalues --    2.59020   2.59374   2.60020   2.60424   2.60956
  Beta virt. eigenvalues --    2.61689   2.62091   2.62498   2.62785   2.63370
  Beta virt. eigenvalues --    2.63697   2.64577   2.64861   2.65205   2.65690
  Beta virt. eigenvalues --    2.66078   2.66569   2.67285   2.67350   2.67905
  Beta virt. eigenvalues --    2.68168   2.68519   2.69247   2.69563   2.69901
  Beta virt. eigenvalues --    2.70360   2.70961   2.71152   2.71940   2.72684
  Beta virt. eigenvalues --    2.72919   2.73640   2.73817   2.74134   2.74351
  Beta virt. eigenvalues --    2.74585   2.75062   2.75651   2.75730   2.76466
  Beta virt. eigenvalues --    2.76635   2.76961   2.77758   2.78009   2.78360
  Beta virt. eigenvalues --    2.78522   2.78695   2.79189   2.79473   2.80736
  Beta virt. eigenvalues --    2.80789   2.81218   2.81628   2.81775   2.82627
  Beta virt. eigenvalues --    2.83019   2.83257   2.83959   2.84179   2.84442
  Beta virt. eigenvalues --    2.85365   2.86242   2.86361   2.87215   2.87534
  Beta virt. eigenvalues --    2.87936   2.88119   2.88471   2.89192   2.89428
  Beta virt. eigenvalues --    2.89921   2.90074   2.90653   2.91593   2.92276
  Beta virt. eigenvalues --    2.92680   2.92872   2.93606   2.94145   2.94331
  Beta virt. eigenvalues --    2.95100   2.95655   2.96683   2.97125   2.97900
  Beta virt. eigenvalues --    2.98546   2.98662   2.99008   3.00013   3.00579
  Beta virt. eigenvalues --    3.01229   3.01943   3.02449   3.02928   3.03603
  Beta virt. eigenvalues --    3.03905   3.04365   3.04843   3.05249   3.05555
  Beta virt. eigenvalues --    3.06175   3.07030   3.07309   3.07725   3.08227
  Beta virt. eigenvalues --    3.08279   3.08898   3.09100   3.09820   3.09941
  Beta virt. eigenvalues --    3.10475   3.11321   3.11922   3.12206   3.12624
  Beta virt. eigenvalues --    3.12853   3.13236   3.13894   3.14279   3.14563
  Beta virt. eigenvalues --    3.15046   3.15469   3.15834   3.16386   3.16567
  Beta virt. eigenvalues --    3.17699   3.17918   3.18035   3.18232   3.18503
  Beta virt. eigenvalues --    3.18716   3.19316   3.19737   3.19971   3.20768
  Beta virt. eigenvalues --    3.21005   3.21381   3.21743   3.21944   3.22438
  Beta virt. eigenvalues --    3.22828   3.23026   3.23973   3.24522   3.24774
  Beta virt. eigenvalues --    3.25549   3.25681   3.26399   3.26753   3.27186
  Beta virt. eigenvalues --    3.27555   3.27736   3.28797   3.29144   3.29380
  Beta virt. eigenvalues --    3.29627   3.29702   3.30159   3.30699   3.31010
  Beta virt. eigenvalues --    3.31330   3.31742   3.32166   3.32797   3.33140
  Beta virt. eigenvalues --    3.33468   3.34056   3.34673   3.35008   3.35599
  Beta virt. eigenvalues --    3.35914   3.36091   3.36442   3.37250   3.37584
  Beta virt. eigenvalues --    3.38058   3.38527   3.38986   3.39319   3.39774
  Beta virt. eigenvalues --    3.40203   3.40612   3.40931   3.41333   3.41810
  Beta virt. eigenvalues --    3.42267   3.42588   3.42924   3.43730   3.43889
  Beta virt. eigenvalues --    3.44556   3.44956   3.45486   3.45711   3.46077
  Beta virt. eigenvalues --    3.46403   3.47309   3.47615   3.47832   3.48313
  Beta virt. eigenvalues --    3.48552   3.49287   3.49571   3.49824   3.50433
  Beta virt. eigenvalues --    3.50675   3.51216   3.51939   3.52179   3.52472
  Beta virt. eigenvalues --    3.52806   3.53223   3.53872   3.53952   3.54257
  Beta virt. eigenvalues --    3.54698   3.55065   3.55529   3.55623   3.56362
  Beta virt. eigenvalues --    3.56974   3.57599   3.58179   3.58658   3.59198
  Beta virt. eigenvalues --    3.59506   3.60175   3.60283   3.60819   3.61199
  Beta virt. eigenvalues --    3.62157   3.62477   3.63027   3.63978   3.65941
  Beta virt. eigenvalues --    3.66513   3.67773   3.68000   3.68597   3.69196
  Beta virt. eigenvalues --    3.70504   3.71271   3.71782   3.72088   3.72987
  Beta virt. eigenvalues --    3.74164   3.75031   3.75462   3.76329   3.77965
  Beta virt. eigenvalues --    3.78636   3.78989   3.80897   3.81274   3.82076
  Beta virt. eigenvalues --    3.82446   3.83951   3.84953   3.85111   3.85162
  Beta virt. eigenvalues --    3.86027   3.86179   3.86766   3.87168   3.89007
  Beta virt. eigenvalues --    3.89114   3.90230   3.90531   3.91819   3.92606
  Beta virt. eigenvalues --    3.92727   3.93423   3.94246   3.94876   3.95546
  Beta virt. eigenvalues --    3.96277   3.96975   3.98045   3.98731   3.99437
  Beta virt. eigenvalues --    4.00016   4.00758   4.01525   4.02470   4.02848
  Beta virt. eigenvalues --    4.03429   4.03959   4.04793   4.05601   4.06024
  Beta virt. eigenvalues --    4.06419   4.07367   4.08096   4.08709   4.09293
  Beta virt. eigenvalues --    4.10105   4.10613   4.10865   4.11674   4.12171
  Beta virt. eigenvalues --    4.12377   4.13186   4.13846   4.14412   4.15462
  Beta virt. eigenvalues --    4.16013   4.16239   4.16707   4.17208   4.17606
  Beta virt. eigenvalues --    4.18559   4.19309   4.19626   4.20716   4.21391
  Beta virt. eigenvalues --    4.22021   4.22858   4.23551   4.24112   4.24519
  Beta virt. eigenvalues --    4.25389   4.26194   4.27122   4.27278   4.27884
  Beta virt. eigenvalues --    4.28027   4.28616   4.30127   4.30252   4.30420
  Beta virt. eigenvalues --    4.30959   4.31565   4.32022   4.32392   4.33107
  Beta virt. eigenvalues --    4.33861   4.34877   4.37017   4.37361   4.38308
  Beta virt. eigenvalues --    4.38952   4.40283   4.40839   4.41029   4.41755
  Beta virt. eigenvalues --    4.42420   4.43568   4.44204   4.45425   4.46113
  Beta virt. eigenvalues --    4.47939   4.48480   4.48936   4.50438   4.50698
  Beta virt. eigenvalues --    4.52178   4.54292   4.54790   4.55869   4.56269
  Beta virt. eigenvalues --    4.57219   4.57973   4.58313   4.58990   4.60240
  Beta virt. eigenvalues --    4.61545   4.63427   4.64620   4.67877   4.68927
  Beta virt. eigenvalues --    4.70317   4.70990   4.71395   4.72086   4.72572
  Beta virt. eigenvalues --    4.74046   4.74693   4.75237   4.75865   4.76100
  Beta virt. eigenvalues --    4.78508   4.79315   4.80171   4.80647   4.81712
  Beta virt. eigenvalues --    4.82247   4.83462   4.83948   4.84435   4.85368
  Beta virt. eigenvalues --    4.86435   4.86813   4.88087   4.88794   4.89528
  Beta virt. eigenvalues --    4.90325   4.91367   4.92339   4.93372   4.94656
  Beta virt. eigenvalues --    4.95861   4.96338   4.98022   4.99029   5.00025
  Beta virt. eigenvalues --    5.02063   5.05156   5.06180   5.06551   5.07827
  Beta virt. eigenvalues --    5.09138   5.10127   5.11773   5.12722   5.13121
  Beta virt. eigenvalues --    5.14517   5.17845   5.19464   5.22128   5.24094
  Beta virt. eigenvalues --    5.24763   5.25460   5.26921   5.28628   5.29806
  Beta virt. eigenvalues --    5.31731   5.33343   5.34220   5.35347   5.35832
  Beta virt. eigenvalues --    5.39490   5.39882   5.42744   5.45225   5.47669
  Beta virt. eigenvalues --    5.50418   5.52428   5.52562   5.53254   5.56973
  Beta virt. eigenvalues --    5.58194   5.59755   5.66806   5.69333   5.71547
  Beta virt. eigenvalues --    5.73046   5.75982   5.79939   5.85098   6.00113
  Beta virt. eigenvalues --    6.22177   8.90743   9.41383   9.46784  19.83297
  Beta virt. eigenvalues --   22.24954  22.40769  22.51695  22.52421  22.58578
  Beta virt. eigenvalues --   22.62828  22.66903  22.68875  22.71812  22.74381
  Beta virt. eigenvalues --   22.79279  22.79841  22.82639  22.83831  22.84924
  Beta virt. eigenvalues --   22.90868  22.92368  22.95031  23.01587  23.04966
  Beta virt. eigenvalues --   23.07940  23.11310  23.17436  23.20404  23.25462
  Beta virt. eigenvalues --   23.42554  23.67533  23.74277  23.88790  32.04680
  Beta virt. eigenvalues --   32.33886  32.47355
          Condensed to atoms (all electrons):
          Atomic-Atomic Spin Densities.
 Mulliken charges and spin densities:
               1          2
     1  C   -0.159231   0.148826
     2  C    0.089003  -0.058737
     3  C   -0.152071   0.126574
     4  C   -0.108549  -0.079168
     5  C    0.189446   0.175294
     6  C   -0.249836  -0.068442
     7  H    0.180792  -0.006962
     8  H    0.172799  -0.006753
     9  H    0.146519   0.001017
    10  C   -0.076506   0.005977
    11  C   -0.038162   0.046951
    12  C   -0.173434  -0.023102
    13  C   -0.148567   0.050561
    14  C   -0.138822  -0.023876
    15  C   -0.245529   0.036703
    16  C    0.131873  -0.037607
    17  H    0.153882   0.000354
    18  H    0.145405  -0.001312
    19  H    0.145704   0.000304
    20  H    0.146964  -0.001525
    21  C   -0.411050  -0.000644
    22  H    0.150601  -0.000318
    23  H    0.149469   0.000223
    24  H    0.166735  -0.000005
    25  C   -0.413319  -0.000852
    26  H    0.147649   0.000338
    27  H    0.150965  -0.000269
    28  H    0.166178   0.000009
    29  C    0.085475   0.456884
    30  C    0.105454  -0.117739
    31  C   -0.220242   0.100919
    32  C    0.108907  -0.127422
    33  C   -0.211341   0.061532
    34  H    0.147565  -0.007809
    35  C    0.090102   0.495887
    36  H    0.150884  -0.006138
    37  N   -0.352172   0.221333
    38  N   -0.348268   0.233706
    39  S    0.232883   0.199681
    40  C    0.103798  -0.074322
    41  C   -0.173584   0.137230
    42  C   -0.176392   0.136837
    43  C   -0.191729  -0.079168
    44  H    0.179348  -0.006011
    45  C   -0.200483  -0.079022
    46  H    0.149383  -0.004698
    47  C    0.119050   0.172250
    48  H    0.151642   0.000951
    49  H    0.156318   0.000932
    50  C   -0.376590  -0.009685
    51  H    0.161687   0.001915
    52  H    0.154204   0.001976
    53  C   -0.154885   0.005432
    54  H    0.136277  -0.000106
    55  H    0.138974  -0.000056
    56  N   -0.546300   0.000987
    57  H    0.229132  -0.000051
    58  H    0.231994   0.000215
 Sum of Mulliken charges =  -0.00000   2.00000
 Mulliken charges and spin densities with hydrogens summed into heavy atoms:
               1          2
     1  C    0.021561   0.141864
     2  C    0.089003  -0.058737
     3  C    0.020728   0.119820
     4  C   -0.108549  -0.079168
     5  C    0.189446   0.175294
     6  C   -0.103317  -0.067425
    10  C   -0.076506   0.005977
    11  C   -0.038162   0.046951
    12  C   -0.019552  -0.022748
    13  C   -0.003162   0.049250
    14  C    0.006882  -0.023572
    15  C   -0.098564   0.035178
    16  C    0.131873  -0.037607
    21  C    0.055756  -0.000743
    25  C    0.051473  -0.000773
    29  C    0.085475   0.456884
    30  C    0.105454  -0.117739
    31  C   -0.072676   0.093110
    32  C    0.108907  -0.127422
    33  C   -0.060458   0.055394
    35  C    0.090102   0.495887
    37  N   -0.352172   0.221333
    38  N   -0.348268   0.233706
    39  S    0.232883   0.199681
    40  C    0.103798  -0.074322
    41  C    0.005764   0.131220
    42  C   -0.027009   0.132139
    43  C   -0.040088  -0.078217
    45  C   -0.044165  -0.078089
    47  C    0.119050   0.172250
    50  C   -0.060698  -0.005794
    53  C    0.120366   0.005270
    56  N   -0.085174   0.001150
 Electronic spatial extent (au):  <R**2>=          27721.1768
 Charge=             -0.0000 electrons
 Dipole moment (field-independent basis, Debye):
    X=             -0.9266    Y=             -2.5424    Z=              0.1790  Tot=              2.7119
 Quadrupole moment (field-independent basis, Debye-Ang):
   XX=           -160.7538   YY=           -193.7865   ZZ=           -207.1709
   XY=              8.9798   XZ=              5.1654   YZ=             -2.9513
 Traceless Quadrupole moment (field-independent basis, Debye-Ang):
   XX=             26.4833   YY=             -6.5494   ZZ=            -19.9338
   XY=              8.9798   XZ=              5.1654   YZ=             -2.9513
 Octapole moment (field-independent basis, Debye-Ang**2):
  XXX=             62.6229  YYY=             -3.9462  ZZZ=             17.2526  XYY=            -61.4984
  XXY=            104.8312  XXZ=             79.6334  XZZ=             50.8149  YZZ=             -3.0087
  YYZ=             -1.1355  XYZ=             -4.7423
 Hexadecapole moment (field-independent basis, Debye-Ang**3):
 XXXX=         -30006.1756 YYYY=          -3672.1077 ZZZZ=           -617.7869 XXXY=           1402.0104
 XXXZ=            742.4735 YYYX=             49.6975 YYYZ=             -0.0762 ZZZX=            124.0016
 ZZZY=            -13.0595 XXYY=          -6354.8636 XXZZ=          -5871.1999 YYZZ=           -749.1419
 XXYZ=           -177.5940 YYXZ=              4.6119 ZZXY=            -24.2230
 N-N= 3.072877532219D+03 E-N=-1.007225509804D+04  KE= 1.674674877163D+03
 Leave Link  601 at Thu Mar 14 11:31:11 2024, MaxMem= 32212254720 cpu:              29.8 elap:               1.1
 (Enter /home/<user>/g16/l9999.exe)
 Electronic transition elements 
                 1             2             3             4             5 
      1  -0.168240D+04 -0.168239D+04 -0.168239D+04 -0.168237D+04 -0.168236D+04
      2  -0.139657D+01 -0.153615D+00 -0.250222D+01  0.366454D+00  0.129100D+00
      3   0.472351D+00  0.127275D+00 -0.513014D+00  0.555223D+00  0.541406D+00
      4   0.114614D+00  0.281120D-01 -0.427584D-01  0.688788D-01  0.169445D-01
      5   0.949504D-01  0.118077D-01  0.192792D+00 -0.368065D-01 -0.133641D-01
      6  -0.328028D-01 -0.975071D-02  0.401199D-01 -0.537350D-01 -0.566049D-01
      7  -0.764228D-02 -0.211265D-02  0.306691D-02 -0.683665D-02 -0.169521D-02
      8  -0.187030D-01 -0.493733D-02  0.304182D-03 -0.232881D-01  0.156953D-01
      9  -0.703499D-01  0.164993D+00 -0.119416D+00  0.756153D-01  0.559214D-01
     10  -0.592242D-01 -0.736556D+00 -0.205894D+00 -0.353998D+00  0.536695D+00
     11   0.153395D+00  0.584181D-01 -0.717677D+00  0.220269D+01  0.158341D+01
     12  -0.150245D+00 -0.567144D-01  0.223129D+00 -0.278706D+00 -0.221654D+00
     13   0.501450D-02  0.658405D-03 -0.241613D-03  0.627216D-02  0.916648D-02
     14  -0.177664D+00 -0.747372D-03  0.273195D-01 -0.276579D+00 -0.102425D+00
     15  -0.279182D-01 -0.135909D-02  0.179711D-01 -0.497315D-01 -0.490236D-01
     16  -0.136883D-01 -0.677501D-02  0.466805D-01 -0.637342D-01 -0.292142D-01
                 6             7             8             9            10 
      1  -0.168236D+04 -0.168236D+04 -0.168235D+04 -0.168235D+04 -0.168234D+04
      2  -0.890271D+00  0.228058D+01  0.343864D+00  0.252442D+01  0.924913D-01
      3  -0.189558D+00 -0.388728D+00  0.695460D-01 -0.410771D-02  0.222005D-01
      4   0.572189D-01 -0.755087D-01 -0.400644D-01 -0.614555D-01 -0.857505D-03
      5   0.966426D-01 -0.255592D+00 -0.397799D-01 -0.298530D+00 -0.121279D-01
      6   0.207328D-01  0.432740D-01 -0.846386D-02  0.311962D-03 -0.288455D-02
      7  -0.663218D-02  0.850114D-02  0.652684D-02  0.682207D-02  0.194984D-03
      8  -0.124726D-02  0.573930D-01  0.399061D-01  0.158976D-01 -0.731706D-01
      9  -0.118186D+00  0.491515D+00 -0.258231D-01  0.890414D-01 -0.613445D+00
     10   0.631513D+00 -0.101508D+00  0.300422D+00  0.969920D+00 -0.861872D-02
     11  -0.396104D+00 -0.919463D+00  0.398141D+00  0.378724D+00  0.907100D-01
     12   0.264671D-01  0.110643D+00 -0.806817D-01  0.188041D-01 -0.183621D-01
     13   0.466340D-03 -0.601235D-02  0.163375D-01 -0.522231D-02  0.267801D-02
     14   0.291681D-01  0.536956D+00 -0.160488D-01  0.266620D+00  0.493162D-01
     15  -0.285188D-01  0.413202D-01  0.725428D-02  0.133994D-01 -0.225009D-01
     16  -0.677971D-02  0.324776D-02  0.241507D-01 -0.285217D-01  0.210432D-02

 Test job not archived.
 1\1\GINC-PB-207\SP\UM062X TD-FC\def2TZVP\C29H25N3S1(3)\PB-207\14-Mar-2
 024\0\\#p td=(nstates=10) m062x/def2tzvp\\T1ABS\\0,3\C,0,-2.480164,1.6
 87094,-0.253245\C,0,-1.780608,0.444522,-0.17483\C,0,-2.568704,-0.74104
 8,-0.035878\C,0,-3.943792,-0.672831,0.016142\C,0,-4.6096,0.572019,-0.0
 77093\C,0,-3.86349,1.750404,-0.212163\H,0,-1.905129,2.597041,-0.351729
 \H,0,-2.081804,-1.703882,0.074209\H,0,-4.358392,2.715272,-0.287329\C,0
 ,-4.950827,-1.813307,0.178221\C,0,-6.271885,-1.04458,0.150618\C,0,-7.5
 6818,-1.534891,0.250544\C,0,-8.642732,-0.637976,0.201894\C,0,-8.419312
 ,0.736483,0.054786\C,0,-7.121475,1.237331,-0.046161\C,0,-6.047146,0.34
 1885,0.001863\H,0,-7.755236,-2.599974,0.365642\H,0,-9.659944,-1.012331
 ,0.279313\H,0,-9.264732,1.4182,0.019059\H,0,-6.95129,2.304703,-0.16024
 2\C,0,-4.757813,-2.549914,1.522906\H,0,-5.527863,-3.318428,1.65681\H,0
 ,-3.780207,-3.044572,1.556663\H,0,-4.818023,-1.854627,2.36613\C,0,-4.8
 59634,-2.818087,-0.991966\H,0,-3.883776,-3.317393,-0.99799\H,0,-5.6312
 95,-3.591049,-0.899529\H,0,-4.992498,-2.315665,-1.955368\C,0,-0.34021,
 0.363072,-0.24054\C,0,0.561927,1.475241,-0.040796\C,0,0.308906,-0.9047
 68,-0.533278\C,0,2.019331,1.291728,-0.085011\C,0,1.657257,-1.070767,-0
 .574465\H,0,-0.313198,-1.751477,-0.796306\C,0,2.605787,-0.002143,-0.33
 0888\H,0,2.041884,-2.041304,-0.864884\N,0,0.1942,2.722749,0.236955\N,0
 ,2.70393,2.406635,0.160651\S,0,1.59172,3.636214,0.423322\C,0,4.032751,
 -0.270843,-0.353281\C,0,5.004407,0.747494,-0.539424\C,0,4.52229,-1.596
 183,-0.200552\C,0,6.3586,0.447962,-0.580987\H,0,4.675911,1.770842,-0.6
 58126\C,0,5.879304,-1.878047,-0.231617\H,0,3.831251,-2.411357,-0.01632
 \C,0,6.832029,-0.864936,-0.427854\H,0,7.071364,1.253778,-0.743954\H,0,
 6.212864,-2.905092,-0.099701\C,0,8.309393,-1.173881,-0.424969\H,0,8.49
 6287,-2.181546,-0.813211\H,0,8.835867,-0.473512,-1.088296\C,0,8.931621
 ,-1.084677,0.981443\H,0,8.734616,-0.079532,1.395676\H,0,8.423018,-1.79
 8571,1.640746\N,0,10.35011,-1.45197,0.929619\H,0,10.869994,-0.73611,0.
 42246\H,0,10.736958,-1.462873,1.872051\\Version=ES64L-G16RevC.01\State
 =3-A\HF=-1682.463345\S2=2.043806\S2-1=0.\S2A=2.001176\RMSD=7.438e-09\P
 G=C01 [X(C29H25N3S1)]\\@


 HE THAT RISETH LATE MUST TROT ALL DAY.

                  -- BENJAMIN FRANKLIN
 Job cpu time:       2 days 13 hours  4 minutes  8.0 seconds.
 Elapsed time:       0 days  2 hours  2 minutes  8.5 seconds.
 File lengths (MBytes):  RWF=   6397 Int=      0 D2E=      0 Chk=    551 Scr=      1
 Normal termination of Gaussian 16 at Thu Mar 14 11:31:12 2024.
