 Entering Gaussian System, Link 0=g16
 Initial command:
 /home/<user>/g16/l1.exe "/media/<user>/Gaussian/g16/scratch/Gau-222919.inp" -scrdir="/media/<user>/Gaussian/g16/scratch/"
 Default is to use a total of  96 processors:
                               96 via shared-memory
                                1 via Linda
 Entering Link 1 = /home/<user>/g16/l1.exe PID=    222921.
  
 Copyright (c) 1988-2019, Gaussian, Inc.  All Rights Reserved.
  
 This is part of the Gaussian(R) 16 program.  It is based on
 the Gaussian(R) 09 system (copyright 2009, Gaussian, Inc.),
 the Gaussian(R) 03 system (copyright 2003, Gaussian, Inc.),
 the Gaussian(R) 98 system (copyright 1998, Gaussian, Inc.),
 the Gaussian(R) 94 system (copyright 1995, Gaussian, Inc.),
 the Gaussian 92(TM) system (copyright 1992, Gaussian, Inc.),
 the Gaussian 90(TM) system (copyright 1990, Gaussian, Inc.),
 the Gaussian 88(TM) system (copyright 1988, Gaussian, Inc.),
 the Gaussian 86(TM) system (copyright 1986, Carnegie Mellon
 University), and the Gaussian 82(TM) system (copyright 1983,
 Carnegie Mellon University). Gaussian is a federally registered
 trademark of Gaussian, Inc.
  
 This software contains proprietary and confidential information,
 including trade secrets, belonging to Gaussian, Inc.
  
 This software is provided under written license and may be
 used, copied, transmitted, or stored only in accord with that
 written license.
  
 The following legend is applicable only to US Government
 contracts under FAR:
  
                    RESTRICTED RIGHTS LEGEND
  
 Use, reproduction and disclosure by the US Government is
 subject to restrictions as set forth in subparagraphs (a)
 and (c) of the Commercial Computer Software - Restricted
 Rights clause in FAR 52.227-19.
  
 Gaussian, Inc.
 340 Quinnipiac St., Bldg. 40, Wallingford CT 06492
  
  
 ---------------------------------------------------------------
 Warning -- This program may not be used in any manner that
 competes with the business of Gaussian, Inc. or will provide
 assistance to any competitor of Gaussian, Inc.  The licensee
 of this program is prohibited from giving any competitor of
 Gaussian, Inc. access to this program.  By using this program,
 the user acknowledges that Gaussian, Inc. is engaged in the
 business of creating and licensing software in the field of
 computational chemistry and represents and warrants to the
 licensee that it is not a competitor of Gaussian, Inc. and that
 it will not use this program in any manner prohibited above.
 ---------------------------------------------------------------
  

 Cite this work as:
 Gaussian 16, Revision C.01,
 M. J. Frisch, G. W. Trucks, H. B. Schlegel, G. E. Scuseria, 
 M. A. Robb, J. R. Cheeseman, G. Scalmani, V. Barone, 
 G. A. Petersson, H. Nakatsuji, X. Li, M. Caricato, A. V. Marenich, 
 J. Bloino, B. G. Janesko, R. Gomperts, B. Mennucci, H. P. Hratchian, 
 J. V. Ortiz, A. F. Izmaylov, J. L. Sonnenberg, D. Williams-Young, 
 F. Ding, F. Lipparini, F. Egidi, J. Goings, B. Peng, A. Petrone, 
 T. Henderson, D. Ranasinghe, V. G. Zakrzewski, J. Gao, N. Rega, 
 G. Zheng, W. Liang, M. Hada, M. Ehara, K. Toyota, R. Fukuda, 
 J. Hasegawa, M. Ishida, T. Nakajima, Y. Honda, O. Kitao, H. Nakai, 
 T. Vreven, K. Throssell, J. A. Montgomery, Jr., J. E. Peralta, 
 F. Ogliaro, M. J. Bearpark, J. J. Heyd, E. N. Brothers, K. N. Kudin, 
 V. N. Staroverov, T. A. Keith, R. Kobayashi, J. Normand, 
 K. Raghavachari, A. P. Rendell, J. C. Burant, S. S. Iyengar, 
 J. Tomasi, M. Cossi, J. M. Millam, M. Klene, C. Adamo, R. Cammi, 
 J. W. Ochterski, R. L. Martin, K. Morokuma, O. Farkas, 
 J. B. Foresman, and D. J. Fox, Gaussian, Inc., Wallingford CT, 2019.
 
 ******************************************
 Gaussian 16:  ES64L-G16RevC.01  3-Jul-2019
                14-Mar-2024 
 ******************************************
 %mem=240GB
 %nprocshared=30
 Will use up to   30 processors via shared memory.
 %chk=FBTP_H0abs.chk
 Default route: IOp(8/117=-99) IOp(7/127=-99)
 -------------------------------------
 #p td=(nstates=10) cam-b3lyp/def2tzvp
 -------------------------------------
 1/38=1,172=1/1;
 2/12=2,17=6,18=5,40=1/2;
 3/5=44,7=101,11=9,25=1,30=1,74=-40/1,2,3,8;
 4//1;
 5/5=2,38=5/2;
 8/6=1,10=1,108=10,117=-99/1;
 9/41=10,42=1,70=2/14;
 6/7=2,8=2,9=2,10=2/1;
 99/5=1,9=1/99;
 Leave Link    1 at Thu Mar 14 11:41:26 2024, MaxMem= 32212254720 cpu:               1.3 elap:               0.0
 (Enter /home/<user>/g16/l101.exe)
 -----
 H0ABS
 -----
 Symbolic Z-matrix:
 Charge =  1 Multiplicity = 2
 C                    -2.43735   1.61271  -0.42171 
 C                    -1.7854    0.36923  -0.15839 
 C                    -2.59676  -0.7815    0.08088 
 C                    -3.96672  -0.68292   0.06205 
 C                    -4.59388   0.56596  -0.21465 
 C                    -3.81366   1.7115   -0.45972 
 H                    -1.83563   2.49092  -0.60956 
 H                    -2.12945  -1.7286    0.32929 
 H                    -4.28205   2.66561  -0.68128 
 C                    -5.01272  -1.76683   0.31793 
 C                    -6.30135  -0.97049   0.12883 
 C                    -7.61621  -1.40444   0.22136 
 C                    -8.6489   -0.48233   0.00825 
 C                    -8.37553   0.86352  -0.29574 
 C                    -7.06443   1.30989  -0.39187 
 C                    -6.025     0.38713  -0.17879 
 H                    -7.85277  -2.43851   0.45558 
 H                    -9.68144  -0.81168   0.07935 
 H                    -9.19764   1.55407  -0.45565 
 H                    -6.84971   2.34822  -0.62716 
 C                    -4.90368  -2.32707   1.75561 
 H                    -5.70552  -3.04823   1.94546 
 H                    -3.94879  -2.84534   1.89644 
 H                    -4.97647  -1.53009   2.50204 
 C                    -4.90226  -2.91589  -0.71082 
 H                    -3.94872  -3.44375  -0.59887 
 H                    -5.7051   -3.64445  -0.55692 
 H                    -4.97157  -2.54241  -1.73721 
 C                    -0.3401    0.25566  -0.15357 
 C                     0.56383   1.36251   0.08608 
 C                     0.29914  -0.97482  -0.39551 
 C                     2.00722   1.1831    0.0494 
 C                     1.68398  -1.1439   -0.4351 
 H                    -0.30896  -1.8414   -0.62781 
 C                     2.60617  -0.10355  -0.23192 
 H                     2.05774  -2.12775  -0.69424 
 N                     0.20109   2.60482   0.41106 
 N                     2.68045   2.29642   0.34823 
 S                     1.57624   3.47107   0.63998 
 C                     4.04151  -0.33322  -0.30656 
 C                     4.95467   0.69373  -0.65567 
 C                     4.57166  -1.62496  -0.0536 
 C                     6.31111   0.43079  -0.75793 
 H                     4.58661   1.68852  -0.86798 
 C                     5.93052  -1.86909  -0.13975 
 H                     3.91412  -2.43019   0.2569 
 C                     6.83345  -0.85045  -0.50275 
 H                     6.98524   1.23037  -1.05325 
 H                     6.31064  -2.86385   0.07657 
 C                     8.31104  -1.11976  -0.56957 
 H                     8.50229  -2.16868  -0.81733 
 H                     8.76645  -0.50923  -1.35984 
 C                     9.0327   -0.816     0.76828 
 H                     8.86014   0.24254   1.03251 
 H                     8.57375  -1.4168    1.56229 
 N                     10.43472  -1.20121   0.66451 
 H                     10.95059  -0.5354    0.09205 
 H                     10.87431  -1.20239   1.58199 
 
 ITRead=  0  0  0  0  0  0  0  0  0  0  0  0  0  0  0  0  0  0  0  0
 ITRead=  0  0  0  0  0  0  0  0  0  0  0  0  0  0  0  0  0  0  0  0
 ITRead=  0  0  0  0  0  0  0  0  0  0  0  0  0  0  0  0  0  0
 MicOpt= -1 -1 -1 -1 -1 -1 -1 -1 -1 -1 -1 -1 -1 -1 -1 -1 -1 -1 -1 -1
 MicOpt= -1 -1 -1 -1 -1 -1 -1 -1 -1 -1 -1 -1 -1 -1 -1 -1 -1 -1 -1 -1
 MicOpt= -1 -1 -1 -1 -1 -1 -1 -1 -1 -1 -1 -1 -1 -1 -1 -1 -1 -1
 NAtoms=     58 NQM=       58 NQMF=       0 NMMI=      0 NMMIF=      0
                NMic=       0 NMicF=      0.
                    Isotopes and Nuclear Properties:
 (Nuclear quadrupole moments (NQMom) in fm**2, nuclear magnetic moments (NMagM)
  in nuclear magnetons)

  Atom         1           2           3           4           5           6           7           8           9          10
 IAtWgt=          12          12          12          12          12          12           1           1           1          12
 AtmWgt=  12.0000000  12.0000000  12.0000000  12.0000000  12.0000000  12.0000000   1.0078250   1.0078250   1.0078250  12.0000000
 NucSpn=           0           0           0           0           0           0           1           1           1           0
 AtZEff=  -0.0000000  -0.0000000  -0.0000000  -0.0000000  -0.0000000  -0.0000000  -0.0000000  -0.0000000  -0.0000000  -0.0000000
 NQMom=    0.0000000   0.0000000   0.0000000   0.0000000   0.0000000   0.0000000   0.0000000   0.0000000   0.0000000   0.0000000
 NMagM=    0.0000000   0.0000000   0.0000000   0.0000000   0.0000000   0.0000000   2.7928460   2.7928460   2.7928460   0.0000000
 AtZNuc=   6.0000000   6.0000000   6.0000000   6.0000000   6.0000000   6.0000000   1.0000000   1.0000000   1.0000000   6.0000000

  Atom        11          12          13          14          15          16          17          18          19          20
 IAtWgt=          12          12          12          12          12          12           1           1           1           1
 AtmWgt=  12.0000000  12.0000000  12.0000000  12.0000000  12.0000000  12.0000000   1.0078250   1.0078250   1.0078250   1.0078250
 NucSpn=           0           0           0           0           0           0           1           1           1           1
 AtZEff=  -0.0000000  -0.0000000  -0.0000000  -0.0000000  -0.0000000  -0.0000000  -0.0000000  -0.0000000  -0.0000000  -0.0000000
 NQMom=    0.0000000   0.0000000   0.0000000   0.0000000   0.0000000   0.0000000   0.0000000   0.0000000   0.0000000   0.0000000
 NMagM=    0.0000000   0.0000000   0.0000000   0.0000000   0.0000000   0.0000000   2.7928460   2.7928460   2.7928460   2.7928460
 AtZNuc=   6.0000000   6.0000000   6.0000000   6.0000000   6.0000000   6.0000000   1.0000000   1.0000000   1.0000000   1.0000000

  Atom        21          22          23          24          25          26          27          28          29          30
 IAtWgt=          12           1           1           1          12           1           1           1          12          12
 AtmWgt=  12.0000000   1.0078250   1.0078250   1.0078250  12.0000000   1.0078250   1.0078250   1.0078250  12.0000000  12.0000000
 NucSpn=           0           1           1           1           0           1           1           1           0           0
 AtZEff=  -0.0000000  -0.0000000  -0.0000000  -0.0000000  -0.0000000  -0.0000000  -0.0000000  -0.0000000  -0.0000000  -0.0000000
 NQMom=    0.0000000   0.0000000   0.0000000   0.0000000   0.0000000   0.0000000   0.0000000   0.0000000   0.0000000   0.0000000
 NMagM=    0.0000000   2.7928460   2.7928460   2.7928460   0.0000000   2.7928460   2.7928460   2.7928460   0.0000000   0.0000000
 AtZNuc=   6.0000000   1.0000000   1.0000000   1.0000000   6.0000000   1.0000000   1.0000000   1.0000000   6.0000000   6.0000000

  Atom        31          32          33          34          35          36          37          38          39          40
 IAtWgt=          12          12          12           1          12           1          14          14          32          12
 AtmWgt=  12.0000000  12.0000000  12.0000000   1.0078250  12.0000000   1.0078250  14.0030740  14.0030740  31.9720718  12.0000000
 NucSpn=           0           0           0           1           0           1           2           2           0           0
 AtZEff=  -0.0000000  -0.0000000  -0.0000000  -0.0000000  -0.0000000  -0.0000000  -0.0000000  -0.0000000  -0.0000000  -0.0000000
 NQMom=    0.0000000   0.0000000   0.0000000   0.0000000   0.0000000   0.0000000   2.0440000   2.0440000   0.0000000   0.0000000
 NMagM=    0.0000000   0.0000000   0.0000000   2.7928460   0.0000000   2.7928460   0.4037610   0.4037610   0.0000000   0.0000000
 AtZNuc=   6.0000000   6.0000000   6.0000000   1.0000000   6.0000000   1.0000000   7.0000000   7.0000000  16.0000000   6.0000000

  Atom        41          42          43          44          45          46          47          48          49          50
 IAtWgt=          12          12          12           1          12           1          12           1           1          12
 AtmWgt=  12.0000000  12.0000000  12.0000000   1.0078250  12.0000000   1.0078250  12.0000000   1.0078250   1.0078250  12.0000000
 NucSpn=           0           0           0           1           0           1           0           1           1           0
 AtZEff=  -0.0000000  -0.0000000  -0.0000000  -0.0000000  -0.0000000  -0.0000000  -0.0000000  -0.0000000  -0.0000000  -0.0000000
 NQMom=    0.0000000   0.0000000   0.0000000   0.0000000   0.0000000   0.0000000   0.0000000   0.0000000   0.0000000   0.0000000
 NMagM=    0.0000000   0.0000000   0.0000000   2.7928460   0.0000000   2.7928460   0.0000000   2.7928460   2.7928460   0.0000000
 AtZNuc=   6.0000000   6.0000000   6.0000000   1.0000000   6.0000000   1.0000000   6.0000000   1.0000000   1.0000000   6.0000000

  Atom        51          52          53          54          55          56          57          58
 IAtWgt=           1           1          12           1           1          14           1           1
 AtmWgt=   1.0078250   1.0078250  12.0000000   1.0078250   1.0078250  14.0030740   1.0078250   1.0078250
 NucSpn=           1           1           0           1           1           2           1           1
 AtZEff=  -0.0000000  -0.0000000  -0.0000000  -0.0000000  -0.0000000  -0.0000000  -0.0000000  -0.0000000
 NQMom=    0.0000000   0.0000000   0.0000000   0.0000000   0.0000000   2.0440000   0.0000000   0.0000000
 NMagM=    2.7928460   2.7928460   0.0000000   2.7928460   2.7928460   0.4037610   2.7928460   2.7928460
 AtZNuc=   1.0000000   1.0000000   6.0000000   1.0000000   1.0000000   7.0000000   1.0000000   1.0000000
 Leave Link  101 at Thu Mar 14 11:41:27 2024, MaxMem= 32212254720 cpu:               4.1 elap:               0.1
 (Enter /home/<user>/g16/l202.exe)
 Stoichiometry    C29H25N3S(1+,2)
 Framework group  C1[X(C29H25N3S)]
 Deg. of freedom   168
 Full point group                 C1      NOp   1
 Largest Abelian subgroup         C1      NOp   1
 Largest concise Abelian subgroup C1      NOp   1
                         Standard orientation:                         
 ---------------------------------------------------------------------
 Center     Atomic      Atomic             Coordinates (Angstroms)
 Number     Number       Type             X           Y           Z
 ---------------------------------------------------------------------
      1          6           0       -2.437354    1.612708   -0.421714
      2          6           0       -1.785402    0.369225   -0.158390
      3          6           0       -2.596764   -0.781503    0.080884
      4          6           0       -3.966721   -0.682916    0.062051
      5          6           0       -4.593876    0.565964   -0.214654
      6          6           0       -3.813662    1.711495   -0.459721
      7          1           0       -1.835631    2.490922   -0.609559
      8          1           0       -2.129446   -1.728602    0.329291
      9          1           0       -4.282046    2.665610   -0.681279
     10          6           0       -5.012716   -1.766827    0.317932
     11          6           0       -6.301348   -0.970487    0.128834
     12          6           0       -7.616206   -1.404440    0.221364
     13          6           0       -8.648899   -0.482327    0.008253
     14          6           0       -8.375528    0.863518   -0.295740
     15          6           0       -7.064434    1.309889   -0.391874
     16          6           0       -6.025001    0.387127   -0.178785
     17          1           0       -7.852765   -2.438513    0.455582
     18          1           0       -9.681443   -0.811681    0.079352
     19          1           0       -9.197642    1.554070   -0.455646
     20          1           0       -6.849705    2.348215   -0.627162
     21          6           0       -4.903682   -2.327065    1.755611
     22          1           0       -5.705516   -3.048234    1.945461
     23          1           0       -3.948786   -2.845335    1.896442
     24          1           0       -4.976473   -1.530086    2.502038
     25          6           0       -4.902262   -2.915890   -0.710820
     26          1           0       -3.948717   -3.443749   -0.598867
     27          1           0       -5.705096   -3.644450   -0.556922
     28          1           0       -4.971565   -2.542405   -1.737212
     29          6           0       -0.340099    0.255663   -0.153565
     30          6           0        0.563830    1.362511    0.086079
     31          6           0        0.299140   -0.974822   -0.395514
     32          6           0        2.007216    1.183104    0.049395
     33          6           0        1.683984   -1.143901   -0.435097
     34          1           0       -0.308964   -1.841399   -0.627806
     35          6           0        2.606173   -0.103548   -0.231915
     36          1           0        2.057735   -2.127746   -0.694243
     37          7           0        0.201085    2.604824    0.411057
     38          7           0        2.680446    2.296416    0.348234
     39         16           0        1.576241    3.471069    0.639978
     40          6           0        4.041508   -0.333222   -0.306556
     41          6           0        4.954675    0.693733   -0.655668
     42          6           0        4.571658   -1.624962   -0.053602
     43          6           0        6.311112    0.430791   -0.757932
     44          1           0        4.586611    1.688520   -0.867984
     45          6           0        5.930515   -1.869088   -0.139749
     46          1           0        3.914115   -2.430187    0.256897
     47          6           0        6.833453   -0.850450   -0.502748
     48          1           0        6.985244    1.230375   -1.053249
     49          1           0        6.310644   -2.863852    0.076570
     50          6           0        8.311037   -1.119757   -0.569568
     51          1           0        8.502290   -2.168680   -0.817334
     52          1           0        8.766450   -0.509227   -1.359841
     53          6           0        9.032704   -0.816002    0.768275
     54          1           0        8.860141    0.242544    1.032508
     55          1           0        8.573748   -1.416803    1.562291
     56          7           0       10.434718   -1.201205    0.664508
     57          1           0       10.950592   -0.535395    0.092050
     58          1           0       10.874310   -1.202390    1.581990
 ---------------------------------------------------------------------
 Rotational constants (GHZ):           0.3683845           0.0395020           0.0363979
 Leave Link  202 at Thu Mar 14 11:41:27 2024, MaxMem= 32212254720 cpu:               0.1 elap:               0.0
 (Enter /home/<user>/g16/l301.exe)
 Standard basis: def2TZVP (5D, 7F)
 Ernie: Thresh=  0.10000D-02 Tol=  0.10000D-05 Strict=F.
 There are  1344 symmetry adapted cartesian basis functions of A   symmetry.
 There are  1179 symmetry adapted basis functions of A   symmetry.
  1179 basis functions,  1901 primitive gaussians,  1344 cartesian basis functions
   118 alpha electrons      117 beta electrons
       nuclear repulsion energy      3079.6587370624 Hartrees.
 IExCor=20419 DFT=T Ex+Corr=CAM-B3LYP ExCW=0 ScaHFX=  1.000000
 ScaDFX=  1.000000  1.000000  1.000000  0.810000 ScalE2=  1.000000  1.000000
 IRadAn=      5 IRanWt=     -1 IRanGd=            0 ICorTp=0 IEmpDi=  4
 HFx  wShort=  0.000000 wLong=  0.330000 cFull=  0.190000 cShort=  0.000000 cLong=  0.460000
 DFx  wShort=  0.000000 wLong=  0.330000 cFull=  0.190000 cShort=  0.000000 cLong=  0.460000
 NAtoms=   58 NActive=   58 NUniq=   58 SFac= 1.00D+00 NAtFMM=   60 NAOKFM=F Big=F
 Integral buffers will be    131072 words long.
 Raffenetti 2 integral format.
 Two-electron integral symmetry is turned on.
 Leave Link  301 at Thu Mar 14 11:41:27 2024, MaxMem= 32212254720 cpu:               0.8 elap:               0.0
 (Enter /home/<user>/g16/l302.exe)
 NPDir=0 NMtPBC=     1 NCelOv=     1 NCel=       1 NClECP=     1 NCelD=      1
         NCelK=      1 NCelE2=     1 NClLst=     1 CellRange=     0.0.
 One-electron integrals computed using PRISM.
 One-electron integral symmetry used in STVInt
   1 Symmetry operations used in ECPInt.
 ECPInt:  NShTT=  108345 NPrTT=  334968 LenC2=   73753 LenP2D=  155081.
 LDataN:  DoStor=T MaxTD1= 6 Len=  172
 NBasis=  1179 RedAO= T EigKep=  4.97D-06  NBF=  1179
 NBsUse=  1179 1.00D-06 EigRej= -1.00D+00 NBFU=  1179
 Precomputing XC quadrature grid using
 IXCGrd= 4 IRadAn=           5 IRanWt=          -1 IRanGd=           0 AccXCQ= 0.00D+00.
 Generated NRdTot=       0 NPtTot=           0 NUsed=           0 NTot=          32
 NSgBfM=  1229  1229  1229  1229  1229 MxSgAt=    58 MxSgA2=    58.
 Leave Link  302 at Thu Mar 14 11:41:29 2024, MaxMem= 32212254720 cpu:              56.7 elap:               1.9
 (Enter /home/<user>/g16/l303.exe)
 DipDrv:  MaxL=1.
 Leave Link  303 at Thu Mar 14 11:41:29 2024, MaxMem= 32212254720 cpu:               4.8 elap:               0.2
 (Enter /home/<user>/g16/l308.exe)
 Leave Link  308 at Thu Mar 14 11:41:29 2024, MaxMem= 32212254720 cpu:               8.7 elap:               0.3
 (Enter /home/<user>/g16/l401.exe)
 ExpMin= 9.52D-02 ExpMax= 6.07D+04 ExpMxC= 2.07D+03 IAcc=3 IRadAn=         5 AccDes= 0.00D+00
 Harris functional with IExCor=20419 and IRadAn=       5 diagonalized for initial guess.
 HarFok:  IExCor=20419 AccDes= 0.00D+00 IRadAn=         5 IDoV= 1 UseB2=F ITyADJ=14
 ICtDFT=  3500011 ScaDFX=  1.000000  1.000000  1.000000  1.000000
 FoFCou: FMM=F IPFlag=           0 FMFlag=      100000 FMFlg1=           0
         NFxFlg=           0 DoJE=T BraDBF=F KetDBF=T FulRan=T
         wScrn=  0.000000 ICntrl=       500 IOpCl=  0 I1Cent=   200000004 NGrid=           0
         NMat0=    1 NMatS0=      1 NMatT0=    0 NMatD0=    1 NMtDS0=    0 NMtDT0=    0
 Petite list used in FoFCou.
 Harris En= -1624.43449733629    
 JPrj=0 DoOrth=F DoCkMO=F.
 Initial guess <Sx>= 0.0000 <Sy>= 0.0000 <Sz>= 0.5000 <S**2>= 0.7500 S= 0.5000
 Leave Link  401 at Thu Mar 14 11:41:33 2024, MaxMem= 32212254720 cpu:             127.5 elap:               4.3
 (Enter /home/<user>/g16/l502.exe)
 Integral symmetry usage will be decided dynamically.
 UHF open shell SCF:
 Using DIIS extrapolation, IDIIS=  1040.
 NGot= 32212254720 LenX= 32208588722 LenY= 32206781042
 Requested convergence on RMS density matrix=1.00D-08 within 128 cycles.
 Requested convergence on MAX density matrix=1.00D-06.
 Requested convergence on             energy=1.00D-06.
 No special actions if energy rises.
 Fock matrices will be formed incrementally for  20 cycles.
 Integral accuracy reduced to 1.0D-05 until final iterations.

 Cycle   1  Pass 0  IDiag  1:
 FoFJK:  IHMeth= 1 ICntrl=       0 DoSepK=T KAlg= 0 I1Cent=           0 FoldK=F
 IRaf=         1 NMat=       1 IRICut=       1 DoRegI=T DoRafI=F ISym2E= 0 IDoP0=0 IntGTp=1.
 FoFCou: FMM=F IPFlag=           0 FMFlag=      100000 FMFlg1=           0
         NFxFlg=           0 DoJE=T BraDBF=F KetDBF=F FulRan=T
         wScrn=  0.000000 ICntrl=       500 IOpCl=  0 I1Cent=           0 NGrid=           0
         NMat0=    1 NMatS0=      1 NMatT0=    0 NMatD0=    1 NMtDS0=    0 NMtDT0=    0
 Symmetry not used in FoFCou.
 E= -1681.56315458350    
 DIIS: error= 5.69D-02 at cycle   1 NSaved=   1.
 NSaved= 1 IEnMin= 1 EnMin= -1681.56315458350     IErMin= 1 ErrMin= 5.69D-02
 ErrMax= 5.69D-02  0.00D+00 EMaxC= 1.00D-01 BMatC= 1.07D+01 BMatP= 1.07D+01
 IDIUse=3 WtCom= 4.31D-01 WtEn= 5.69D-01
 Coeff-Com:  0.100D+01
 Coeff-En:   0.100D+01
 Coeff:      0.100D+01
 Gap=     0.207 Goal=   None    Shift=    0.000
 Gap=     0.263 Goal=   None    Shift=    0.000
 GapD=    0.207 DampG=1.000 DampE=0.500 DampFc=0.5000 IDamp=-1.
 Damping current iteration by 5.00D-01
 RMSDP=1.29D+02 MaxDP=2.07D+04              OVMax= 9.96D-01

 Problem detected with inexpensive integrals.
 Switching to full accuracy and repeating last cycle.
 Cycle   2  Pass 1  IDiag  1:
 E= -1681.56323045522     Delta-E=       -0.000075871721 Rises=F Damp=F
 DIIS: error= 5.69D-02 at cycle   1 NSaved=   1.
 NSaved= 1 IEnMin= 1 EnMin= -1681.56323045522     IErMin= 1 ErrMin= 5.69D-02
 ErrMax= 5.69D-02  0.00D+00 EMaxC= 1.00D-01 BMatC= 1.07D+01 BMatP= 1.07D+01
 IDIUse=3 WtCom= 4.31D-01 WtEn= 5.69D-01
 Coeff-Com:  0.100D+01
 Coeff-En:   0.100D+01
 Coeff:      0.100D+01
 Gap=     0.207 Goal=   None    Shift=    0.000
 Gap=     0.263 Goal=   None    Shift=    0.000
 GapD=    0.207 DampG=1.000 DampE=0.500 DampFc=0.5000 IDamp=-1.
 Damping current iteration by 5.00D-01
 RMSDP=3.58D-03 MaxDP=4.36D-01 DE=-7.59D-05 OVMax= 3.23D-01

 Cycle   3  Pass 1  IDiag  1:
 RMSU=  1.42D-03    CP:  8.32D-01
 E= -1681.79488622334     Delta-E=       -0.231655768122 Rises=F Damp=T
 DIIS: error= 2.93D-02 at cycle   2 NSaved=   2.
 NSaved= 2 IEnMin= 2 EnMin= -1681.79488622334     IErMin= 2 ErrMin= 2.93D-02
 ErrMax= 2.93D-02  0.00D+00 EMaxC= 1.00D-01 BMatC= 2.03D+00 BMatP= 1.07D+01
 IDIUse=3 WtCom= 7.07D-01 WtEn= 2.93D-01
 Coeff-Com: -0.506D+00 0.151D+01
 Coeff-En:   0.000D+00 0.100D+01
 Coeff:     -0.358D+00 0.136D+01
 Gap=     0.203 Goal=   None    Shift=    0.000
 Gap=     0.244 Goal=   None    Shift=    0.000
 GapD=    0.203 DampG=1.000 DampE=0.500 DampFc=0.5000 IDamp=-1.
 Damping current iteration by 5.00D-01
 RMSDP=1.41D-03 MaxDP=1.83D-01 DE=-2.32D-01 OVMax= 4.91D-01

 Cycle   4  Pass 1  IDiag  1:
 RMSU=  5.66D-04    CP:  7.78D-01  1.17D+00
 E= -1681.89883213288     Delta-E=       -0.103945909542 Rises=F Damp=T
 DIIS: error= 1.33D-02 at cycle   3 NSaved=   3.
 NSaved= 3 IEnMin= 3 EnMin= -1681.89883213288     IErMin= 3 ErrMin= 1.33D-02
 ErrMax= 1.33D-02  0.00D+00 EMaxC= 1.00D-01 BMatC= 5.81D-01 BMatP= 2.03D+00
 IDIUse=3 WtCom= 8.67D-01 WtEn= 1.33D-01
 Coeff-Com: -0.320D+00 0.147D+00 0.117D+01
 Coeff-En:   0.000D+00 0.000D+00 0.100D+01
 Coeff:     -0.278D+00 0.127D+00 0.115D+01
 Gap=     0.250 Goal=   None    Shift=    0.000
 Gap=     0.166 Goal=   None    Shift=    0.000
 RMSDP=1.20D-03 MaxDP=1.60D-01 DE=-1.04D-01 OVMax= 2.25D-01

 Cycle   5  Pass 1  IDiag  1:
 RMSU=  4.15D-04    CP:  6.64D-01  1.76D+00  1.23D+00
 E= -1682.09875140247     Delta-E=       -0.199919269586 Rises=F Damp=F
 DIIS: error= 2.86D-03 at cycle   4 NSaved=   4.
 NSaved= 4 IEnMin= 4 EnMin= -1682.09875140247     IErMin= 4 ErrMin= 2.86D-03
 ErrMax= 2.86D-03  0.00D+00 EMaxC= 1.00D-01 BMatC= 5.50D-02 BMatP= 5.81D-01
 IDIUse=3 WtCom= 9.71D-01 WtEn= 2.86D-02
 Coeff-Com: -0.146D+00-0.822D-02 0.670D+00 0.484D+00
 Coeff-En:   0.000D+00 0.000D+00 0.000D+00 0.100D+01
 Coeff:     -0.141D+00-0.799D-02 0.650D+00 0.499D+00
 Gap=     0.162 Goal=   None    Shift=    0.000
 Gap=     0.104 Goal=   None    Shift=    0.000
 RMSDP=1.60D-04 MaxDP=1.05D-02 DE=-2.00D-01 OVMax= 5.46D-02

 Cycle   6  Pass 1  IDiag  1:
 RMSU=  1.33D-04    CP:  6.65D-01  1.76D+00  1.33D+00  8.39D-01
 E= -1682.11305041831     Delta-E=       -0.014299015840 Rises=F Damp=F
 DIIS: error= 8.50D-04 at cycle   5 NSaved=   5.
 NSaved= 5 IEnMin= 5 EnMin= -1682.11305041831     IErMin= 5 ErrMin= 8.50D-04
 ErrMax= 8.50D-04  0.00D+00 EMaxC= 1.00D-01 BMatC= 3.96D-03 BMatP= 5.50D-02
 IDIUse=3 WtCom= 9.91D-01 WtEn= 8.50D-03
 Coeff-Com: -0.276D-01-0.205D-01 0.161D+00 0.230D+00 0.657D+00
 Coeff-En:   0.000D+00 0.000D+00 0.000D+00 0.000D+00 0.100D+01
 Coeff:     -0.274D-01-0.203D-01 0.160D+00 0.228D+00 0.660D+00
 Gap=     0.173 Goal=   None    Shift=    0.000
 Gap=     0.109 Goal=   None    Shift=    0.000
 RMSDP=5.72D-05 MaxDP=4.20D-03 DE=-1.43D-02 OVMax= 1.75D-02

 Cycle   7  Pass 1  IDiag  1:
 RMSU=  4.73D-05    CP:  6.63D-01  1.76D+00  1.35D+00  9.03D-01  9.14D-01
 E= -1682.11455234221     Delta-E=       -0.001501923900 Rises=F Damp=F
 DIIS: error= 5.93D-04 at cycle   6 NSaved=   6.
 NSaved= 6 IEnMin= 6 EnMin= -1682.11455234221     IErMin= 6 ErrMin= 5.93D-04
 ErrMax= 5.93D-04  0.00D+00 EMaxC= 1.00D-01 BMatC= 9.88D-04 BMatP= 3.96D-03
 IDIUse=3 WtCom= 9.94D-01 WtEn= 5.93D-03
 Coeff-Com:  0.127D-01-0.117D-01-0.347D-01 0.284D-01 0.333D+00 0.672D+00
 Coeff-En:   0.000D+00 0.000D+00 0.000D+00 0.000D+00 0.000D+00 0.100D+01
 Coeff:      0.126D-01-0.117D-01-0.345D-01 0.283D-01 0.331D+00 0.674D+00
 Gap=     0.176 Goal=   None    Shift=    0.000
 Gap=     0.111 Goal=   None    Shift=    0.000
 RMSDP=3.41D-05 MaxDP=2.33D-03 DE=-1.50D-03 OVMax= 1.66D-02

 Cycle   8  Pass 1  IDiag  1:
 RMSU=  2.74D-05    CP:  6.62D-01  1.76D+00  1.35D+00  9.15D-01  1.04D+00
                    CP:  1.13D+00
 E= -1682.11505377251     Delta-E=       -0.000501430306 Rises=F Damp=F
 DIIS: error= 2.52D-04 at cycle   7 NSaved=   7.
 NSaved= 7 IEnMin= 7 EnMin= -1682.11505377251     IErMin= 7 ErrMin= 2.52D-04
 ErrMax= 2.52D-04  0.00D+00 EMaxC= 1.00D-01 BMatC= 3.15D-04 BMatP= 9.88D-04
 IDIUse=3 WtCom= 9.97D-01 WtEn= 2.52D-03
 Coeff-Com:  0.101D-01-0.112D-02-0.423D-01-0.376D-01-0.224D-01 0.377D+00
 Coeff-Com:  0.717D+00
 Coeff-En:   0.000D+00 0.000D+00 0.000D+00 0.000D+00 0.000D+00 0.000D+00
 Coeff-En:   0.100D+01
 Coeff:      0.101D-01-0.112D-02-0.422D-01-0.375D-01-0.223D-01 0.376D+00
 Coeff:      0.717D+00
 Gap=     0.178 Goal=   None    Shift=    0.000
 Gap=     0.113 Goal=   None    Shift=    0.000
 RMSDP=1.95D-05 MaxDP=1.87D-03 DE=-5.01D-04 OVMax= 1.06D-02

 Cycle   9  Pass 1  IDiag  1:
 RMSU=  1.37D-05    CP:  6.62D-01  1.76D+00  1.36D+00  9.19D-01  1.03D+00
                    CP:  1.40D+00  1.10D+00
 E= -1682.11526446909     Delta-E=       -0.000210696571 Rises=F Damp=F
 DIIS: error= 1.67D-04 at cycle   8 NSaved=   8.
 NSaved= 8 IEnMin= 8 EnMin= -1682.11526446909     IErMin= 8 ErrMin= 1.67D-04
 ErrMax= 1.67D-04  0.00D+00 EMaxC= 1.00D-01 BMatC= 8.03D-05 BMatP= 3.15D-04
 IDIUse=3 WtCom= 9.98D-01 WtEn= 1.67D-03
 Coeff-Com: -0.117D-03 0.110D-02-0.119D-02-0.160D-01-0.845D-01 0.300D-01
 Coeff-Com:  0.315D+00 0.756D+00
 Coeff-En:   0.000D+00 0.000D+00 0.000D+00 0.000D+00 0.000D+00 0.000D+00
 Coeff-En:   0.000D+00 0.100D+01
 Coeff:     -0.117D-03 0.110D-02-0.119D-02-0.160D-01-0.843D-01 0.299D-01
 Coeff:      0.315D+00 0.756D+00
 Gap=     0.179 Goal=   None    Shift=    0.000
 Gap=     0.114 Goal=   None    Shift=    0.000
 RMSDP=1.22D-05 MaxDP=9.43D-04 DE=-2.11D-04 OVMax= 7.36D-03

 Cycle  10  Pass 1  IDiag  1:
 RMSU=  7.62D-06    CP:  6.63D-01  1.76D+00  1.36D+00  9.19D-01  1.02D+00
                    CP:  1.45D+00  1.35D+00  1.32D+00
 E= -1682.11535082279     Delta-E=       -0.000086353703 Rises=F Damp=F
 DIIS: error= 1.46D-04 at cycle   9 NSaved=   9.
 NSaved= 9 IEnMin= 9 EnMin= -1682.11535082279     IErMin= 9 ErrMin= 1.46D-04
 ErrMax= 1.46D-04  0.00D+00 EMaxC= 1.00D-01 BMatC= 3.81D-05 BMatP= 8.03D-05
 IDIUse=3 WtCom= 9.99D-01 WtEn= 1.46D-03
 Coeff-Com: -0.451D-02-0.308D-03 0.207D-01 0.117D-01-0.334D-01-0.144D+00
 Coeff-Com: -0.164D+00 0.393D+00 0.921D+00
 Coeff-En:   0.000D+00 0.000D+00 0.000D+00 0.000D+00 0.000D+00 0.000D+00
 Coeff-En:   0.000D+00 0.000D+00 0.100D+01
 Coeff:     -0.450D-02-0.308D-03 0.206D-01 0.117D-01-0.334D-01-0.144D+00
 Coeff:     -0.163D+00 0.393D+00 0.921D+00
 Gap=     0.179 Goal=   None    Shift=    0.000
 Gap=     0.114 Goal=   None    Shift=    0.000
 RMSDP=1.21D-05 MaxDP=1.14D-03 DE=-8.64D-05 OVMax= 1.01D-02

 Cycle  11  Pass 1  IDiag  1:
 RMSU=  5.26D-06    CP:  6.63D-01  1.76D+00  1.36D+00  9.17D-01  1.01D+00
                    CP:  1.54D+00  1.51D+00  1.90D+00  1.49D+00
 E= -1682.11541937264     Delta-E=       -0.000068549848 Rises=F Damp=F
 DIIS: error= 8.21D-05 at cycle  10 NSaved=  10.
 NSaved=10 IEnMin=10 EnMin= -1682.11541937264     IErMin=10 ErrMin= 8.21D-05
 ErrMax= 8.21D-05  0.00D+00 EMaxC= 1.00D-01 BMatC= 1.93D-05 BMatP= 3.81D-05
 IDIUse=1 WtCom= 1.00D+00 WtEn= 0.00D+00
 Coeff-Com: -0.310D-02-0.405D-03 0.145D-01 0.145D-01 0.967D-02-0.957D-01
 Coeff-Com: -0.227D+00-0.103D+00 0.527D+00 0.863D+00
 Coeff:     -0.310D-02-0.405D-03 0.145D-01 0.145D-01 0.967D-02-0.957D-01
 Coeff:     -0.227D+00-0.103D+00 0.527D+00 0.863D+00
 Gap=     0.180 Goal=   None    Shift=    0.000
 Gap=     0.115 Goal=   None    Shift=    0.000
 RMSDP=1.01D-05 MaxDP=7.38D-04 DE=-6.85D-05 OVMax= 7.87D-03

 Cycle  12  Pass 1  IDiag  1:
 RMSU=  3.31D-06    CP:  6.63D-01  1.76D+00  1.37D+00  9.16D-01  9.88D-01
                    CP:  1.56D+00  1.63D+00  2.30D+00  2.21D+00  1.43D+00
 E= -1682.11545898317     Delta-E=       -0.000039610535 Rises=F Damp=F
 DIIS: error= 6.71D-05 at cycle  11 NSaved=  11.
 NSaved=11 IEnMin=11 EnMin= -1682.11545898317     IErMin=11 ErrMin= 6.71D-05
 ErrMax= 6.71D-05  0.00D+00 EMaxC= 1.00D-01 BMatC= 7.12D-06 BMatP= 1.93D-05
 IDIUse=1 WtCom= 1.00D+00 WtEn= 0.00D+00
 Coeff-Com:  0.113D-02 0.709D-04-0.520D-02 0.182D-02 0.210D-01 0.425D-01
 Coeff-Com: -0.190D-01-0.300D+00-0.287D+00 0.357D+00 0.119D+01
 Coeff:      0.113D-02 0.709D-04-0.520D-02 0.182D-02 0.210D-01 0.425D-01
 Coeff:     -0.190D-01-0.300D+00-0.287D+00 0.357D+00 0.119D+01
 Gap=     0.180 Goal=   None    Shift=    0.000
 Gap=     0.115 Goal=   None    Shift=    0.000
 RMSDP=1.02D-05 MaxDP=9.02D-04 DE=-3.96D-05 OVMax= 9.12D-03

 Cycle  13  Pass 1  IDiag  1:
 RMSU=  2.16D-06    CP:  6.63D-01  1.76D+00  1.37D+00  9.16D-01  9.73D-01
                    CP:  1.60D+00  1.74D+00  2.69D+00  2.89D+00  2.24D+00
                    CP:  1.89D+00
 E= -1682.11548304364     Delta-E=       -0.000024060466 Rises=F Damp=F
 DIIS: error= 3.55D-05 at cycle  12 NSaved=  12.
 NSaved=12 IEnMin=12 EnMin= -1682.11548304364     IErMin=12 ErrMin= 3.55D-05
 ErrMax= 3.55D-05  0.00D+00 EMaxC= 1.00D-01 BMatC= 2.71D-06 BMatP= 7.12D-06
 IDIUse=1 WtCom= 1.00D+00 WtEn= 0.00D+00
 Coeff-Com:  0.109D-02 0.109D-03-0.507D-02-0.920D-03 0.636D-02 0.442D-01
 Coeff-Com:  0.420D-01-0.107D+00-0.243D+00-0.114D+00 0.532D+00 0.845D+00
 Coeff:      0.109D-02 0.109D-03-0.507D-02-0.920D-03 0.636D-02 0.442D-01
 Coeff:      0.420D-01-0.107D+00-0.243D+00-0.114D+00 0.532D+00 0.845D+00
 Gap=     0.180 Goal=   None    Shift=    0.000
 Gap=     0.115 Goal=   None    Shift=    0.000
 RMSDP=4.48D-06 MaxDP=3.61D-04 DE=-2.41D-05 OVMax= 3.49D-03

 Cycle  14  Pass 1  IDiag  1:
 RMSU=  1.93D-06    CP:  6.63D-01  1.76D+00  1.37D+00  9.17D-01  9.65D-01
                    CP:  1.61D+00  1.77D+00  2.83D+00  3.00D+00  2.58D+00
                    CP:  2.42D+00  1.44D+00
 E= -1682.11548821688     Delta-E=       -0.000005173246 Rises=F Damp=F
 DIIS: error= 1.68D-05 at cycle  13 NSaved=  13.
 NSaved=13 IEnMin=13 EnMin= -1682.11548821688     IErMin=13 ErrMin= 1.68D-05
 ErrMax= 1.68D-05  0.00D+00 EMaxC= 1.00D-01 BMatC= 9.50D-07 BMatP= 2.71D-06
 IDIUse=1 WtCom= 1.00D+00 WtEn= 0.00D+00
 Coeff-Com:  0.173D-05-0.474D-04 0.886D-04 0.987D-04-0.489D-02 0.622D-02
 Coeff-Com:  0.234D-01 0.567D-01 0.465D-02-0.197D+00-0.167D+00 0.400D+00
 Coeff-Com:  0.878D+00
 Coeff:      0.173D-05-0.474D-04 0.886D-04 0.987D-04-0.489D-02 0.622D-02
 Coeff:      0.234D-01 0.567D-01 0.465D-02-0.197D+00-0.167D+00 0.400D+00
 Coeff:      0.878D+00
 Gap=     0.180 Goal=   None    Shift=    0.000
 Gap=     0.115 Goal=   None    Shift=    0.000
 RMSDP=2.27D-06 MaxDP=1.74D-04 DE=-5.17D-06 OVMax= 1.65D-03

 Cycle  15  Pass 1  IDiag  1:
 RMSU=  7.61D-07    CP:  6.63D-01  1.76D+00  1.37D+00  9.17D-01  9.59D-01
                    CP:  1.60D+00  1.78D+00  2.88D+00  3.00D+00  2.72D+00
                    CP:  2.72D+00  1.84D+00  1.54D+00
 E= -1682.11548991922     Delta-E=       -0.000001702334 Rises=F Damp=F
 DIIS: error= 1.26D-05 at cycle  14 NSaved=  14.
 NSaved=14 IEnMin=14 EnMin= -1682.11548991922     IErMin=14 ErrMin= 1.26D-05
 ErrMax= 1.26D-05  0.00D+00 EMaxC= 1.00D-01 BMatC= 3.19D-07 BMatP= 9.50D-07
 IDIUse=1 WtCom= 1.00D+00 WtEn= 0.00D+00
 Coeff-Com: -0.365D-03-0.752D-04 0.180D-02 0.700D-03-0.362D-02-0.134D-01
 Coeff-Com: -0.952D-02 0.467D-01 0.875D-01-0.224D-01-0.212D+00-0.168D+00
 Coeff-Com:  0.292D+00 0.100D+01
 Coeff:     -0.365D-03-0.752D-04 0.180D-02 0.700D-03-0.362D-02-0.134D-01
 Coeff:     -0.952D-02 0.467D-01 0.875D-01-0.224D-01-0.212D+00-0.168D+00
 Coeff:      0.292D+00 0.100D+01
 Gap=     0.180 Goal=   None    Shift=    0.000
 Gap=     0.115 Goal=   None    Shift=    0.000
 RMSDP=1.25D-06 MaxDP=1.02D-04 DE=-1.70D-06 OVMax= 8.69D-04

 Cycle  16  Pass 1  IDiag  1:
 RMSU=  4.83D-07    CP:  6.63D-01  1.76D+00  1.37D+00  9.17D-01  9.57D-01
                    CP:  1.60D+00  1.79D+00  2.91D+00  3.00D+00  2.78D+00
                    CP:  2.85D+00  2.06D+00  1.88D+00  1.37D+00
 E= -1682.11549059214     Delta-E=       -0.000000672921 Rises=F Damp=F
 DIIS: error= 6.49D-06 at cycle  15 NSaved=  15.
 NSaved=15 IEnMin=15 EnMin= -1682.11549059214     IErMin=15 ErrMin= 6.49D-06
 ErrMax= 6.49D-06  0.00D+00 EMaxC= 1.00D-01 BMatC= 1.37D-07 BMatP= 3.19D-07
 IDIUse=1 WtCom= 1.00D+00 WtEn= 0.00D+00
 Coeff-Com: -0.201D-03-0.837D-05 0.914D-03 0.364D-03-0.101D-03-0.924D-02
 Coeff-Com: -0.145D-01-0.464D-02 0.388D-01 0.706D-01-0.155D-01-0.249D+00
 Coeff-Com: -0.240D+00 0.424D+00 0.999D+00
 Coeff:     -0.201D-03-0.837D-05 0.914D-03 0.364D-03-0.101D-03-0.924D-02
 Coeff:     -0.145D-01-0.464D-02 0.388D-01 0.706D-01-0.155D-01-0.249D+00
 Coeff:     -0.240D+00 0.424D+00 0.999D+00
 Gap=     0.180 Goal=   None    Shift=    0.000
 Gap=     0.115 Goal=   None    Shift=    0.000
 RMSDP=8.83D-07 MaxDP=8.28D-05 DE=-6.73D-07 OVMax= 6.21D-04

 Cycle  17  Pass 1  IDiag  1:
 RMSU=  2.74D-07    CP:  6.63D-01  1.76D+00  1.37D+00  9.17D-01  9.55D-01
                    CP:  1.60D+00  1.80D+00  2.93D+00  3.00D+00  2.81D+00
                    CP:  2.93D+00  2.19D+00  2.09D+00  1.80D+00  1.55D+00
 E= -1682.11549090976     Delta-E=       -0.000000317625 Rises=F Damp=F
 DIIS: error= 3.75D-06 at cycle  16 NSaved=  16.
 NSaved=16 IEnMin=16 EnMin= -1682.11549090976     IErMin=16 ErrMin= 3.75D-06
 ErrMax= 3.75D-06  0.00D+00 EMaxC= 1.00D-01 BMatC= 5.35D-08 BMatP= 1.37D-07
 IDIUse=1 WtCom= 1.00D+00 WtEn= 0.00D+00
 Coeff-Com:  0.199D-04 0.250D-04-0.150D-03-0.190D-04 0.102D-02 0.945D-03
 Coeff-Com: -0.269D-02-0.202D-01-0.155D-01 0.340D-01 0.828D-01-0.323D-01
 Coeff-Com: -0.211D+00-0.252D+00 0.404D+00 0.101D+01
 Coeff:      0.199D-04 0.250D-04-0.150D-03-0.190D-04 0.102D-02 0.945D-03
 Coeff:     -0.269D-02-0.202D-01-0.155D-01 0.340D-01 0.828D-01-0.323D-01
 Coeff:     -0.211D+00-0.252D+00 0.404D+00 0.101D+01
 Gap=     0.180 Goal=   None    Shift=    0.000
 Gap=     0.115 Goal=   None    Shift=    0.000
 RMSDP=5.12D-07 MaxDP=4.95D-05 DE=-3.18D-07 OVMax= 3.45D-04

 Cycle  18  Pass 1  IDiag  1:
 RMSU=  1.94D-07    CP:  6.63D-01  1.76D+00  1.37D+00  9.17D-01  9.55D-01
                    CP:  1.60D+00  1.80D+00  2.94D+00  3.00D+00  2.82D+00
                    CP:  2.97D+00  2.24D+00  2.21D+00  2.02D+00  2.11D+00
                    CP:  1.45D+00
 E= -1682.11549102696     Delta-E=       -0.000000117197 Rises=F Damp=F
 DIIS: error= 2.55D-06 at cycle  17 NSaved=  17.
 NSaved=17 IEnMin=17 EnMin= -1682.11549102696     IErMin=17 ErrMin= 2.55D-06
 ErrMax= 2.55D-06  0.00D+00 EMaxC= 1.00D-01 BMatC= 2.04D-08 BMatP= 5.35D-08
 IDIUse=1 WtCom= 1.00D+00 WtEn= 0.00D+00
 Coeff-Com:  0.750D-04-0.222D-05-0.334D-03-0.617D-04 0.601D-03 0.379D-02
 Coeff-Com:  0.324D-02-0.848D-02-0.203D-01-0.116D-01 0.447D-01 0.773D-01
 Coeff-Com: -0.719D-02-0.290D+00-0.186D+00 0.504D+00 0.891D+00
 Coeff:      0.750D-04-0.222D-05-0.334D-03-0.617D-04 0.601D-03 0.379D-02
 Coeff:      0.324D-02-0.848D-02-0.203D-01-0.116D-01 0.447D-01 0.773D-01
 Coeff:     -0.719D-02-0.290D+00-0.186D+00 0.504D+00 0.891D+00
 Gap=     0.180 Goal=   None    Shift=    0.000
 Gap=     0.115 Goal=   None    Shift=    0.000
 RMSDP=3.33D-07 MaxDP=3.02D-05 DE=-1.17D-07 OVMax= 2.24D-04

 Cycle  19  Pass 1  IDiag  1:
 RMSU=  1.12D-07    CP:  6.63D-01  1.76D+00  1.37D+00  9.17D-01  9.54D-01
                    CP:  1.60D+00  1.80D+00  2.95D+00  3.00D+00  2.84D+00
                    CP:  2.99D+00  2.27D+00  2.27D+00  2.14D+00  2.33D+00
                    CP:  1.94D+00  1.39D+00
 E= -1682.11549106405     Delta-E=       -0.000000037094 Rises=F Damp=F
 DIIS: error= 1.35D-06 at cycle  18 NSaved=  18.
 NSaved=18 IEnMin=18 EnMin= -1682.11549106405     IErMin=18 ErrMin= 1.35D-06
 ErrMax= 1.35D-06  0.00D+00 EMaxC= 1.00D-01 BMatC= 4.93D-09 BMatP= 2.04D-08
 IDIUse=1 WtCom= 1.00D+00 WtEn= 0.00D+00
 Coeff-Com:  0.812D-05-0.232D-04 0.138D-04 0.372D-04-0.102D-03 0.742D-03
 Coeff-Com:  0.133D-02 0.358D-02 0.695D-03-0.137D-01-0.116D-01 0.320D-01
 Coeff-Com:  0.672D-01-0.196D-01-0.187D+00-0.145D+00 0.285D+00 0.986D+00
 Coeff:      0.812D-05-0.232D-04 0.138D-04 0.372D-04-0.102D-03 0.742D-03
 Coeff:      0.133D-02 0.358D-02 0.695D-03-0.137D-01-0.116D-01 0.320D-01
 Coeff:      0.672D-01-0.196D-01-0.187D+00-0.145D+00 0.285D+00 0.986D+00
 Gap=     0.180 Goal=   None    Shift=    0.000
 Gap=     0.115 Goal=   None    Shift=    0.000
 RMSDP=1.40D-07 MaxDP=1.32D-05 DE=-3.71D-08 OVMax= 7.76D-05

 Cycle  20  Pass 1  IDiag  1:
 RMSU=  5.52D-08    CP:  6.63D-01  1.76D+00  1.37D+00  9.17D-01  9.54D-01
                    CP:  1.60D+00  1.80D+00  2.95D+00  3.00D+00  2.84D+00
                    CP:  3.00D+00  2.28D+00  2.29D+00  2.17D+00  2.44D+00
                    CP:  2.13D+00  1.74D+00  1.40D+00
 E= -1682.11549107320     Delta-E=       -0.000000009144 Rises=F Damp=F
 DIIS: error= 7.46D-07 at cycle  19 NSaved=  19.
 NSaved=19 IEnMin=19 EnMin= -1682.11549107320     IErMin=19 ErrMin= 7.46D-07
 ErrMax= 7.46D-07  0.00D+00 EMaxC= 1.00D-01 BMatC= 1.66D-09 BMatP= 4.93D-09
 IDIUse=1 WtCom= 1.00D+00 WtEn= 0.00D+00
 Coeff-Com: -0.214D-04-0.108D-04 0.119D-03 0.428D-04-0.223D-03-0.907D-03
 Coeff-Com: -0.581D-03 0.369D-02 0.677D-02-0.204D-02-0.175D-01-0.121D-01
 Coeff-Com:  0.286D-01 0.748D-01-0.131D-01-0.187D+00-0.164D+00 0.381D+00
 Coeff-Com:  0.902D+00
 Coeff:     -0.214D-04-0.108D-04 0.119D-03 0.428D-04-0.223D-03-0.907D-03
 Coeff:     -0.581D-03 0.369D-02 0.677D-02-0.204D-02-0.175D-01-0.121D-01
 Coeff:      0.286D-01 0.748D-01-0.131D-01-0.187D+00-0.164D+00 0.381D+00
 Coeff:      0.902D+00
 Gap=     0.180 Goal=   None    Shift=    0.000
 Gap=     0.115 Goal=   None    Shift=    0.000
 RMSDP=7.63D-08 MaxDP=5.91D-06 DE=-9.14D-09 OVMax= 4.66D-05

 Cycle  21  Pass 1  IDiag  1:
 RMSU=  3.52D-08    CP:  6.63D-01  1.76D+00  1.37D+00  9.17D-01  9.54D-01
                    CP:  1.60D+00  1.80D+00  2.95D+00  3.00D+00  2.84D+00
                    CP:  3.00D+00  2.28D+00  2.30D+00  2.18D+00  2.45D+00
                    CP:  2.21D+00  1.86D+00  1.70D+00  1.37D+00
 E= -1682.11549107580     Delta-E=       -0.000000002608 Rises=F Damp=F
 DIIS: error= 4.97D-07 at cycle  20 NSaved=  20.
 NSaved=20 IEnMin=20 EnMin= -1682.11549107580     IErMin=20 ErrMin= 4.97D-07
 ErrMax= 4.97D-07  0.00D+00 EMaxC= 1.00D-01 BMatC= 4.26D-10 BMatP= 1.66D-09
 IDIUse=1 WtCom= 1.00D+00 WtEn= 0.00D+00
 Coeff-Com: -0.898D-05 0.659D-05 0.264D-04 0.443D-05-0.460D-04-0.397D-03
 Coeff-Com: -0.424D-03-0.320D-03 0.143D-02 0.322D-02 0.242D-03-0.124D-01
 Coeff-Com: -0.125D-01 0.222D-01 0.488D-01 0.160D-02-0.128D+00-0.181D+00
 Coeff-Com:  0.157D+00 0.110D+01
 Coeff:     -0.898D-05 0.659D-05 0.264D-04 0.443D-05-0.460D-04-0.397D-03
 Coeff:     -0.424D-03-0.320D-03 0.143D-02 0.322D-02 0.242D-03-0.124D-01
 Coeff:     -0.125D-01 0.222D-01 0.488D-01 0.160D-02-0.128D+00-0.181D+00
 Coeff:      0.157D+00 0.110D+01
 Gap=     0.180 Goal=   None    Shift=    0.000
 Gap=     0.115 Goal=   None    Shift=    0.000
 RMSDP=4.51D-08 MaxDP=4.36D-06 DE=-2.61D-09 OVMax= 3.72D-05

 Cycle  22  Pass 1  IDiag  1:
 Restarting incremental Fock formation.
 E= -1682.11549107690     Delta-E=       -0.000000001091 Rises=F Damp=F
 DIIS: error= 2.86D-07 at cycle  21 NSaved=  20.
 NSaved=20 IEnMin=20 EnMin= -1682.11549107690     IErMin=20 ErrMin= 2.86D-07
 ErrMax= 2.86D-07  0.00D+00 EMaxC= 1.00D-01 BMatC= 2.07D-10 BMatP= 4.26D-10
 IDIUse=1 WtCom= 1.00D+00 WtEn= 0.00D+00
 Coeff-Com:  0.603D-05-0.126D-04 0.288D-06 0.218D-04 0.690D-04-0.657D-04
 Coeff-Com: -0.113D-02-0.106D-02 0.159D-02 0.489D-02-0.203D-02-0.125D-01
 Coeff-Com: -0.126D-01 0.220D-01 0.581D-01-0.509D-02-0.175D+00-0.251D+00
 Coeff-Com:  0.411D+00 0.963D+00
 Coeff:      0.603D-05-0.126D-04 0.288D-06 0.218D-04 0.690D-04-0.657D-04
 Coeff:     -0.113D-02-0.106D-02 0.159D-02 0.489D-02-0.203D-02-0.125D-01
 Coeff:     -0.126D-01 0.220D-01 0.581D-01-0.509D-02-0.175D+00-0.251D+00
 Coeff:      0.411D+00 0.963D+00
 Gap=     0.180 Goal=   None    Shift=    0.000
 Gap=     0.115 Goal=   None    Shift=    0.000
 RMSDP=3.63D-08 MaxDP=3.09D-06 DE=-1.09D-09 OVMax= 3.06D-05

 Cycle  23  Pass 1  IDiag  1:
 RMSU=  3.63D-08    CP:  1.00D+00
 E= -1682.11549107750     Delta-E=       -0.000000000599 Rises=F Damp=F
 DIIS: error= 1.77D-07 at cycle  22 NSaved=  20.
 NSaved=20 IEnMin=20 EnMin= -1682.11549107750     IErMin=20 ErrMin= 1.77D-07
 ErrMax= 1.77D-07  0.00D+00 EMaxC= 1.00D-01 BMatC= 6.61D-11 BMatP= 2.07D-10
 IDIUse=1 WtCom= 1.00D+00 WtEn= 0.00D+00
 Coeff-Com:  0.178D-06 0.704D-05 0.431D-05 0.119D-03 0.540D-04-0.216D-03
 Coeff-Com: -0.530D-03-0.595D-03 0.145D-02 0.297D-02 0.679D-03-0.121D-01
 Coeff-Com: -0.105D-01 0.200D-01 0.399D-01 0.206D-01-0.143D+00-0.282D+00
 Coeff-Com:  0.220D+00 0.114D+01
 Coeff:      0.178D-06 0.704D-05 0.431D-05 0.119D-03 0.540D-04-0.216D-03
 Coeff:     -0.530D-03-0.595D-03 0.145D-02 0.297D-02 0.679D-03-0.121D-01
 Coeff:     -0.105D-01 0.200D-01 0.399D-01 0.206D-01-0.143D+00-0.282D+00
 Coeff:      0.220D+00 0.114D+01
 Gap=     0.180 Goal=   None    Shift=    0.000
 Gap=     0.115 Goal=   None    Shift=    0.000
 RMSDP=2.69D-08 MaxDP=2.36D-06 DE=-5.99D-10 OVMax= 2.39D-05

 Cycle  24  Pass 1  IDiag  1:
 RMSU=  9.47D-09    CP:  1.00D+00  1.69D+00
 E= -1682.11549107773     Delta-E=       -0.000000000233 Rises=F Damp=F
 DIIS: error= 9.47D-08 at cycle  23 NSaved=  20.
 NSaved=20 IEnMin=20 EnMin= -1682.11549107773     IErMin=20 ErrMin= 9.47D-08
 ErrMax= 9.47D-08  0.00D+00 EMaxC= 1.00D-01 BMatC= 2.13D-11 BMatP= 6.61D-11
 IDIUse=1 WtCom= 1.00D+00 WtEn= 0.00D+00
 Coeff-Com: -0.841D-06-0.200D-05 0.191D-04 0.341D-04 0.920D-04 0.124D-03
 Coeff-Com: -0.322D-03-0.530D-03 0.478D-03 0.254D-02 0.960D-03-0.466D-02
 Coeff-Com: -0.844D-02-0.115D-02 0.436D-01 0.534D-01-0.125D+00-0.305D+00
 Coeff-Com:  0.148D+00 0.120D+01
 Coeff:     -0.841D-06-0.200D-05 0.191D-04 0.341D-04 0.920D-04 0.124D-03
 Coeff:     -0.322D-03-0.530D-03 0.478D-03 0.254D-02 0.960D-03-0.466D-02
 Coeff:     -0.844D-02-0.115D-02 0.436D-01 0.534D-01-0.125D+00-0.305D+00
 Coeff:      0.148D+00 0.120D+01
 Gap=     0.180 Goal=   None    Shift=    0.000
 Gap=     0.115 Goal=   None    Shift=    0.000
 RMSDP=1.66D-08 MaxDP=1.48D-06 DE=-2.33D-10 OVMax= 1.55D-05

 Cycle  25  Pass 1  IDiag  1:
 RMSU=  5.87D-09    CP:  1.00D+00  2.10D+00  1.53D+00
 E= -1682.11549107779     Delta-E=       -0.000000000060 Rises=F Damp=F
 DIIS: error= 4.54D-08 at cycle  24 NSaved=  20.
 NSaved=20 IEnMin=20 EnMin= -1682.11549107779     IErMin=20 ErrMin= 4.54D-08
 ErrMax= 4.54D-08  0.00D+00 EMaxC= 1.00D-01 BMatC= 8.24D-12 BMatP= 2.13D-11
 IDIUse=1 WtCom= 1.00D+00 WtEn= 0.00D+00
 Coeff-Com:  0.353D-05-0.124D-04 0.444D-05 0.910D-04 0.228D-03-0.727D-04
 Coeff-Com: -0.716D-03-0.466D-03 0.157D-02 0.363D-02-0.566D-03-0.104D-01
 Coeff-Com: -0.110D-01 0.226D-01 0.698D-01 0.894D-02-0.229D+00-0.275D+00
 Coeff-Com:  0.563D+00 0.857D+00
 Coeff:      0.353D-05-0.124D-04 0.444D-05 0.910D-04 0.228D-03-0.727D-04
 Coeff:     -0.716D-03-0.466D-03 0.157D-02 0.363D-02-0.566D-03-0.104D-01
 Coeff:     -0.110D-01 0.226D-01 0.698D-01 0.894D-02-0.229D+00-0.275D+00
 Coeff:      0.563D+00 0.857D+00
 Gap=     0.180 Goal=   None    Shift=    0.000
 Gap=     0.115 Goal=   None    Shift=    0.000
 RMSDP=9.14D-09 MaxDP=6.98D-07 DE=-6.00D-11 OVMax= 8.02D-06

 SCF Done:  E(UCAM-B3LYP) =  -1682.11549108     A.U. after   25 cycles
            NFock= 25  Conv=0.91D-08     -V/T= 2.0044
 <Sx>= 0.0000 <Sy>= 0.0000 <Sz>= 0.5000 <S**2>= 0.8076 S= 0.5284
 <L.S>= 0.000000000000E+00
 KE= 1.674730417491D+03 PE=-1.006120553622D+04 EE= 3.624700890592D+03
 Annihilation of the first spin contaminant:
 S**2 before annihilation     0.8076,   after     0.7523
 Leave Link  502 at Thu Mar 14 11:59:54 2024, MaxMem= 32212254720 cpu:           33012.4 elap:            1100.9
 (Enter /home/<user>/g16/l801.exe)
 DoSCS=F DFT=T ScalE2(SS,OS)=  1.000000  1.000000
 ExpMin= 9.52D-02 ExpMax= 6.07D+04 ExpMxC= 2.07D+03 IAcc=3 IRadAn=         5 AccDes= 0.00D+00
 HarFok:  IExCor=  205 AccDes= 0.00D+00 IRadAn=         5 IDoV=-2 UseB2=F ITyADJ=14
 ICtDFT= 12500011 ScaDFX=  1.000000  1.000000  1.000000  1.000000
 GSVD:  LWork=       -1665 too small for GESVD, short by        7400 words or        7400 for optimal perf.
 Largest valence mixing into a core orbital is  7.25D-05
 Largest core mixing into a valence orbital is  1.58D-05
 Largest valence mixing into a core orbital is  7.24D-05
 Largest core mixing into a valence orbital is  1.58D-05
 Range of M.O.s used for correlation:    38  1179
 NBasis=  1179 NAE=   118 NBE=   117 NFC=    37 NFV=     0
 NROrb=   1142 NOA=    81 NOB=    80 NVA=  1061 NVB=  1062

 **** Warning!!: The largest alpha MO coefficient is  0.56438410D+02


 **** Warning!!: The largest beta MO coefficient is  0.55925622D+02

 Leave Link  801 at Thu Mar 14 11:59:55 2024, MaxMem= 32212254720 cpu:              14.1 elap:               0.5
 (Enter /home/<user>/g16/l914.exe)
 UHF ground state
 Two-electron integrals replicated using symmetry.
 MDV= 32212254720 DFT=T DoStab=F Mixed=T DoRPA=T DoScal=F NonHer=T
 Making orbital integer symmetry assigments:
 Orbital symmetries:
 Alpha Orbitals:
       Occupied  (A) (A) (A) (A) (A) (A) (A) (A) (A) (A) (A) (A)
                 (A) (A) (A) (A) (A) (A) (A) (A) (A) (A) (A) (A)
                 (A) (A) (A) (A) (A) (A) (A) (A) (A) (A) (A) (A)
                 (A) (A) (A) (A) (A) (A) (A) (A) (A) (A) (A) (A)
                 (A) (A) (A) (A) (A) (A) (A) (A) (A) (A) (A) (A)
                 (A) (A) (A) (A) (A) (A) (A) (A) (A) (A) (A) (A)
                 (A) (A) (A) (A) (A) (A) (A) (A) (A) (A) (A) (A)
                 (A) (A) (A) (A) (A) (A) (A) (A) (A) (A) (A) (A)
                 (A) (A) (A) (A) (A) (A) (A) (A) (A) (A) (A) (A)
                 (A) (A) (A) (A) (A) (A) (A) (A) (A) (A)
       Virtual   (A) (A) (A) (A) (A) (A) (A) (A) (A) (A) (A) (A)
                 (A) (A) (A) (A) (A) (A) (A) (A) (A) (A) (A) (A)
                 (A) (A) (A) (A) (A) (A) (A) (A) (A) (A) (A) (A)
                 (A) (A) (A) (A) (A) (A) (A) (A) (A) (A) (A) (A)
                 (A) (A) (A) (A) (A) (A) (A) (A) (A) (A) (A) (A)
                 (A) (A) (A) (A) (A) (A) (A) (A) (A) (A) (A) (A)
                 (A) (A) (A) (A) (A) (A) (A) (A) (A) (A) (A) (A)
                 (A) (A) (A) (A) (A) (A) (A) (A) (A) (A) (A) (A)
                 (A) (A) (A) (A) (A) (A) (A) (A) (A) (A) (A) (A)
                 (A) (A) (A) (A) (A) (A) (A) (A) (A) (A) (A) (A)
                 (A) (A) (A) (A) (A) (A) (A) (A) (A) (A) (A) (A)
                 (A) (A) (A) (A) (A) (A) (A) (A) (A) (A) (A) (A)
                 (A) (A) (A) (A) (A) (A) (A) (A) (A) (A) (A) (A)
                 (A) (A) (A) (A) (A) (A) (A) (A) (A) (A) (A) (A)
                 (A) (A) (A) (A) (A) (A) (A) (A) (A) (A) (A) (A)
                 (A) (A) (A) (A) (A) (A) (A) (A) (A) (A) (A) (A)
                 (A) (A) (A) (A) (A) (A) (A) (A) (A) (A) (A) (A)
                 (A) (A) (A) (A) (A) (A) (A) (A) (A) (A) (A) (A)
                 (A) (A) (A) (A) (A) (A) (A) (A) (A) (A) (A) (A)
                 (A) (A) (A) (A) (A) (A) (A) (A) (A) (A) (A) (A)
                 (A) (A) (A) (A) (A) (A) (A) (A) (A) (A) (A) (A)
                 (A) (A) (A) (A) (A) (A) (A) (A) (A) (A) (A) (A)
                 (A) (A) (A) (A) (A) (A) (A) (A) (A) (A) (A) (A)
                 (A) (A) (A) (A) (A) (A) (A) (A) (A) (A) (A) (A)
                 (A) (A) (A) (A) (A) (A) (A) (A) (A) (A) (A) (A)
                 (A) (A) (A) (A) (A) (A) (A) (A) (A) (A) (A) (A)
                 (A) (A) (A) (A) (A) (A) (A) (A) (A) (A) (A) (A)
                 (A) (A) (A) (A) (A) (A) (A) (A) (A) (A) (A) (A)
                 (A) (A) (A) (A) (A) (A) (A) (A) (A) (A) (A) (A)
                 (A) (A) (A) (A) (A) (A) (A) (A) (A) (A) (A) (A)
                 (A) (A) (A) (A) (A) (A) (A) (A) (A) (A) (A) (A)
                 (A) (A) (A) (A) (A) (A) (A) (A) (A) (A) (A) (A)
                 (A) (A) (A) (A) (A) (A) (A) (A) (A) (A) (A) (A)
                 (A) (A) (A) (A) (A) (A) (A) (A) (A) (A) (A) (A)
                 (A) (A) (A) (A) (A) (A) (A) (A) (A) (A) (A) (A)
                 (A) (A) (A) (A) (A) (A) (A) (A) (A) (A) (A) (A)
                 (A) (A) (A) (A) (A) (A) (A) (A) (A) (A) (A) (A)
                 (A) (A) (A) (A) (A) (A) (A) (A) (A) (A) (A) (A)
                 (A) (A) (A) (A) (A) (A) (A) (A) (A) (A) (A) (A)
                 (A) (A) (A) (A) (A) (A) (A) (A) (A) (A) (A) (A)
                 (A) (A) (A) (A) (A) (A) (A) (A) (A) (A) (A) (A)
                 (A) (A) (A) (A) (A) (A) (A) (A) (A) (A) (A) (A)
                 (A) (A) (A) (A) (A) (A) (A) (A) (A) (A) (A) (A)
                 (A) (A) (A) (A) (A) (A) (A) (A) (A) (A) (A) (A)
                 (A) (A) (A) (A) (A) (A) (A) (A) (A) (A) (A) (A)
                 (A) (A) (A) (A) (A) (A) (A) (A) (A) (A) (A) (A)
                 (A) (A) (A) (A) (A) (A) (A) (A) (A) (A) (A) (A)
                 (A) (A) (A) (A) (A) (A) (A) (A) (A) (A) (A) (A)
                 (A) (A) (A) (A) (A) (A) (A) (A) (A) (A) (A) (A)
                 (A) (A) (A) (A) (A) (A) (A) (A) (A) (A) (A) (A)
                 (A) (A) (A) (A) (A) (A) (A) (A) (A) (A) (A) (A)
                 (A) (A) (A) (A) (A) (A) (A) (A) (A) (A) (A) (A)
                 (A) (A) (A) (A) (A) (A) (A) (A) (A) (A) (A) (A)
                 (A) (A) (A) (A) (A) (A) (A) (A) (A) (A) (A) (A)
                 (A) (A) (A) (A) (A) (A) (A) (A) (A) (A) (A) (A)
                 (A) (A) (A) (A) (A) (A) (A) (A) (A) (A) (A) (A)
                 (A) (A) (A) (A) (A) (A) (A) (A) (A) (A) (A) (A)
                 (A) (A) (A) (A) (A) (A) (A) (A) (A) (A) (A) (A)
                 (A) (A) (A) (A) (A) (A) (A) (A) (A) (A) (A) (A)
                 (A) (A) (A) (A) (A) (A) (A) (A) (A) (A) (A) (A)
                 (A) (A) (A) (A) (A) (A) (A) (A) (A) (A) (A) (A)
                 (A) (A) (A) (A) (A) (A) (A) (A) (A) (A) (A) (A)
                 (A) (A) (A) (A) (A) (A) (A) (A) (A) (A) (A) (A)
                 (A) (A) (A) (A) (A) (A) (A) (A) (A) (A) (A) (A)
                 (A) (A) (A) (A) (A) (A) (A) (A) (A) (A) (A) (A)
                 (A) (A) (A) (A) (A) (A) (A) (A) (A) (A) (A) (A)
                 (A) (A) (A) (A) (A) (A) (A) (A) (A) (A) (A) (A)
                 (A) (A) (A) (A) (A) (A) (A) (A) (A) (A) (A) (A)
                 (A) (A) (A) (A) (A) (A) (A) (A) (A) (A) (A) (A)
                 (A) (A) (A) (A) (A) (A) (A) (A) (A) (A) (A) (A)
                 (A) (A) (A) (A) (A) (A) (A) (A) (A) (A) (A) (A)
                 (A) (A) (A) (A) (A) (A) (A) (A) (A) (A) (A) (A)
                 (A) (A) (A) (A) (A) (A) (A) (A) (A) (A) (A) (A)
                 (A) (A) (A) (A) (A) (A) (A) (A) (A) (A) (A) (A)
                 (A) (A) (A) (A) (A) (A) (A) (A) (A) (A) (A) (A)
                 (A) (A) (A) (A) (A) (A) (A) (A) (A) (A) (A) (A)
                 (A) (A) (A) (A) (A) (A) (A) (A) (A) (A) (A) (A)
                 (A) (A) (A) (A) (A) (A) (A) (A) (A) (A) (A) (A)
                 (A) (A) (A) (A) (A) (A) (A) (A) (A) (A) (A) (A)
                 (A) (A) (A) (A) (A) (A) (A) (A) (A) (A) (A) (A)
                 (A) (A) (A) (A) (A) (A) (A) (A) (A) (A) (A) (A)
                 (A) (A) (A) (A) (A) (A) (A) (A) (A) (A) (A) (A)
                 (A) (A) (A) (A) (A) (A) (A) (A) (A) (A) (A) (A)
                 (A) (A) (A) (A) (A) (A) (A) (A) (A) (A) (A) (A)
                 (A) (A) (A) (A) (A) (A) (A) (A) (A) (A) (A) (A)
                 (A) (A) (A) (A) (A) (A) (A) (A) (A) (A) (A) (A)
                 (A) (A) (A) (A) (A) (A) (A) (A) (A) (A) (A) (A)
                 (A) (A) (A) (A) (A) (A) (A) (A) (A) (A) (A) (A)
                 (A) (A) (A) (A) (A)
 Beta  Orbitals:
       Occupied  (A) (A) (A) (A) (A) (A) (A) (A) (A) (A) (A) (A)
                 (A) (A) (A) (A) (A) (A) (A) (A) (A) (A) (A) (A)
                 (A) (A) (A) (A) (A) (A) (A) (A) (A) (A) (A) (A)
                 (A) (A) (A) (A) (A) (A) (A) (A) (A) (A) (A) (A)
                 (A) (A) (A) (A) (A) (A) (A) (A) (A) (A) (A) (A)
                 (A) (A) (A) (A) (A) (A) (A) (A) (A) (A) (A) (A)
                 (A) (A) (A) (A) (A) (A) (A) (A) (A) (A) (A) (A)
                 (A) (A) (A) (A) (A) (A) (A) (A) (A) (A) (A) (A)
                 (A) (A) (A) (A) (A) (A) (A) (A) (A) (A) (A) (A)
                 (A) (A) (A) (A) (A) (A) (A) (A) (A)
       Virtual   (A) (A) (A) (A) (A) (A) (A) (A) (A) (A) (A) (A)
                 (A) (A) (A) (A) (A) (A) (A) (A) (A) (A) (A) (A)
                 (A) (A) (A) (A) (A) (A) (A) (A) (A) (A) (A) (A)
                 (A) (A) (A) (A) (A) (A) (A) (A) (A) (A) (A) (A)
                 (A) (A) (A) (A) (A) (A) (A) (A) (A) (A) (A) (A)
                 (A) (A) (A) (A) (A) (A) (A) (A) (A) (A) (A) (A)
                 (A) (A) (A) (A) (A) (A) (A) (A) (A) (A) (A) (A)
                 (A) (A) (A) (A) (A) (A) (A) (A) (A) (A) (A) (A)
                 (A) (A) (A) (A) (A) (A) (A) (A) (A) (A) (A) (A)
                 (A) (A) (A) (A) (A) (A) (A) (A) (A) (A) (A) (A)
                 (A) (A) (A) (A) (A) (A) (A) (A) (A) (A) (A) (A)
                 (A) (A) (A) (A) (A) (A) (A) (A) (A) (A) (A) (A)
                 (A) (A) (A) (A) (A) (A) (A) (A) (A) (A) (A) (A)
                 (A) (A) (A) (A) (A) (A) (A) (A) (A) (A) (A) (A)
                 (A) (A) (A) (A) (A) (A) (A) (A) (A) (A) (A) (A)
                 (A) (A) (A) (A) (A) (A) (A) (A) (A) (A) (A) (A)
                 (A) (A) (A) (A) (A) (A) (A) (A) (A) (A) (A) (A)
                 (A) (A) (A) (A) (A) (A) (A) (A) (A) (A) (A) (A)
                 (A) (A) (A) (A) (A) (A) (A) (A) (A) (A) (A) (A)
                 (A) (A) (A) (A) (A) (A) (A) (A) (A) (A) (A) (A)
                 (A) (A) (A) (A) (A) (A) (A) (A) (A) (A) (A) (A)
                 (A) (A) (A) (A) (A) (A) (A) (A) (A) (A) (A) (A)
                 (A) (A) (A) (A) (A) (A) (A) (A) (A) (A) (A) (A)
                 (A) (A) (A) (A) (A) (A) (A) (A) (A) (A) (A) (A)
                 (A) (A) (A) (A) (A) (A) (A) (A) (A) (A) (A) (A)
                 (A) (A) (A) (A) (A) (A) (A) (A) (A) (A) (A) (A)
                 (A) (A) (A) (A) (A) (A) (A) (A) (A) (A) (A) (A)
                 (A) (A) (A) (A) (A) (A) (A) (A) (A) (A) (A) (A)
                 (A) (A) (A) (A) (A) (A) (A) (A) (A) (A) (A) (A)
                 (A) (A) (A) (A) (A) (A) (A) (A) (A) (A) (A) (A)
                 (A) (A) (A) (A) (A) (A) (A) (A) (A) (A) (A) (A)
                 (A) (A) (A) (A) (A) (A) (A) (A) (A) (A) (A) (A)
                 (A) (A) (A) (A) (A) (A) (A) (A) (A) (A) (A) (A)
                 (A) (A) (A) (A) (A) (A) (A) (A) (A) (A) (A) (A)
                 (A) (A) (A) (A) (A) (A) (A) (A) (A) (A) (A) (A)
                 (A) (A) (A) (A) (A) (A) (A) (A) (A) (A) (A) (A)
                 (A) (A) (A) (A) (A) (A) (A) (A) (A) (A) (A) (A)
                 (A) (A) (A) (A) (A) (A) (A) (A) (A) (A) (A) (A)
                 (A) (A) (A) (A) (A) (A) (A) (A) (A) (A) (A) (A)
                 (A) (A) (A) (A) (A) (A) (A) (A) (A) (A) (A) (A)
                 (A) (A) (A) (A) (A) (A) (A) (A) (A) (A) (A) (A)
                 (A) (A) (A) (A) (A) (A) (A) (A) (A) (A) (A) (A)
                 (A) (A) (A) (A) (A) (A) (A) (A) (A) (A) (A) (A)
                 (A) (A) (A) (A) (A) (A) (A) (A) (A) (A) (A) (A)
                 (A) (A) (A) (A) (A) (A) (A) (A) (A) (A) (A) (A)
                 (A) (A) (A) (A) (A) (A) (A) (A) (A) (A) (A) (A)
                 (A) (A) (A) (A) (A) (A) (A) (A) (A) (A) (A) (A)
                 (A) (A) (A) (A) (A) (A) (A) (A) (A) (A) (A) (A)
                 (A) (A) (A) (A) (A) (A) (A) (A) (A) (A) (A) (A)
                 (A) (A) (A) (A) (A) (A) (A) (A) (A) (A) (A) (A)
                 (A) (A) (A) (A) (A) (A) (A) (A) (A) (A) (A) (A)
                 (A) (A) (A) (A) (A) (A) (A) (A) (A) (A) (A) (A)
                 (A) (A) (A) (A) (A) (A) (A) (A) (A) (A) (A) (A)
                 (A) (A) (A) (A) (A) (A) (A) (A) (A) (A) (A) (A)
                 (A) (A) (A) (A) (A) (A) (A) (A) (A) (A) (A) (A)
                 (A) (A) (A) (A) (A) (A) (A) (A) (A) (A) (A) (A)
                 (A) (A) (A) (A) (A) (A) (A) (A) (A) (A) (A) (A)
                 (A) (A) (A) (A) (A) (A) (A) (A) (A) (A) (A) (A)
                 (A) (A) (A) (A) (A) (A) (A) (A) (A) (A) (A) (A)
                 (A) (A) (A) (A) (A) (A) (A) (A) (A) (A) (A) (A)
                 (A) (A) (A) (A) (A) (A) (A) (A) (A) (A) (A) (A)
                 (A) (A) (A) (A) (A) (A) (A) (A) (A) (A) (A) (A)
                 (A) (A) (A) (A) (A) (A) (A) (A) (A) (A) (A) (A)
                 (A) (A) (A) (A) (A) (A) (A) (A) (A) (A) (A) (A)
                 (A) (A) (A) (A) (A) (A) (A) (A) (A) (A) (A) (A)
                 (A) (A) (A) (A) (A) (A) (A) (A) (A) (A) (A) (A)
                 (A) (A) (A) (A) (A) (A) (A) (A) (A) (A) (A) (A)
                 (A) (A) (A) (A) (A) (A) (A) (A) (A) (A) (A) (A)
                 (A) (A) (A) (A) (A) (A) (A) (A) (A) (A) (A) (A)
                 (A) (A) (A) (A) (A) (A) (A) (A) (A) (A) (A) (A)
                 (A) (A) (A) (A) (A) (A) (A) (A) (A) (A) (A) (A)
                 (A) (A) (A) (A) (A) (A) (A) (A) (A) (A) (A) (A)
                 (A) (A) (A) (A) (A) (A) (A) (A) (A) (A) (A) (A)
                 (A) (A) (A) (A) (A) (A) (A) (A) (A) (A) (A) (A)
                 (A) (A) (A) (A) (A) (A) (A) (A) (A) (A) (A) (A)
                 (A) (A) (A) (A) (A) (A) (A) (A) (A) (A) (A) (A)
                 (A) (A) (A) (A) (A) (A) (A) (A) (A) (A) (A) (A)
                 (A) (A) (A) (A) (A) (A) (A) (A) (A) (A) (A) (A)
                 (A) (A) (A) (A) (A) (A) (A) (A) (A) (A) (A) (A)
                 (A) (A) (A) (A) (A) (A) (A) (A) (A) (A) (A) (A)
                 (A) (A) (A) (A) (A) (A) (A) (A) (A) (A) (A) (A)
                 (A) (A) (A) (A) (A) (A) (A) (A) (A) (A) (A) (A)
                 (A) (A) (A) (A) (A) (A) (A) (A) (A) (A) (A) (A)
                 (A) (A) (A) (A) (A) (A) (A) (A) (A) (A) (A) (A)
                 (A) (A) (A) (A) (A) (A) (A) (A) (A) (A) (A) (A)
                 (A) (A) (A) (A) (A) (A) (A) (A) (A) (A) (A) (A)
                 (A) (A) (A) (A) (A) (A) (A) (A) (A) (A) (A) (A)
                 (A) (A) (A) (A) (A) (A) (A) (A) (A) (A) (A) (A)
                 (A) (A) (A) (A) (A) (A)
    40 initial guesses have been made.
 Convergence on wavefunction:    0.001000000000000
 Davidson Disk Diagonalization:  ConvIn= 1.00D-03 SkipCon=T Conv= 1.00D-03.
 Max sub-space:  2000 roots to seek:    40 dimension of matrix:       170901
 Iteration     1 Dimension    40 NMult     0 NNew     40
 CISAX will form    40 AO SS matrices at one time.
 NMat=    40 NSing=    40 JSym2X= 0.
 FoFJK:  IHMeth= 1 ICntrl=       0 DoSepK=T KAlg= 0 I1Cent=           0 FoldK=F
 IRaf=         1 NMat=      80 IRICut=       1 DoRegI=T DoRafI=F ISym2E= 0 IDoP0=3 IntGTp=3.
 FoFCou: FMM=F IPFlag=           0 FMFlag=      100000 FMFlg1=           0
         NFxFlg=           0 DoJE=F BraDBF=F KetDBF=F FulRan=T
         wScrn=  0.000000 ICntrl=       500 IOpCl=  0 I1Cent=           0 NGrid=           0
         NMat0=   40 NMatS0=     40 NMatT0=    0 NMatD0=   40 NMtDS0=    0 NMtDT0=    0
 Symmetry not used in FoFCou.
 New state      2 was old state      6
 New state      3 was old state      2
 New state      5 was old state      3
 New state      6 was old state      5
 New state      7 was old state      8
 New state      8 was old state      7
 New state      9 was old state     10
 New state     10 was old state     11
 Excitation Energies [eV] at current iteration:
 Root      1 :     1.560686797061161
 Root      2 :     2.195946805898576
 Root      3 :     2.219205649245419
 Root      4 :     2.416922725432397
 Root      5 :     2.434874542577450
 Root      6 :     2.595818460474048
 Root      7 :     2.637628355951425
 Root      8 :     2.879832761422005
 Root      9 :     3.438182114167332
 Root     10 :     3.530521810236619
 Root     11 :     3.681437617675348
 Root     12 :     3.768512221137337
 Root     13 :     4.044337821357176
 Root     14 :     4.074630405570618
 Root     15 :     4.177381423449682
 Root     16 :     4.344849913549271
 Root     17 :     4.363566998618269
 Root     18 :     4.373818316871021
 Root     19 :     4.456390974220921
 Root     20 :     4.486555176638962
 Root     21 :     4.596404938312988
 Root     22 :     4.661908839092161
 Root     23 :     4.724771870148325
 Root     24 :     4.751632089071521
 Root     25 :     4.809799407672052
 Root     26 :     4.841874908203679
 Root     27 :     4.954276174447486
 Root     28 :     5.068612745903494
 Root     29 :     5.135542106752930
 Root     30 :     5.193423557033229
 Root     31 :     5.203578741518419
 Root     32 :     5.248343608176688
 Root     33 :     5.304267604699194
 Root     34 :     5.393322677982740
 Root     35 :     5.430466952373425
 Root     36 :     5.490979803491762
 Root     37 :     5.713854400632888
 Root     38 :     5.835759394655698
 Root     39 :     5.949913801134224
 Root     40 :     6.115135908298992
 Iteration     2 Dimension    60 NMult    40 NNew     20
 CISAX will form    20 AO SS matrices at one time.
 NMat=    20 NSing=    20 JSym2X= 0.
 Root      1 not converged, maximum delta is    0.092903186225458
 Root      2 not converged, maximum delta is    0.312650805751334
 Root      3 not converged, maximum delta is    0.325371919165083
 Root      4 not converged, maximum delta is    0.392312514678498
 Root      5 not converged, maximum delta is    0.448674357676108
 Root      6 not converged, maximum delta is    0.332816622115820
 Root      7 not converged, maximum delta is    0.339166612203123
 Root      8 not converged, maximum delta is    0.522052205102982
 New state      9 was old state     10
 Root      9 not converged, maximum delta is    0.340982374703621
 New state     10 was old state      9
 Root     10 not converged, maximum delta is    0.443371751508145
 Excitation Energies [eV] at current iteration:
 Root      1 :     1.206922108339362   Change is   -0.353764688721799
 Root      2 :     1.988509659464699   Change is   -0.207437146433876
 Root      3 :     2.117402505001110   Change is   -0.101803144244309
 Root      4 :     2.213407368726516   Change is   -0.203515356705882
 Root      5 :     2.281142329867886   Change is   -0.153732212709564
 Root      6 :     2.332605012445487   Change is   -0.263213448028560
 Root      7 :     2.402963461670413   Change is   -0.234664894281012
 Root      8 :     2.535680088454340   Change is   -0.344152672967666
 Root      9 :     3.101551953347927   Change is   -0.428969856888692
 Root     10 :     3.127974909884820   Change is   -0.310207204282512
 Iteration     3 Dimension    80 NMult    60 NNew     20
 CISAX will form    20 AO SS matrices at one time.
 NMat=    20 NSing=    20 JSym2X= 0.
 Root      1 not converged, maximum delta is    0.030126967471338
 Root      2 not converged, maximum delta is    0.033079840796906
 Root      3 not converged, maximum delta is    0.067066406712644
 Root      4 not converged, maximum delta is    0.039860437424615
 Root      5 not converged, maximum delta is    0.159576281940453
 Root      6 not converged, maximum delta is    0.465274892180622
 Root      7 not converged, maximum delta is    0.299627929971517
 Root      8 not converged, maximum delta is    0.156785210774994
 Root      9 not converged, maximum delta is    0.503051247780696
 Root     10 not converged, maximum delta is    0.454650156412847
 Excitation Energies [eV] at current iteration:
 Root      1 :     1.147190072803900   Change is   -0.059732035535462
 Root      2 :     1.924513430608514   Change is   -0.063996228856185
 Root      3 :     2.089057334979897   Change is   -0.028345170021214
 Root      4 :     2.167559999636140   Change is   -0.045847369090375
 Root      5 :     2.236790065262823   Change is   -0.044352264605063
 Root      6 :     2.243625150935245   Change is   -0.088979861510242
 Root      7 :     2.346930991071263   Change is   -0.056032470599151
 Root      8 :     2.475074503361112   Change is   -0.060605585093227
 Root      9 :     3.013633409192562   Change is   -0.087918544155365
 Root     10 :     3.045997821131955   Change is   -0.081977088752866
 Iteration     4 Dimension   100 NMult    80 NNew     20
 CISAX will form    20 AO SS matrices at one time.
 NMat=    20 NSing=    20 JSym2X= 0.
 Root      1 not converged, maximum delta is    0.010145604038574
 Root      2 not converged, maximum delta is    0.006015028092758
 Root      3 not converged, maximum delta is    0.038599826584080
 Root      4 not converged, maximum delta is    0.154203464154671
 New state      5 was old state      6
 Root      5 not converged, maximum delta is    0.278478368217815
 New state      6 was old state      5
 Root      6 not converged, maximum delta is    0.238527143893168
 Root      7 not converged, maximum delta is    0.059848704483097
 Root      8 not converged, maximum delta is    0.077166195703515
 Root      9 not converged, maximum delta is    0.234347719691927
 Root     10 not converged, maximum delta is    0.192830050867637
 Excitation Energies [eV] at current iteration:
 Root      1 :     1.131934171569996   Change is   -0.015255901233903
 Root      2 :     1.918983888850990   Change is   -0.005529541757523
 Root      3 :     2.083173748561471   Change is   -0.005883586418425
 Root      4 :     2.157295025023252   Change is   -0.010264974612888
 Root      5 :     2.204134702129375   Change is   -0.039490448805870
 Root      6 :     2.228024263959895   Change is   -0.008765801302928
 Root      7 :     2.338284030423094   Change is   -0.008646960648169
 Root      8 :     2.455061664931696   Change is   -0.020012838429416
 Root      9 :     2.960355114436159   Change is   -0.053278294756403
 Root     10 :     3.022374735183054   Change is   -0.023623085948901
 Iteration     5 Dimension   120 NMult   100 NNew     20
 CISAX will form    20 AO SS matrices at one time.
 NMat=    20 NSing=    20 JSym2X= 0.
 Root      1 not converged, maximum delta is    0.007858503372965
 Root      2 not converged, maximum delta is    0.002152684462789
 Root      3 not converged, maximum delta is    0.019336377647666
 Root      4 not converged, maximum delta is    0.080832992683053
 Root      5 not converged, maximum delta is    0.068304726835462
 Root      6 not converged, maximum delta is    0.021080935357039
 Root      7 not converged, maximum delta is    0.023362328113792
 Root      8 not converged, maximum delta is    0.031669955144955
 Root      9 not converged, maximum delta is    0.079830823079615
 Root     10 not converged, maximum delta is    0.064032670624639
 Excitation Energies [eV] at current iteration:
 Root      1 :     1.126941296268329   Change is   -0.004992875301668
 Root      2 :     1.917972842156497   Change is   -0.001011046694494
 Root      3 :     2.081283031230155   Change is   -0.001890717331316
 Root      4 :     2.152856771292755   Change is   -0.004438253730497
 Root      5 :     2.194856359246573   Change is   -0.009278342882802
 Root      6 :     2.225225844389225   Change is   -0.002798419570670
 Root      7 :     2.335761291779345   Change is   -0.002522738643749
 Root      8 :     2.446544237006120   Change is   -0.008517427925576
 Root      9 :     2.942798424031674   Change is   -0.017556690404485
 Root     10 :     3.009007900513645   Change is   -0.013366834669409
 Iteration     6 Dimension   140 NMult   120 NNew     20
 CISAX will form    20 AO SS matrices at one time.
 NMat=    20 NSing=    20 JSym2X= 0.
 Root      1 not converged, maximum delta is    0.003815405478464
 Root      2 has converged.
 Root      3 not converged, maximum delta is    0.007558342572364
 Root      4 not converged, maximum delta is    0.029186463916623
 Root      5 not converged, maximum delta is    0.023656415902773
 Root      6 not converged, maximum delta is    0.004599323302733
 Root      7 not converged, maximum delta is    0.007294866198195
 Root      8 not converged, maximum delta is    0.010383009503612
 Root      9 not converged, maximum delta is    0.025548377564135
 Root     10 not converged, maximum delta is    0.025361330263508
 Excitation Energies [eV] at current iteration:
 Root      1 :     1.126006672440973   Change is   -0.000934623827356
 Root      2 :     1.917864499546240   Change is   -0.000108342610256
 Root      3 :     2.080761751815707   Change is   -0.000521279414448
 Root      4 :     2.151196520196022   Change is   -0.001660251096732
 Root      5 :     2.192322175382921   Change is   -0.002534183863652
 Root      6 :     2.224681413397450   Change is   -0.000544430991775
 Root      7 :     2.335177455370473   Change is   -0.000583836408873
 Root      8 :     2.443981943920984   Change is   -0.002562293085135
 Root      9 :     2.936556661635262   Change is   -0.006241762396412
 Root     10 :     3.004325981983266   Change is   -0.004681918530379
 Iteration     7 Dimension   158 NMult   140 NNew     18
 CISAX will form    18 AO SS matrices at one time.
 NMat=    18 NSing=    18 JSym2X= 0.
 Root      1 not converged, maximum delta is    0.001012445440276
 Root      2 has converged.
 Root      3 not converged, maximum delta is    0.001057324084901
 Root      4 not converged, maximum delta is    0.003368491172246
 Root      5 not converged, maximum delta is    0.002704203902082
 Root      6 not converged, maximum delta is    0.001074644021028
 Root      7 not converged, maximum delta is    0.001229311075970
 Root      8 not converged, maximum delta is    0.002516604776659
 Root      9 not converged, maximum delta is    0.011801306659512
 Root     10 not converged, maximum delta is    0.008392775705497
 Excitation Energies [eV] at current iteration:
 Root      1 :     1.125890794006863   Change is   -0.000115878434109
 Root      2 :     1.917858141646607   Change is   -0.000006357899633
 Root      3 :     2.080678032268529   Change is   -0.000083719547178
 Root      4 :     2.150970186116371   Change is   -0.000226334079651
 Root      5 :     2.192042635774746   Change is   -0.000279539608176
 Root      6 :     2.224582678954495   Change is   -0.000098734442956
 Root      7 :     2.335077496908151   Change is   -0.000099958462322
 Root      8 :     2.443531894311883   Change is   -0.000450049609102
 Root      9 :     2.934962352075669   Change is   -0.001594309559593
 Root     10 :     3.003326675405653   Change is   -0.000999306577613
 Iteration     8 Dimension   176 NMult   158 NNew     18
 CISAX will form    18 AO SS matrices at one time.
 NMat=    18 NSing=    18 JSym2X= 0.
 Root      1 has converged.
 Root      2 has converged.
 Root      3 has converged.
 Root      4 has converged.
 Root      5 has converged.
 Root      6 has converged.
 Root      7 has converged.
 Root      8 has converged.
 Root      9 not converged, maximum delta is    0.010350319981356
 Root     10 not converged, maximum delta is    0.007148570794062
 Excitation Energies [eV] at current iteration:
 Root      1 :     1.125873980089822   Change is   -0.000016813917042
 Root      2 :     1.917856493646153   Change is   -0.000001648000454
 Root      3 :     2.080664257221586   Change is   -0.000013775046944
 Root      4 :     2.150941438916731   Change is   -0.000028747199640
 Root      5 :     2.192017012371205   Change is   -0.000025623403540
 Root      6 :     2.224568189478183   Change is   -0.000014489476312
 Root      7 :     2.335063396983191   Change is   -0.000014099924960
 Root      8 :     2.443483460336171   Change is   -0.000048433975712
 Root      9 :     2.934516985111065   Change is   -0.000445366964604
 Root     10 :     3.003102336183014   Change is   -0.000224339222639
 Iteration     9 Dimension   180 NMult   176 NNew      4
 CISAX will form     4 AO SS matrices at one time.
 NMat=     4 NSing=     4 JSym2X= 0.
 Root      1 has converged.
 Root      2 has converged.
 Root      3 has converged.
 Root      4 has converged.
 Root      5 has converged.
 Root      6 has converged.
 Root      7 has converged.
 Root      8 has converged.
 Root      9 not converged, maximum delta is    0.004858553311974
 Root     10 not converged, maximum delta is    0.003788290745247
 Excitation Energies [eV] at current iteration:
 Root      1 :     1.125873542962216   Change is   -0.000000437127606
 Root      2 :     1.917856424319499   Change is   -0.000000069326655
 Root      3 :     2.080663199147055   Change is   -0.000001058074531
 Root      4 :     2.150939434379122   Change is   -0.000002004537609
 Root      5 :     2.192016348334661   Change is   -0.000000664036544
 Root      6 :     2.224567828011460   Change is   -0.000000361466723
 Root      7 :     2.335063217740072   Change is   -0.000000179243119
 Root      8 :     2.443482633929653   Change is   -0.000000826406518
 Root      9 :     2.934387988840347   Change is   -0.000128996270718
 Root     10 :     3.003052440551391   Change is   -0.000049895631623
 Iteration    10 Dimension   184 NMult   180 NNew      4
 CISAX will form     4 AO SS matrices at one time.
 NMat=     4 NSing=     4 JSym2X= 0.
 Root      1 has converged.
 Root      2 has converged.
 Root      3 has converged.
 Root      4 has converged.
 Root      5 has converged.
 Root      6 has converged.
 Root      7 has converged.
 Root      8 has converged.
 Root      9 not converged, maximum delta is    0.001275343427101
 Root     10 not converged, maximum delta is    0.001055239061523
 Excitation Energies [eV] at current iteration:
 Root      1 :     1.125873315194124   Change is   -0.000000227768092
 Root      2 :     1.917856360863789   Change is   -0.000000063455709
 Root      3 :     2.080663035022986   Change is   -0.000000164124069
 Root      4 :     2.150939247628419   Change is   -0.000000186750703
 Root      5 :     2.192016261374945   Change is   -0.000000086959716
 Root      6 :     2.224567776559327   Change is   -0.000000051452132
 Root      7 :     2.335063180546420   Change is   -0.000000037193652
 Root      8 :     2.443482424382694   Change is   -0.000000209546959
 Root      9 :     2.934365666746948   Change is   -0.000022322093399
 Root     10 :     3.003044527412474   Change is   -0.000007913138917
 Iteration    11 Dimension   188 NMult   184 NNew      4
 CISAX will form     4 AO SS matrices at one time.
 NMat=     4 NSing=     4 JSym2X= 0.
 Root      1 has converged.
 Root      2 has converged.
 Root      3 has converged.
 Root      4 has converged.
 Root      5 has converged.
 Root      6 has converged.
 Root      7 has converged.
 Root      8 has converged.
 Root      9 has converged.
 Root     10 has converged.
 Excitation Energies [eV] at current iteration:
 Root      1 :     1.125873273557684   Change is   -0.000000041636440
 Root      2 :     1.917856331858394   Change is   -0.000000029005396
 Root      3 :     2.080663005750830   Change is   -0.000000029272157
 Root      4 :     2.150939225592208   Change is   -0.000000022036211
 Root      5 :     2.192016110627538   Change is   -0.000000150747407
 Root      6 :     2.224567744004887   Change is   -0.000000032554441
 Root      7 :     2.335063119989284   Change is   -0.000000060557136
 Root      8 :     2.443482070540674   Change is   -0.000000353842021
 Root      9 :     2.934362051153257   Change is   -0.000003615593691
 Root     10 :     3.003043195912436   Change is   -0.000001331500039
 Convergence achieved on expansion vectors.
 ***********************************************************************
 Excited states from <AA,BB:AA,BB> singles matrix:
 ***********************************************************************
 
 ExtSpn:  IState=     1 X2= 1.028 Y2= 0.028 X2-Y2-1=-1.55D-15
          S2Grnd=  0.808 Ra=  0.005 Rb= -0.007 T= -0.016 S2Ext= -0.018 S2=  0.790
 ExtSpn:  IState=     2 X2= 1.009 Y2= 0.009 X2-Y2-1= 2.66D-15
          S2Grnd=  0.808 Ra=  0.010 Rb=  0.052 T=  0.038 S2Ext=  0.099 S2=  0.907
 ExtSpn:  IState=     3 X2= 1.008 Y2= 0.008 X2-Y2-1=-4.44D-16
          S2Grnd=  0.808 Ra=  0.028 Rb=  0.055 T=  0.063 S2Ext=  0.146 S2=  0.954
 ExtSpn:  IState=     4 X2= 1.014 Y2= 0.014 X2-Y2-1= 1.33D-15
          S2Grnd=  0.808 Ra=  0.053 Rb=  0.087 T=  0.114 S2Ext=  0.253 S2=  1.061
 ExtSpn:  IState=     5 X2= 1.027 Y2= 0.027 X2-Y2-1= 4.44D-16
          S2Grnd=  0.808 Ra=  0.078 Rb=  0.080 T=  0.142 S2Ext=  0.300 S2=  1.108
 ExtSpn:  IState=     6 X2= 1.008 Y2= 0.008 X2-Y2-1=-2.44D-15
          S2Grnd=  0.808 Ra=  0.021 Rb=  0.070 T=  0.061 S2Ext=  0.152 S2=  0.960
 ExtSpn:  IState=     7 X2= 1.006 Y2= 0.006 X2-Y2-1=-2.00D-15
          S2Grnd=  0.808 Ra=  0.016 Rb=  0.043 T=  0.039 S2Ext=  0.098 S2=  0.905
 ExtSpn:  IState=     8 X2= 1.009 Y2= 0.009 X2-Y2-1= 6.66D-16
          S2Grnd=  0.808 Ra=  0.024 Rb=  0.053 T=  0.065 S2Ext=  0.142 S2=  0.949
 ExtSpn:  IState=     9 X2= 1.030 Y2= 0.030 X2-Y2-1=-1.78D-15
          S2Grnd=  0.808 Ra=  0.253 Rb=  0.419 T=  0.602 S2Ext=  1.274 S2=  2.081
 ExtSpn:  IState=    10 X2= 1.014 Y2= 0.014 X2-Y2-1= 1.11D-15
          S2Grnd=  0.808 Ra=  0.143 Rb=  0.195 T=  0.293 S2Ext=  0.631 S2=  1.438
 1PDM for each excited state written to RWF  633
 Ground to excited state transition densities written to RWF  633
 Ground to excited state transition electric dipole moments (Au):
       state          X           Y           Z        Dip. S.      Osc.
         1         5.0018     -0.0143     -0.0504     25.0204      0.6901
         2        -0.4836     -0.0098      0.0321      0.2350      0.0110
         3        -0.2310     -0.2946     -0.0226      0.1407      0.0072
         4         1.3617      0.2103     -0.0243      1.8990      0.1001
         5        -2.5317      0.2180      0.0064      6.4569      0.3468
         6         0.3124     -0.1770     -0.0292      0.1298      0.0071
         7        -0.6297      0.1403      0.0833      0.4232      0.0242
         8         0.8230     -0.2010     -0.0459      0.7198      0.0431
         9        -1.4309     -0.1102     -0.0081      2.0597      0.1481
        10        -0.1134      0.0895      0.0398      0.0225      0.0017
 Ground to excited state transition velocity dipole moments (Au):
       state          X           Y           Z        Dip. S.      Osc.
         1        -0.2060      0.0006      0.0021      0.0424      0.6839
         2         0.0340      0.0009     -0.0023      0.0012      0.0110
         3         0.0178      0.0222      0.0016      0.0008      0.0071
         4        -0.1078     -0.0170      0.0020      0.0119      0.1004
         5         0.2038     -0.0178     -0.0004      0.0419      0.3464
         6        -0.0255      0.0142      0.0024      0.0009      0.0070
         7         0.0542     -0.0119     -0.0073      0.0031      0.0243
         8        -0.0737      0.0181      0.0041      0.0058      0.0429
         9         0.1541      0.0116      0.0009      0.0239      0.1476
        10         0.0124     -0.0100     -0.0045      0.0003      0.0016
 Ground to excited state transition magnetic dipole moments (Au):
       state          X           Y           Z
         1         0.0100      0.1259      0.1137
         2        -0.0013     -0.1695     -0.6174
         3        -0.0264     -0.0743     -0.4959
         4        -0.0250      0.0537      0.0736
         5        -0.0212     -0.1485      0.1762
         6         0.0154      0.1616      0.2941
         7         0.0121      0.0091      0.3144
         8         0.0097     -0.0814      0.6995
         9        -0.0072     -0.0954     -0.1751
        10         0.0104     -0.0062     -0.0828
 Ground to excited state transition velocity quadrupole moments (Au):
       state          XX          YY          ZZ          XY          XZ          YZ
         1         0.4774     -0.0191      0.0014      0.1390      0.0520     -0.0301
         2         0.0578      0.0027      0.0041     -0.0421     -0.0108     -0.0074
         3        -1.6951      0.0959     -0.0076      0.0557      0.0135      0.0286
         4         0.6037     -0.0330      0.0025      0.0561     -0.0065     -0.0173
         5         0.3837      0.0013      0.0046     -0.1177     -0.0633      0.0242
         6        -1.2816      0.0629     -0.0003      0.2553     -0.0188      0.0156
         7         0.8261     -0.0575      0.0028     -0.1091     -0.0882     -0.0093
         8        -0.6283      0.0609     -0.0038      0.1054      0.0363      0.0070
         9        -0.9859      0.0410     -0.0002     -0.0285     -0.0189      0.0362
        10        -0.3303     -0.0616      0.0130     -0.1207     -0.0087     -0.0476
 <0|del|b> * <b|rxdel|0> + <0|del|b> * <b|delr+rdel|0>
 Rotatory Strengths (R) in cgs (10**-40 erg-esu-cm/Gauss)
       state          XX          YY          ZZ    R(velocity)    E-M Angle
         1         4.8402     34.9498    -69.8279    -10.0126       92.88
         2         6.8675      5.1365      0.2095      4.0712       86.81
         3       -12.2204     -3.8598    -10.7530     -8.9444      101.71
         4        -3.4201     20.5652      0.1219      5.7557       79.21
         5         6.5312      2.1637    -24.1066     -5.1372       92.13
         6        16.6910     -3.0103      8.7633      7.4813       74.67
         7       -10.9450    -12.0701      8.6519     -4.7878       95.68
         8         4.6892      4.8079     -3.9900      1.8357       89.25
         9        -3.4904     14.1990    -26.2923     -5.1945       94.42
        10         2.8246     -2.0159      2.7823      1.1970       66.10
 1/2[<0|r|b>*<b|rxdel|0> + (<0|rxdel|b>*<b|r|0>)*]
 Rotatory Strengths (R) in cgs (10**-40 erg-esu-cm/Gauss)
       state          XX          YY          ZZ     R(length)
         1       -35.4917      1.2701      4.0518    -10.0566
         2        -0.4520     -1.1760     14.0130      4.1283
         3        -4.3151    -15.4716     -7.9128     -9.2332
         4        24.0817     -7.9848      1.2623      5.7864
         5       -37.8982     22.8918     -0.8024     -5.2696
         6        -3.4003     20.2310      6.0699      7.6335
         7         5.3842     -0.9072    -18.5155     -4.6795
         8        -5.6258    -11.5642     22.6819      1.8306
         9        -7.3341     -7.4383     -1.0059     -5.2594
        10         0.8372      0.3941      2.3331      1.1881
  1/2[<0|del|b>*<b|r|0> + (<0|r|b>*<b|del|0>)*] (Au)
       state          X           Y           Z        Dip. S.   Osc.(frdel)
         1        -1.0304     -0.0000     -0.0001      1.0305      0.6870
         2        -0.0165     -0.0000     -0.0001      0.0165      0.0110
         3        -0.0041     -0.0065     -0.0000      0.0107      0.0071
         4        -0.1468     -0.0036     -0.0000      0.1504      0.1003
         5        -0.5160     -0.0039     -0.0000      0.5199      0.3466
         6        -0.0080     -0.0025     -0.0001      0.0105      0.0070
         7        -0.0341     -0.0017     -0.0006      0.0364      0.0243
         8        -0.0607     -0.0036     -0.0002      0.0645      0.0430
         9        -0.2205     -0.0013     -0.0000      0.2217      0.1478
        10        -0.0014     -0.0009     -0.0002      0.0025      0.0017

 Excitation energies and oscillator strengths:
 
 Excited State   1:  2.039-A      1.1259 eV 1101.23 nm  f=0.6901  <S**2>=0.790
    118A -> 119A       0.13725
    113B -> 119B      -0.11773
    116B -> 118B      -0.39018
    117B -> 118B       0.88534
 This state for optimization and/or second-order correction.
 Total Energy, E(TD-HF/TD-DFT) =  -1682.07411600    
 Copying the excited state density for this state as the 1-particle RhoCI density.
 
 Excited State   2:  2.151-A      1.9179 eV  646.47 nm  f=0.0110  <S**2>=0.907
    112B -> 118B       0.88466
    112B -> 119B       0.15358
    113B -> 118B      -0.18002
    115B -> 118B       0.32482
 
 Excited State   3:  2.194-A      2.0807 eV  595.89 nm  f=0.0072  <S**2>=0.954
    116A -> 119A       0.12966
    118A -> 119A       0.15437
    113B -> 118B       0.42113
    114B -> 118B       0.41602
    114B -> 119B      -0.12159
    115B -> 118B       0.39853
    116B -> 118B       0.55527
    117B -> 118B       0.24250
    117B -> 119B      -0.16242
 
 Excited State   4:  2.290-A      2.1509 eV  576.42 nm  f=0.1001  <S**2>=1.061
    112A -> 119A      -0.10934
    116A -> 119A      -0.15982
    118A -> 119A      -0.41728
    112B -> 118B       0.17374
    113B -> 118B      -0.18434
    114B -> 118B       0.52296
    114B -> 119B      -0.15815
    115B -> 118B      -0.49092
    116B -> 118B       0.23406
    116B -> 119B      -0.12324
    117B -> 118B       0.14429
    117B -> 119B       0.12831
 
 Excited State   5:  2.330-A      2.1920 eV  565.62 nm  f=0.3468  <S**2>=1.108
    111A -> 119A      -0.14253
    112A -> 119A       0.17054
    116A -> 119A       0.15139
    117A -> 119A       0.13406
    118A -> 119A       0.63541
    110B -> 119B      -0.10471
    111B -> 118B       0.24231
    112B -> 118B       0.17344
    113B -> 119B       0.13537
    114B -> 118B       0.26867
    115B -> 118B      -0.44802
    117B -> 118B      -0.10179
    117B -> 119B      -0.11545
 
 Excited State   6:  2.200-A      2.2246 eV  557.34 nm  f=0.0071  <S**2>=0.960
    111B -> 118B      -0.17649
    112B -> 118B       0.26539
    113B -> 118B       0.52558
    114B -> 118B      -0.47920
    114B -> 119B       0.12981
    115B -> 118B      -0.45880
    115B -> 119B      -0.11869
    115B -> 120B      -0.10724
    116B -> 118B       0.23227
    117B -> 118B       0.12450
 
 Excited State   7:  2.150-A      2.3351 eV  530.97 nm  f=0.0242  <S**2>=0.905
    118A -> 119A       0.12603
    111B -> 118B       0.27137
    113B -> 118B      -0.48826
    114B -> 118B      -0.37732
    114B -> 119B       0.10997
    116B -> 118B       0.61706
    117B -> 118B       0.25076
 
 Excited State   8:  2.190-A      2.4435 eV  507.41 nm  f=0.0431  <S**2>=0.949
    112A -> 119A      -0.12099
    118A -> 119A      -0.18665
    111B -> 118B       0.87346
    111B -> 119B      -0.11924
    113B -> 118B       0.26641
    113B -> 119B      -0.10662
    116B -> 118B      -0.12494
 
 Excited State   9:  3.054-A      2.9344 eV  422.53 nm  f=0.1481  <S**2>=2.081
    110A -> 119A      -0.12959
    111A -> 119A       0.17431
    116A -> 119A      -0.29009
    116A -> 120A       0.19822
    117A -> 119A       0.11408
    117A -> 120A      -0.11313
    118A -> 119A       0.24081
    118A -> 120A      -0.30055
    110B -> 118B      -0.18387
    110B -> 119B       0.15281
    111B -> 119B       0.11859
    113B -> 118B       0.24567
    116B -> 119B      -0.23156
    117B -> 119B       0.50638
    117B -> 120B       0.15007
 
 Excited State  10:  2.599-A      3.0030 eV  412.86 nm  f=0.0017  <S**2>=1.438
    111A -> 119A       0.10626
    111A -> 120A       0.10353
    112A -> 119A       0.26357
    116A -> 120A      -0.11452
    118A -> 120A       0.10008
    110B -> 118B       0.77503
    110B -> 119B       0.10844
    111B -> 119B       0.18694
    113B -> 119B       0.18582
    117B -> 119B       0.21317
 SavETr:  write IOETrn=   770 NScale= 10 NData=  16 NLR=1 NState=   10 LETran=     190.
 Leave Link  914 at Thu Mar 14 13:02:29 2024, MaxMem= 32212254720 cpu:          112616.5 elap:            3753.9
 (Enter /home/<user>/g16/l601.exe)
 Copying SCF densities to generalized density rwf, IOpCl= 1 IROHF=0.

 **********************************************************************

            Population analysis using the SCF Density.

 **********************************************************************

 Orbital symmetries:
 Alpha Orbitals:
       Occupied  (A) (A) (A) (A) (A) (A) (A) (A) (A) (A) (A) (A)
                 (A) (A) (A) (A) (A) (A) (A) (A) (A) (A) (A) (A)
                 (A) (A) (A) (A) (A) (A) (A) (A) (A) (A) (A) (A)
                 (A) (A) (A) (A) (A) (A) (A) (A) (A) (A) (A) (A)
                 (A) (A) (A) (A) (A) (A) (A) (A) (A) (A) (A) (A)
                 (A) (A) (A) (A) (A) (A) (A) (A) (A) (A) (A) (A)
                 (A) (A) (A) (A) (A) (A) (A) (A) (A) (A) (A) (A)
                 (A) (A) (A) (A) (A) (A) (A) (A) (A) (A) (A) (A)
                 (A) (A) (A) (A) (A) (A) (A) (A) (A) (A) (A) (A)
                 (A) (A) (A) (A) (A) (A) (A) (A) (A) (A)
       Virtual   (A) (A) (A) (A) (A) (A) (A) (A) (A) (A) (A) (A)
                 (A) (A) (A) (A) (A) (A) (A) (A) (A) (A) (A) (A)
                 (A) (A) (A) (A) (A) (A) (A) (A) (A) (A) (A) (A)
                 (A) (A) (A) (A) (A) (A) (A) (A) (A) (A) (A) (A)
                 (A) (A) (A) (A) (A) (A) (A) (A) (A) (A) (A) (A)
                 (A) (A) (A) (A) (A) (A) (A) (A) (A) (A) (A) (A)
                 (A) (A) (A) (A) (A) (A) (A) (A) (A) (A) (A) (A)
                 (A) (A) (A) (A) (A) (A) (A) (A) (A) (A) (A) (A)
                 (A) (A) (A) (A) (A) (A) (A) (A) (A) (A) (A) (A)
                 (A) (A) (A) (A) (A) (A) (A) (A) (A) (A) (A) (A)
                 (A) (A) (A) (A) (A) (A) (A) (A) (A) (A) (A) (A)
                 (A) (A) (A) (A) (A) (A) (A) (A) (A) (A) (A) (A)
                 (A) (A) (A) (A) (A) (A) (A) (A) (A) (A) (A) (A)
                 (A) (A) (A) (A) (A) (A) (A) (A) (A) (A) (A) (A)
                 (A) (A) (A) (A) (A) (A) (A) (A) (A) (A) (A) (A)
                 (A) (A) (A) (A) (A) (A) (A) (A) (A) (A) (A) (A)
                 (A) (A) (A) (A) (A) (A) (A) (A) (A) (A) (A) (A)
                 (A) (A) (A) (A) (A) (A) (A) (A) (A) (A) (A) (A)
                 (A) (A) (A) (A) (A) (A) (A) (A) (A) (A) (A) (A)
                 (A) (A) (A) (A) (A) (A) (A) (A) (A) (A) (A) (A)
                 (A) (A) (A) (A) (A) (A) (A) (A) (A) (A) (A) (A)
                 (A) (A) (A) (A) (A) (A) (A) (A) (A) (A) (A) (A)
                 (A) (A) (A) (A) (A) (A) (A) (A) (A) (A) (A) (A)
                 (A) (A) (A) (A) (A) (A) (A) (A) (A) (A) (A) (A)
                 (A) (A) (A) (A) (A) (A) (A) (A) (A) (A) (A) (A)
                 (A) (A) (A) (A) (A) (A) (A) (A) (A) (A) (A) (A)
                 (A) (A) (A) (A) (A) (A) (A) (A) (A) (A) (A) (A)
                 (A) (A) (A) (A) (A) (A) (A) (A) (A) (A) (A) (A)
                 (A) (A) (A) (A) (A) (A) (A) (A) (A) (A) (A) (A)
                 (A) (A) (A) (A) (A) (A) (A) (A) (A) (A) (A) (A)
                 (A) (A) (A) (A) (A) (A) (A) (A) (A) (A) (A) (A)
                 (A) (A) (A) (A) (A) (A) (A) (A) (A) (A) (A) (A)
                 (A) (A) (A) (A) (A) (A) (A) (A) (A) (A) (A) (A)
                 (A) (A) (A) (A) (A) (A) (A) (A) (A) (A) (A) (A)
                 (A) (A) (A) (A) (A) (A) (A) (A) (A) (A) (A) (A)
                 (A) (A) (A) (A) (A) (A) (A) (A) (A) (A) (A) (A)
                 (A) (A) (A) (A) (A) (A) (A) (A) (A) (A) (A) (A)
                 (A) (A) (A) (A) (A) (A) (A) (A) (A) (A) (A) (A)
                 (A) (A) (A) (A) (A) (A) (A) (A) (A) (A) (A) (A)
                 (A) (A) (A) (A) (A) (A) (A) (A) (A) (A) (A) (A)
                 (A) (A) (A) (A) (A) (A) (A) (A) (A) (A) (A) (A)
                 (A) (A) (A) (A) (A) (A) (A) (A) (A) (A) (A) (A)
                 (A) (A) (A) (A) (A) (A) (A) (A) (A) (A) (A) (A)
                 (A) (A) (A) (A) (A) (A) (A) (A) (A) (A) (A) (A)
                 (A) (A) (A) (A) (A) (A) (A) (A) (A) (A) (A) (A)
                 (A) (A) (A) (A) (A) (A) (A) (A) (A) (A) (A) (A)
                 (A) (A) (A) (A) (A) (A) (A) (A) (A) (A) (A) (A)
                 (A) (A) (A) (A) (A) (A) (A) (A) (A) (A) (A) (A)
                 (A) (A) (A) (A) (A) (A) (A) (A) (A) (A) (A) (A)
                 (A) (A) (A) (A) (A) (A) (A) (A) (A) (A) (A) (A)
                 (A) (A) (A) (A) (A) (A) (A) (A) (A) (A) (A) (A)
                 (A) (A) (A) (A) (A) (A) (A) (A) (A) (A) (A) (A)
                 (A) (A) (A) (A) (A) (A) (A) (A) (A) (A) (A) (A)
                 (A) (A) (A) (A) (A) (A) (A) (A) (A) (A) (A) (A)
                 (A) (A) (A) (A) (A) (A) (A) (A) (A) (A) (A) (A)
                 (A) (A) (A) (A) (A) (A) (A) (A) (A) (A) (A) (A)
                 (A) (A) (A) (A) (A) (A) (A) (A) (A) (A) (A) (A)
                 (A) (A) (A) (A) (A) (A) (A) (A) (A) (A) (A) (A)
                 (A) (A) (A) (A) (A) (A) (A) (A) (A) (A) (A) (A)
                 (A) (A) (A) (A) (A) (A) (A) (A) (A) (A) (A) (A)
                 (A) (A) (A) (A) (A) (A) (A) (A) (A) (A) (A) (A)
                 (A) (A) (A) (A) (A) (A) (A) (A) (A) (A) (A) (A)
                 (A) (A) (A) (A) (A) (A) (A) (A) (A) (A) (A) (A)
                 (A) (A) (A) (A) (A) (A) (A) (A) (A) (A) (A) (A)
                 (A) (A) (A) (A) (A) (A) (A) (A) (A) (A) (A) (A)
                 (A) (A) (A) (A) (A) (A) (A) (A) (A) (A) (A) (A)
                 (A) (A) (A) (A) (A) (A) (A) (A) (A) (A) (A) (A)
                 (A) (A) (A) (A) (A) (A) (A) (A) (A) (A) (A) (A)
                 (A) (A) (A) (A) (A) (A) (A) (A) (A) (A) (A) (A)
                 (A) (A) (A) (A) (A) (A) (A) (A) (A) (A) (A) (A)
                 (A) (A) (A) (A) (A) (A) (A) (A) (A) (A) (A) (A)
                 (A) (A) (A) (A) (A) (A) (A) (A) (A) (A) (A) (A)
                 (A) (A) (A) (A) (A) (A) (A) (A) (A) (A) (A) (A)
                 (A) (A) (A) (A) (A) (A) (A) (A) (A) (A) (A) (A)
                 (A) (A) (A) (A) (A) (A) (A) (A) (A) (A) (A) (A)
                 (A) (A) (A) (A) (A) (A) (A) (A) (A) (A) (A) (A)
                 (A) (A) (A) (A) (A) (A) (A) (A) (A) (A) (A) (A)
                 (A) (A) (A) (A) (A) (A) (A) (A) (A) (A) (A) (A)
                 (A) (A) (A) (A) (A) (A) (A) (A) (A) (A) (A) (A)
                 (A) (A) (A) (A) (A) (A) (A) (A) (A) (A) (A) (A)
                 (A) (A) (A) (A) (A) (A) (A) (A) (A) (A) (A) (A)
                 (A) (A) (A) (A) (A) (A) (A) (A) (A) (A) (A) (A)
                 (A) (A) (A) (A) (A) (A) (A) (A) (A) (A) (A) (A)
                 (A) (A) (A) (A) (A) (A) (A) (A) (A) (A) (A) (A)
                 (A) (A) (A) (A) (A) (A) (A) (A) (A) (A) (A) (A)
                 (A) (A) (A) (A) (A) (A) (A) (A) (A) (A) (A) (A)
                 (A) (A) (A) (A) (A) (A) (A) (A) (A) (A) (A) (A)
                 (A) (A) (A) (A) (A) (A) (A) (A) (A) (A) (A) (A)
                 (A) (A) (A) (A) (A)
 Beta  Orbitals:
       Occupied  (A) (A) (A) (A) (A) (A) (A) (A) (A) (A) (A) (A)
                 (A) (A) (A) (A) (A) (A) (A) (A) (A) (A) (A) (A)
                 (A) (A) (A) (A) (A) (A) (A) (A) (A) (A) (A) (A)
                 (A) (A) (A) (A) (A) (A) (A) (A) (A) (A) (A) (A)
                 (A) (A) (A) (A) (A) (A) (A) (A) (A) (A) (A) (A)
                 (A) (A) (A) (A) (A) (A) (A) (A) (A) (A) (A) (A)
                 (A) (A) (A) (A) (A) (A) (A) (A) (A) (A) (A) (A)
                 (A) (A) (A) (A) (A) (A) (A) (A) (A) (A) (A) (A)
                 (A) (A) (A) (A) (A) (A) (A) (A) (A) (A) (A) (A)
                 (A) (A) (A) (A) (A) (A) (A) (A) (A)
       Virtual   (A) (A) (A) (A) (A) (A) (A) (A) (A) (A) (A) (A)
                 (A) (A) (A) (A) (A) (A) (A) (A) (A) (A) (A) (A)
                 (A) (A) (A) (A) (A) (A) (A) (A) (A) (A) (A) (A)
                 (A) (A) (A) (A) (A) (A) (A) (A) (A) (A) (A) (A)
                 (A) (A) (A) (A) (A) (A) (A) (A) (A) (A) (A) (A)
                 (A) (A) (A) (A) (A) (A) (A) (A) (A) (A) (A) (A)
                 (A) (A) (A) (A) (A) (A) (A) (A) (A) (A) (A) (A)
                 (A) (A) (A) (A) (A) (A) (A) (A) (A) (A) (A) (A)
                 (A) (A) (A) (A) (A) (A) (A) (A) (A) (A) (A) (A)
                 (A) (A) (A) (A) (A) (A) (A) (A) (A) (A) (A) (A)
                 (A) (A) (A) (A) (A) (A) (A) (A) (A) (A) (A) (A)
                 (A) (A) (A) (A) (A) (A) (A) (A) (A) (A) (A) (A)
                 (A) (A) (A) (A) (A) (A) (A) (A) (A) (A) (A) (A)
                 (A) (A) (A) (A) (A) (A) (A) (A) (A) (A) (A) (A)
                 (A) (A) (A) (A) (A) (A) (A) (A) (A) (A) (A) (A)
                 (A) (A) (A) (A) (A) (A) (A) (A) (A) (A) (A) (A)
                 (A) (A) (A) (A) (A) (A) (A) (A) (A) (A) (A) (A)
                 (A) (A) (A) (A) (A) (A) (A) (A) (A) (A) (A) (A)
                 (A) (A) (A) (A) (A) (A) (A) (A) (A) (A) (A) (A)
                 (A) (A) (A) (A) (A) (A) (A) (A) (A) (A) (A) (A)
                 (A) (A) (A) (A) (A) (A) (A) (A) (A) (A) (A) (A)
                 (A) (A) (A) (A) (A) (A) (A) (A) (A) (A) (A) (A)
                 (A) (A) (A) (A) (A) (A) (A) (A) (A) (A) (A) (A)
                 (A) (A) (A) (A) (A) (A) (A) (A) (A) (A) (A) (A)
                 (A) (A) (A) (A) (A) (A) (A) (A) (A) (A) (A) (A)
                 (A) (A) (A) (A) (A) (A) (A) (A) (A) (A) (A) (A)
                 (A) (A) (A) (A) (A) (A) (A) (A) (A) (A) (A) (A)
                 (A) (A) (A) (A) (A) (A) (A) (A) (A) (A) (A) (A)
                 (A) (A) (A) (A) (A) (A) (A) (A) (A) (A) (A) (A)
                 (A) (A) (A) (A) (A) (A) (A) (A) (A) (A) (A) (A)
                 (A) (A) (A) (A) (A) (A) (A) (A) (A) (A) (A) (A)
                 (A) (A) (A) (A) (A) (A) (A) (A) (A) (A) (A) (A)
                 (A) (A) (A) (A) (A) (A) (A) (A) (A) (A) (A) (A)
                 (A) (A) (A) (A) (A) (A) (A) (A) (A) (A) (A) (A)
                 (A) (A) (A) (A) (A) (A) (A) (A) (A) (A) (A) (A)
                 (A) (A) (A) (A) (A) (A) (A) (A) (A) (A) (A) (A)
                 (A) (A) (A) (A) (A) (A) (A) (A) (A) (A) (A) (A)
                 (A) (A) (A) (A) (A) (A) (A) (A) (A) (A) (A) (A)
                 (A) (A) (A) (A) (A) (A) (A) (A) (A) (A) (A) (A)
                 (A) (A) (A) (A) (A) (A) (A) (A) (A) (A) (A) (A)
                 (A) (A) (A) (A) (A) (A) (A) (A) (A) (A) (A) (A)
                 (A) (A) (A) (A) (A) (A) (A) (A) (A) (A) (A) (A)
                 (A) (A) (A) (A) (A) (A) (A) (A) (A) (A) (A) (A)
                 (A) (A) (A) (A) (A) (A) (A) (A) (A) (A) (A) (A)
                 (A) (A) (A) (A) (A) (A) (A) (A) (A) (A) (A) (A)
                 (A) (A) (A) (A) (A) (A) (A) (A) (A) (A) (A) (A)
                 (A) (A) (A) (A) (A) (A) (A) (A) (A) (A) (A) (A)
                 (A) (A) (A) (A) (A) (A) (A) (A) (A) (A) (A) (A)
                 (A) (A) (A) (A) (A) (A) (A) (A) (A) (A) (A) (A)
                 (A) (A) (A) (A) (A) (A) (A) (A) (A) (A) (A) (A)
                 (A) (A) (A) (A) (A) (A) (A) (A) (A) (A) (A) (A)
                 (A) (A) (A) (A) (A) (A) (A) (A) (A) (A) (A) (A)
                 (A) (A) (A) (A) (A) (A) (A) (A) (A) (A) (A) (A)
                 (A) (A) (A) (A) (A) (A) (A) (A) (A) (A) (A) (A)
                 (A) (A) (A) (A) (A) (A) (A) (A) (A) (A) (A) (A)
                 (A) (A) (A) (A) (A) (A) (A) (A) (A) (A) (A) (A)
                 (A) (A) (A) (A) (A) (A) (A) (A) (A) (A) (A) (A)
                 (A) (A) (A) (A) (A) (A) (A) (A) (A) (A) (A) (A)
                 (A) (A) (A) (A) (A) (A) (A) (A) (A) (A) (A) (A)
                 (A) (A) (A) (A) (A) (A) (A) (A) (A) (A) (A) (A)
                 (A) (A) (A) (A) (A) (A) (A) (A) (A) (A) (A) (A)
                 (A) (A) (A) (A) (A) (A) (A) (A) (A) (A) (A) (A)
                 (A) (A) (A) (A) (A) (A) (A) (A) (A) (A) (A) (A)
                 (A) (A) (A) (A) (A) (A) (A) (A) (A) (A) (A) (A)
                 (A) (A) (A) (A) (A) (A) (A) (A) (A) (A) (A) (A)
                 (A) (A) (A) (A) (A) (A) (A) (A) (A) (A) (A) (A)
                 (A) (A) (A) (A) (A) (A) (A) (A) (A) (A) (A) (A)
                 (A) (A) (A) (A) (A) (A) (A) (A) (A) (A) (A) (A)
                 (A) (A) (A) (A) (A) (A) (A) (A) (A) (A) (A) (A)
                 (A) (A) (A) (A) (A) (A) (A) (A) (A) (A) (A) (A)
                 (A) (A) (A) (A) (A) (A) (A) (A) (A) (A) (A) (A)
                 (A) (A) (A) (A) (A) (A) (A) (A) (A) (A) (A) (A)
                 (A) (A) (A) (A) (A) (A) (A) (A) (A) (A) (A) (A)
                 (A) (A) (A) (A) (A) (A) (A) (A) (A) (A) (A) (A)
                 (A) (A) (A) (A) (A) (A) (A) (A) (A) (A) (A) (A)
                 (A) (A) (A) (A) (A) (A) (A) (A) (A) (A) (A) (A)
                 (A) (A) (A) (A) (A) (A) (A) (A) (A) (A) (A) (A)
                 (A) (A) (A) (A) (A) (A) (A) (A) (A) (A) (A) (A)
                 (A) (A) (A) (A) (A) (A) (A) (A) (A) (A) (A) (A)
                 (A) (A) (A) (A) (A) (A) (A) (A) (A) (A) (A) (A)
                 (A) (A) (A) (A) (A) (A) (A) (A) (A) (A) (A) (A)
                 (A) (A) (A) (A) (A) (A) (A) (A) (A) (A) (A) (A)
                 (A) (A) (A) (A) (A) (A) (A) (A) (A) (A) (A) (A)
                 (A) (A) (A) (A) (A) (A) (A) (A) (A) (A) (A) (A)
                 (A) (A) (A) (A) (A) (A) (A) (A) (A) (A) (A) (A)
                 (A) (A) (A) (A) (A) (A) (A) (A) (A) (A) (A) (A)
                 (A) (A) (A) (A) (A) (A) (A) (A) (A) (A) (A) (A)
                 (A) (A) (A) (A) (A) (A) (A) (A) (A) (A) (A) (A)
                 (A) (A) (A) (A) (A) (A)
 The electronic state is 2-A.
 Alpha  occ. eigenvalues --  -89.13425 -14.54508 -14.54411 -14.43513 -10.42895
 Alpha  occ. eigenvalues --  -10.42622 -10.41785 -10.41664 -10.40618 -10.39840
 Alpha  occ. eigenvalues --  -10.39482 -10.38859 -10.38102 -10.37956 -10.37834
 Alpha  occ. eigenvalues --  -10.37803 -10.37710 -10.37376 -10.36868 -10.36786
 Alpha  occ. eigenvalues --  -10.36694 -10.36300 -10.36227 -10.36127 -10.35873
 Alpha  occ. eigenvalues --  -10.35310 -10.35202 -10.34836 -10.34674 -10.34577
 Alpha  occ. eigenvalues --  -10.33716 -10.33659 -10.32663  -8.20474  -6.16949
 Alpha  occ. eigenvalues --   -6.16358  -6.16239  -1.21998  -1.10158  -1.09419
 Alpha  occ. eigenvalues --   -1.08259  -1.05504  -1.04511  -1.03434  -1.01325
 Alpha  occ. eigenvalues --   -0.99792  -0.97441  -0.96659  -0.94746  -0.94378
 Alpha  occ. eigenvalues --   -0.93320  -0.92327  -0.91195  -0.87861  -0.86721
 Alpha  occ. eigenvalues --   -0.85122  -0.84085  -0.82473  -0.81709  -0.79814
 Alpha  occ. eigenvalues --   -0.78658  -0.77513  -0.76873  -0.76497  -0.74831
 Alpha  occ. eigenvalues --   -0.74034  -0.70574  -0.70142  -0.69671  -0.68697
 Alpha  occ. eigenvalues --   -0.68155  -0.66168  -0.65123  -0.64698  -0.64206
 Alpha  occ. eigenvalues --   -0.63824  -0.63255  -0.62425  -0.62047  -0.61966
 Alpha  occ. eigenvalues --   -0.61542  -0.60647  -0.60342  -0.59966  -0.59496
 Alpha  occ. eigenvalues --   -0.59223  -0.57684  -0.57356  -0.57159  -0.56844
 Alpha  occ. eigenvalues --   -0.56622  -0.56188  -0.56141  -0.55685  -0.55344
 Alpha  occ. eigenvalues --   -0.54726  -0.53383  -0.53345  -0.52334  -0.52057
 Alpha  occ. eigenvalues --   -0.51720  -0.51214  -0.51120  -0.50213  -0.50043
 Alpha  occ. eigenvalues --   -0.49288  -0.49005  -0.48511  -0.47844  -0.47332
 Alpha  occ. eigenvalues --   -0.43928  -0.43593  -0.43257  -0.41649  -0.41280
 Alpha  occ. eigenvalues --   -0.39654  -0.37716  -0.36648
 Alpha virt. eigenvalues --   -0.18615  -0.13006  -0.09944  -0.09217  -0.07908
 Alpha virt. eigenvalues --   -0.06761  -0.06509  -0.05731  -0.05237  -0.03131
 Alpha virt. eigenvalues --   -0.02292  -0.01067  -0.00605  -0.00018   0.00211
 Alpha virt. eigenvalues --    0.00757   0.01608   0.02049   0.02646   0.02708
 Alpha virt. eigenvalues --    0.03012   0.03396   0.03829   0.04421   0.04676
 Alpha virt. eigenvalues --    0.04842   0.05090   0.05592   0.06092   0.06558
 Alpha virt. eigenvalues --    0.06995   0.07290   0.07571   0.07937   0.08322
 Alpha virt. eigenvalues --    0.08815   0.09071   0.09430   0.09551   0.09747
 Alpha virt. eigenvalues --    0.10166   0.10471   0.10813   0.11090   0.11288
 Alpha virt. eigenvalues --    0.11526   0.11666   0.12585   0.12769   0.12821
 Alpha virt. eigenvalues --    0.13693   0.13754   0.14160   0.14466   0.14666
 Alpha virt. eigenvalues --    0.14838   0.15185   0.15316   0.15547   0.16060
 Alpha virt. eigenvalues --    0.16237   0.16570   0.16822   0.17046   0.17220
 Alpha virt. eigenvalues --    0.17752   0.17950   0.18211   0.18249   0.18715
 Alpha virt. eigenvalues --    0.19095   0.19363   0.19870   0.20251   0.20481
 Alpha virt. eigenvalues --    0.20805   0.21295   0.21782   0.22337   0.22519
 Alpha virt. eigenvalues --    0.22892   0.23292   0.23516   0.23934   0.24042
 Alpha virt. eigenvalues --    0.24399   0.24555   0.24918   0.25102   0.25226
 Alpha virt. eigenvalues --    0.25517   0.25558   0.26073   0.26316   0.26604
 Alpha virt. eigenvalues --    0.26876   0.27375   0.27713   0.28002   0.28401
 Alpha virt. eigenvalues --    0.28505   0.28652   0.28707   0.29117   0.29349
 Alpha virt. eigenvalues --    0.29947   0.30252   0.30419   0.30510   0.31209
 Alpha virt. eigenvalues --    0.31360   0.31547   0.31886   0.31983   0.32163
 Alpha virt. eigenvalues --    0.32808   0.32965   0.33503   0.34011   0.34284
 Alpha virt. eigenvalues --    0.34627   0.34910   0.35396   0.35532   0.35864
 Alpha virt. eigenvalues --    0.36038   0.36436   0.36488   0.36991   0.37405
 Alpha virt. eigenvalues --    0.37860   0.38025   0.38064   0.38333   0.38510
 Alpha virt. eigenvalues --    0.38931   0.38959   0.39276   0.39472   0.39821
 Alpha virt. eigenvalues --    0.40116   0.40651   0.40739   0.40916   0.41446
 Alpha virt. eigenvalues --    0.41488   0.41818   0.42278   0.42494   0.42732
 Alpha virt. eigenvalues --    0.42985   0.43535   0.43852   0.44027   0.44196
 Alpha virt. eigenvalues --    0.44328   0.44570   0.44873   0.45632   0.45800
 Alpha virt. eigenvalues --    0.45967   0.46150   0.46652   0.46886   0.47419
 Alpha virt. eigenvalues --    0.47910   0.48287   0.48652   0.48702   0.49285
 Alpha virt. eigenvalues --    0.49556   0.49939   0.50070   0.50533   0.50752
 Alpha virt. eigenvalues --    0.51224   0.51664   0.52265   0.52608   0.53053
 Alpha virt. eigenvalues --    0.53289   0.53512   0.53932   0.54107   0.54847
 Alpha virt. eigenvalues --    0.55917   0.56213   0.56436   0.56908   0.56975
 Alpha virt. eigenvalues --    0.57239   0.58087   0.58171   0.58585   0.59327
 Alpha virt. eigenvalues --    0.59460   0.59980   0.60248   0.60667   0.60789
 Alpha virt. eigenvalues --    0.61175   0.61369   0.61504   0.62096   0.62546
 Alpha virt. eigenvalues --    0.62961   0.63206   0.63663   0.63891   0.64272
 Alpha virt. eigenvalues --    0.64414   0.64834   0.65249   0.65461   0.65956
 Alpha virt. eigenvalues --    0.66236   0.66558   0.66831   0.67262   0.67833
 Alpha virt. eigenvalues --    0.68434   0.68708   0.69116   0.69363   0.69700
 Alpha virt. eigenvalues --    0.70024   0.70254   0.70497   0.71351   0.72057
 Alpha virt. eigenvalues --    0.72156   0.72523   0.73186   0.73394   0.74236
 Alpha virt. eigenvalues --    0.74441   0.75082   0.75148   0.75474   0.76479
 Alpha virt. eigenvalues --    0.76917   0.77310   0.77612   0.78128   0.78243
 Alpha virt. eigenvalues --    0.78846   0.79408   0.80174   0.80362   0.80663
 Alpha virt. eigenvalues --    0.81415   0.81885   0.82289   0.82819   0.83156
 Alpha virt. eigenvalues --    0.83746   0.84198   0.84531   0.85151   0.85621
 Alpha virt. eigenvalues --    0.86304   0.86473   0.86592   0.87121   0.87785
 Alpha virt. eigenvalues --    0.87801   0.88085   0.88596   0.89326   0.90444
 Alpha virt. eigenvalues --    0.90999   0.91496   0.92197   0.92759   0.93057
 Alpha virt. eigenvalues --    0.93605   0.94127   0.94765   0.95106   0.95653
 Alpha virt. eigenvalues --    0.96257   0.96575   0.97028   0.98124   0.98734
 Alpha virt. eigenvalues --    0.99281   0.99862   1.00037   1.00200   1.00564
 Alpha virt. eigenvalues --    1.00991   1.01728   1.01912   1.02343   1.03121
 Alpha virt. eigenvalues --    1.03369   1.03531   1.04404   1.04905   1.05548
 Alpha virt. eigenvalues --    1.06308   1.07162   1.07859   1.08017   1.08784
 Alpha virt. eigenvalues --    1.09072   1.09684   1.10874   1.12139   1.12285
 Alpha virt. eigenvalues --    1.12844   1.13267   1.13810   1.14163   1.15245
 Alpha virt. eigenvalues --    1.15990   1.16412   1.17185   1.17244   1.17806
 Alpha virt. eigenvalues --    1.18119   1.18907   1.19282   1.20113   1.20486
 Alpha virt. eigenvalues --    1.20801   1.21136   1.21390   1.21718   1.22069
 Alpha virt. eigenvalues --    1.22530   1.22881   1.23071   1.23573   1.24145
 Alpha virt. eigenvalues --    1.24775   1.25103   1.25522   1.26155   1.27012
 Alpha virt. eigenvalues --    1.27310   1.27933   1.28369   1.28935   1.29505
 Alpha virt. eigenvalues --    1.29696   1.30200   1.30900   1.31275   1.31778
 Alpha virt. eigenvalues --    1.32038   1.32741   1.32823   1.33397   1.33728
 Alpha virt. eigenvalues --    1.34118   1.34797   1.35339   1.35604   1.36918
 Alpha virt. eigenvalues --    1.37208   1.37950   1.38388   1.38692   1.39089
 Alpha virt. eigenvalues --    1.39518   1.39751   1.40098   1.40792   1.41364
 Alpha virt. eigenvalues --    1.41552   1.41697   1.42395   1.42771   1.42864
 Alpha virt. eigenvalues --    1.43524   1.44022   1.44373   1.45003   1.45101
 Alpha virt. eigenvalues --    1.46391   1.47060   1.47213   1.47522   1.48609
 Alpha virt. eigenvalues --    1.48749   1.49493   1.49724   1.49945   1.50494
 Alpha virt. eigenvalues --    1.51183   1.51674   1.51953   1.52478   1.53097
 Alpha virt. eigenvalues --    1.53163   1.53581   1.53886   1.54357   1.54475
 Alpha virt. eigenvalues --    1.54713   1.54999   1.55669   1.55934   1.56329
 Alpha virt. eigenvalues --    1.56961   1.57500   1.58098   1.58340   1.58875
 Alpha virt. eigenvalues --    1.59081   1.59332   1.59703   1.59957   1.60448
 Alpha virt. eigenvalues --    1.61009   1.61571   1.62170   1.62334   1.63107
 Alpha virt. eigenvalues --    1.64368   1.65321   1.65477   1.65830   1.66252
 Alpha virt. eigenvalues --    1.67031   1.67665   1.68021   1.68449   1.69399
 Alpha virt. eigenvalues --    1.69473   1.70086   1.70736   1.71155   1.71294
 Alpha virt. eigenvalues --    1.71863   1.72132   1.72664   1.73171   1.74478
 Alpha virt. eigenvalues --    1.74620   1.74987   1.75846   1.76168   1.76307
 Alpha virt. eigenvalues --    1.76970   1.76977   1.78154   1.78469   1.78940
 Alpha virt. eigenvalues --    1.80398   1.81153   1.81381   1.81814   1.82722
 Alpha virt. eigenvalues --    1.82903   1.84412   1.84816   1.85106   1.85852
 Alpha virt. eigenvalues --    1.86272   1.87300   1.88095   1.88148   1.89197
 Alpha virt. eigenvalues --    1.89381   1.89957   1.90704   1.90793   1.91298
 Alpha virt. eigenvalues --    1.91806   1.92787   1.92889   1.93185   1.94089
 Alpha virt. eigenvalues --    1.94729   1.96052   1.97022   1.97635   1.98136
 Alpha virt. eigenvalues --    1.98662   1.98955   1.99771   2.00085   2.00776
 Alpha virt. eigenvalues --    2.00896   2.01675   2.01927   2.02382   2.02746
 Alpha virt. eigenvalues --    2.03512   2.04023   2.04209   2.04844   2.05498
 Alpha virt. eigenvalues --    2.06710   2.07233   2.07425   2.08000   2.08602
 Alpha virt. eigenvalues --    2.09197   2.10039   2.10597   2.10849   2.11623
 Alpha virt. eigenvalues --    2.11932   2.12485   2.13207   2.13724   2.13926
 Alpha virt. eigenvalues --    2.15021   2.15207   2.15281   2.15643   2.16006
 Alpha virt. eigenvalues --    2.17576   2.17991   2.18229   2.18832   2.19765
 Alpha virt. eigenvalues --    2.20721   2.21152   2.21759   2.21922   2.22866
 Alpha virt. eigenvalues --    2.23640   2.24512   2.25214   2.25300   2.25710
 Alpha virt. eigenvalues --    2.25782   2.27380   2.28180   2.28484   2.29162
 Alpha virt. eigenvalues --    2.29952   2.31011   2.31522   2.32873   2.33044
 Alpha virt. eigenvalues --    2.33402   2.33671   2.34986   2.35322   2.36029
 Alpha virt. eigenvalues --    2.37208   2.37866   2.38781   2.38928   2.39436
 Alpha virt. eigenvalues --    2.40367   2.40507   2.40763   2.40952   2.42087
 Alpha virt. eigenvalues --    2.42556   2.43152   2.43751   2.44510   2.45187
 Alpha virt. eigenvalues --    2.45892   2.46336   2.47143   2.47910   2.49050
 Alpha virt. eigenvalues --    2.49601   2.49837   2.51071   2.51166   2.51694
 Alpha virt. eigenvalues --    2.51963   2.52171   2.52984   2.53696   2.53948
 Alpha virt. eigenvalues --    2.54776   2.55422   2.55692   2.56249   2.56584
 Alpha virt. eigenvalues --    2.56910   2.57300   2.58154   2.58699   2.59272
 Alpha virt. eigenvalues --    2.59873   2.60342   2.60619   2.60745   2.61222
 Alpha virt. eigenvalues --    2.61549   2.61844   2.62153   2.62544   2.63212
 Alpha virt. eigenvalues --    2.63637   2.64279   2.64951   2.65014   2.65544
 Alpha virt. eigenvalues --    2.65981   2.66351   2.67114   2.67802   2.68132
 Alpha virt. eigenvalues --    2.68420   2.69063   2.69601   2.69815   2.69983
 Alpha virt. eigenvalues --    2.70123   2.70234   2.70908   2.71598   2.71801
 Alpha virt. eigenvalues --    2.71906   2.72467   2.73416   2.73599   2.74186
 Alpha virt. eigenvalues --    2.74656   2.75092   2.76011   2.76261   2.76875
 Alpha virt. eigenvalues --    2.77355   2.77482   2.77626   2.78396   2.78732
 Alpha virt. eigenvalues --    2.78855   2.78996   2.79331   2.80070   2.80652
 Alpha virt. eigenvalues --    2.80922   2.81436   2.82264   2.82822   2.83314
 Alpha virt. eigenvalues --    2.83630   2.83949   2.84260   2.84657   2.84847
 Alpha virt. eigenvalues --    2.86166   2.86425   2.86903   2.87356   2.87999
 Alpha virt. eigenvalues --    2.88656   2.89054   2.89436   2.89920   2.90248
 Alpha virt. eigenvalues --    2.90758   2.91506   2.91657   2.92891   2.93300
 Alpha virt. eigenvalues --    2.93498   2.94619   2.95572   2.96085   2.96987
 Alpha virt. eigenvalues --    2.97207   2.97802   2.98301   2.98962   2.99203
 Alpha virt. eigenvalues --    2.99363   3.00223   3.00877   3.01728   3.02103
 Alpha virt. eigenvalues --    3.02560   3.02990   3.03415   3.04189   3.04496
 Alpha virt. eigenvalues --    3.04700   3.05147   3.05933   3.06242   3.06860
 Alpha virt. eigenvalues --    3.07214   3.07797   3.08133   3.08403   3.08636
 Alpha virt. eigenvalues --    3.09343   3.10143   3.10509   3.10742   3.10806
 Alpha virt. eigenvalues --    3.11343   3.11916   3.12395   3.12517   3.12784
 Alpha virt. eigenvalues --    3.13662   3.14056   3.14269   3.14735   3.14913
 Alpha virt. eigenvalues --    3.15693   3.16238   3.16379   3.16793   3.17075
 Alpha virt. eigenvalues --    3.17433   3.17652   3.18327   3.18811   3.19220
 Alpha virt. eigenvalues --    3.19478   3.20094   3.20831   3.21594   3.22101
 Alpha virt. eigenvalues --    3.22678   3.23261   3.23370   3.23780   3.24122
 Alpha virt. eigenvalues --    3.24835   3.25081   3.25807   3.25963   3.26166
 Alpha virt. eigenvalues --    3.26520   3.26794   3.27021   3.27322   3.27997
 Alpha virt. eigenvalues --    3.28461   3.28591   3.29375   3.29595   3.29847
 Alpha virt. eigenvalues --    3.30305   3.31050   3.31724   3.31852   3.32246
 Alpha virt. eigenvalues --    3.32855   3.33275   3.33718   3.34205   3.34264
 Alpha virt. eigenvalues --    3.34982   3.34997   3.35587   3.36393   3.36625
 Alpha virt. eigenvalues --    3.37177   3.37593   3.37864   3.38318   3.38613
 Alpha virt. eigenvalues --    3.38867   3.39485   3.40113   3.40330   3.40550
 Alpha virt. eigenvalues --    3.41430   3.41858   3.42028   3.42792   3.43187
 Alpha virt. eigenvalues --    3.43370   3.43665   3.44396   3.44997   3.45050
 Alpha virt. eigenvalues --    3.46224   3.46597   3.46794   3.47152   3.47854
 Alpha virt. eigenvalues --    3.48106   3.48278   3.48882   3.49238   3.49509
 Alpha virt. eigenvalues --    3.50137   3.50351   3.51175   3.51338   3.51763
 Alpha virt. eigenvalues --    3.52002   3.52392   3.53099   3.53436   3.54467
 Alpha virt. eigenvalues --    3.54605   3.55488   3.55649   3.55717   3.56216
 Alpha virt. eigenvalues --    3.56895   3.57779   3.58136   3.58486   3.58955
 Alpha virt. eigenvalues --    3.60137   3.60493   3.61741   3.62965   3.63834
 Alpha virt. eigenvalues --    3.65203   3.65931   3.66668   3.66955   3.67657
 Alpha virt. eigenvalues --    3.68395   3.69225   3.69999   3.70632   3.71504
 Alpha virt. eigenvalues --    3.72101   3.73154   3.74643   3.75880   3.76030
 Alpha virt. eigenvalues --    3.77232   3.78730   3.79620   3.80403   3.81307
 Alpha virt. eigenvalues --    3.82277   3.82528   3.82930   3.83655   3.83935
 Alpha virt. eigenvalues --    3.84194   3.85107   3.85229   3.86454   3.86612
 Alpha virt. eigenvalues --    3.87164   3.87720   3.88526   3.89437   3.90153
 Alpha virt. eigenvalues --    3.91673   3.92679   3.92971   3.93731   3.94704
 Alpha virt. eigenvalues --    3.95607   3.96188   3.96246   3.97974   3.98624
 Alpha virt. eigenvalues --    3.98798   3.99695   4.00838   4.01713   4.01944
 Alpha virt. eigenvalues --    4.02800   4.02898   4.03241   4.04276   4.04525
 Alpha virt. eigenvalues --    4.05426   4.05891   4.06651   4.07756   4.08304
 Alpha virt. eigenvalues --    4.09083   4.09762   4.10567   4.10885   4.11282
 Alpha virt. eigenvalues --    4.11663   4.12216   4.12476   4.14193   4.14735
 Alpha virt. eigenvalues --    4.15254   4.15615   4.16119   4.16620   4.17402
 Alpha virt. eigenvalues --    4.18039   4.19056   4.19784   4.20243   4.20614
 Alpha virt. eigenvalues --    4.20795   4.22265   4.22887   4.23710   4.23813
 Alpha virt. eigenvalues --    4.24872   4.25135   4.25414   4.27148   4.27313
 Alpha virt. eigenvalues --    4.27754   4.28643   4.29192   4.29495   4.30264
 Alpha virt. eigenvalues --    4.30647   4.30899   4.31869   4.32467   4.34100
 Alpha virt. eigenvalues --    4.34569   4.35896   4.36346   4.37294   4.38143
 Alpha virt. eigenvalues --    4.39413   4.40711   4.40932   4.41716   4.42416
 Alpha virt. eigenvalues --    4.43236   4.43979   4.45634   4.46412   4.47296
 Alpha virt. eigenvalues --    4.48574   4.49639   4.50363   4.51276   4.52106
 Alpha virt. eigenvalues --    4.53408   4.55115   4.56096   4.56436   4.57162
 Alpha virt. eigenvalues --    4.57877   4.59211   4.59374   4.60679   4.61439
 Alpha virt. eigenvalues --    4.63371   4.64938   4.67128   4.68563   4.70048
 Alpha virt. eigenvalues --    4.70496   4.71650   4.71953   4.72554   4.73269
 Alpha virt. eigenvalues --    4.74360   4.75192   4.76391   4.76523   4.78175
 Alpha virt. eigenvalues --    4.78932   4.79751   4.81175   4.82190   4.82974
 Alpha virt. eigenvalues --    4.83752   4.84238   4.85225   4.85927   4.86354
 Alpha virt. eigenvalues --    4.86940   4.88085   4.88839   4.90106   4.90552
 Alpha virt. eigenvalues --    4.91265   4.92913   4.94380   4.94641   4.96858
 Alpha virt. eigenvalues --    4.97769   4.98903   4.99882   5.00422   5.02061
 Alpha virt. eigenvalues --    5.05732   5.06984   5.09147   5.09321   5.09984
 Alpha virt. eigenvalues --    5.10514   5.10922   5.12441   5.13799   5.16086
 Alpha virt. eigenvalues --    5.18919   5.19865   5.23070   5.25160   5.26451
 Alpha virt. eigenvalues --    5.27955   5.28697   5.29624   5.30702   5.32265
 Alpha virt. eigenvalues --    5.33162   5.35001   5.36714   5.38633   5.39796
 Alpha virt. eigenvalues --    5.42326   5.44856   5.47600   5.48750   5.53916
 Alpha virt. eigenvalues --    5.54821   5.55914   5.56385   5.58949   5.60520
 Alpha virt. eigenvalues --    5.61266   5.67328   5.71706   5.74555   5.76815
 Alpha virt. eigenvalues --    5.79675   5.82906   5.87146   6.05364   6.25389
 Alpha virt. eigenvalues --    8.72833   9.27901   9.33485  19.99363  22.08077
 Alpha virt. eigenvalues --   22.24245  22.37213  22.39046  22.43446  22.48021
 Alpha virt. eigenvalues --   22.51185  22.53103  22.54990  22.58436  22.61982
 Alpha virt. eigenvalues --   22.62782  22.65854  22.67879  22.68761  22.71484
 Alpha virt. eigenvalues --   22.76125  22.77549  22.85545  22.88374  22.91783
 Alpha virt. eigenvalues --   22.95569  23.03520  23.05101  23.10266  23.26733
 Alpha virt. eigenvalues --   23.50386  23.58813  23.70922  31.89487  32.12235
 Alpha virt. eigenvalues --   32.25419
  Beta  occ. eigenvalues --  -89.13450 -14.54385 -14.54381 -14.43511 -10.42872
  Beta  occ. eigenvalues --  -10.42669 -10.41561 -10.41482 -10.40474 -10.39688
  Beta  occ. eigenvalues --  -10.39219 -10.38897 -10.38054 -10.37842 -10.37837
  Beta  occ. eigenvalues --  -10.37807 -10.37733 -10.37421 -10.36901 -10.36643
  Beta  occ. eigenvalues --  -10.36516 -10.36181 -10.36114 -10.35951 -10.35753
  Beta  occ. eigenvalues --  -10.35397 -10.35268 -10.34900 -10.34742 -10.34555
  Beta  occ. eigenvalues --  -10.33717 -10.33660 -10.32671  -8.20496  -6.16965
  Beta  occ. eigenvalues --   -6.16374  -6.16307  -1.21912  -1.09877  -1.09212
  Beta  occ. eigenvalues --   -1.07895  -1.05252  -1.04271  -1.03370  -1.01116
  Beta  occ. eigenvalues --   -0.99482  -0.97125  -0.96633  -0.94599  -0.94142
  Beta  occ. eigenvalues --   -0.93228  -0.92263  -0.90788  -0.87635  -0.86716
  Beta  occ. eigenvalues --   -0.84920  -0.83942  -0.82311  -0.81541  -0.79659
  Beta  occ. eigenvalues --   -0.78539  -0.77355  -0.76710  -0.76368  -0.74739
  Beta  occ. eigenvalues --   -0.73929  -0.70487  -0.70057  -0.69585  -0.68572
  Beta  occ. eigenvalues --   -0.68019  -0.66014  -0.64779  -0.64599  -0.64124
  Beta  occ. eigenvalues --   -0.63756  -0.63148  -0.62342  -0.61953  -0.61902
  Beta  occ. eigenvalues --   -0.61070  -0.60577  -0.60292  -0.59887  -0.59430
  Beta  occ. eigenvalues --   -0.59151  -0.57429  -0.57045  -0.56839  -0.56615
  Beta  occ. eigenvalues --   -0.56422  -0.56137  -0.55692  -0.55445  -0.55226
  Beta  occ. eigenvalues --   -0.54161  -0.53323  -0.52624  -0.51971  -0.51763
  Beta  occ. eigenvalues --   -0.51413  -0.51091  -0.50779  -0.50002  -0.49836
  Beta  occ. eigenvalues --   -0.49221  -0.48928  -0.48454  -0.47709  -0.45701
  Beta  occ. eigenvalues --   -0.44028  -0.43122  -0.41715  -0.41417  -0.41010
  Beta  occ. eigenvalues --   -0.37815  -0.37070
  Beta virt. eigenvalues --   -0.25585  -0.17335  -0.12132  -0.09174  -0.08451
  Beta virt. eigenvalues --   -0.07207  -0.06219  -0.05830  -0.05536  -0.04443
  Beta virt. eigenvalues --   -0.03056  -0.01361  -0.00973  -0.00493  -0.00011
  Beta virt. eigenvalues --    0.00233   0.00781   0.01626   0.02086   0.02677
  Beta virt. eigenvalues --    0.02740   0.03049   0.03423   0.03891   0.04557
  Beta virt. eigenvalues --    0.04754   0.05010   0.05231   0.05653   0.06183
  Beta virt. eigenvalues --    0.06592   0.07068   0.07448   0.07669   0.08055
  Beta virt. eigenvalues --    0.08378   0.08869   0.09144   0.09510   0.09656
  Beta virt. eigenvalues --    0.09783   0.10227   0.10581   0.10937   0.11233
  Beta virt. eigenvalues --    0.11369   0.11593   0.11819   0.12659   0.12840
  Beta virt. eigenvalues --    0.12951   0.13814   0.13925   0.14303   0.14605
  Beta virt. eigenvalues --    0.14777   0.14983   0.15248   0.15381   0.15636
  Beta virt. eigenvalues --    0.16132   0.16355   0.16647   0.16924   0.17133
  Beta virt. eigenvalues --    0.17332   0.17853   0.18050   0.18282   0.18332
  Beta virt. eigenvalues --    0.18799   0.19158   0.19463   0.19913   0.20341
  Beta virt. eigenvalues --    0.20559   0.20876   0.21389   0.21908   0.22417
  Beta virt. eigenvalues --    0.22599   0.22970   0.23441   0.23668   0.24003
  Beta virt. eigenvalues --    0.24167   0.24485   0.24630   0.24988   0.25205
  Beta virt. eigenvalues --    0.25368   0.25601   0.25690   0.26147   0.26483
  Beta virt. eigenvalues --    0.26731   0.26988   0.27451   0.27850   0.28097
  Beta virt. eigenvalues --    0.28520   0.28568   0.28740   0.28799   0.29242
  Beta virt. eigenvalues --    0.29498   0.30015   0.30328   0.30517   0.30609
  Beta virt. eigenvalues --    0.31310   0.31441   0.31636   0.31987   0.32108
  Beta virt. eigenvalues --    0.32276   0.32908   0.33060   0.33569   0.34093
  Beta virt. eigenvalues --    0.34387   0.34726   0.34987   0.35509   0.35588
  Beta virt. eigenvalues --    0.35954   0.36115   0.36503   0.36627   0.37088
  Beta virt. eigenvalues --    0.37515   0.37945   0.38082   0.38136   0.38399
  Beta virt. eigenvalues --    0.38621   0.38980   0.39056   0.39334   0.39540
  Beta virt. eigenvalues --    0.39906   0.40167   0.40726   0.40811   0.40998
  Beta virt. eigenvalues --    0.41521   0.41536   0.41922   0.42332   0.42566
  Beta virt. eigenvalues --    0.42780   0.43062   0.43598   0.43907   0.44099
  Beta virt. eigenvalues --    0.44252   0.44399   0.44637   0.44920   0.45705
  Beta virt. eigenvalues --    0.45850   0.46022   0.46212   0.46714   0.46984
  Beta virt. eigenvalues --    0.47512   0.47967   0.48365   0.48732   0.48772
  Beta virt. eigenvalues --    0.49398   0.49625   0.50005   0.50149   0.50600
  Beta virt. eigenvalues --    0.50839   0.51303   0.51773   0.52328   0.52668
  Beta virt. eigenvalues --    0.53161   0.53382   0.53578   0.54016   0.54184
  Beta virt. eigenvalues --    0.54917   0.56027   0.56300   0.56529   0.56994
  Beta virt. eigenvalues --    0.57032   0.57337   0.58167   0.58244   0.58643
  Beta virt. eigenvalues --    0.59404   0.59537   0.60053   0.60304   0.60720
  Beta virt. eigenvalues --    0.60864   0.61226   0.61502   0.61604   0.62223
  Beta virt. eigenvalues --    0.62608   0.63052   0.63316   0.63744   0.63999
  Beta virt. eigenvalues --    0.64356   0.64510   0.64952   0.65339   0.65550
  Beta virt. eigenvalues --    0.66054   0.66352   0.66654   0.66909   0.67367
  Beta virt. eigenvalues --    0.67927   0.68523   0.68814   0.69199   0.69445
  Beta virt. eigenvalues --    0.69811   0.70111   0.70353   0.70606   0.71445
  Beta virt. eigenvalues --    0.72153   0.72292   0.72630   0.73308   0.73480
  Beta virt. eigenvalues --    0.74323   0.74524   0.75176   0.75224   0.75539
  Beta virt. eigenvalues --    0.76587   0.77025   0.77402   0.77732   0.78216
  Beta virt. eigenvalues --    0.78342   0.78938   0.79503   0.80286   0.80452
  Beta virt. eigenvalues --    0.80713   0.81510   0.81954   0.82374   0.82865
  Beta virt. eigenvalues --    0.83234   0.83842   0.84271   0.84594   0.85239
  Beta virt. eigenvalues --    0.85687   0.86399   0.86595   0.86655   0.87227
  Beta virt. eigenvalues --    0.87872   0.87913   0.88206   0.88705   0.89448
  Beta virt. eigenvalues --    0.90552   0.91160   0.91654   0.92268   0.92799
  Beta virt. eigenvalues --    0.93191   0.93737   0.94266   0.94857   0.95201
  Beta virt. eigenvalues --    0.95781   0.96361   0.96719   0.97187   0.98218
  Beta virt. eigenvalues --    0.98826   0.99365   0.99982   1.00110   1.00275
  Beta virt. eigenvalues --    1.00641   1.01039   1.01806   1.01989   1.02395
  Beta virt. eigenvalues --    1.03201   1.03459   1.03599   1.04467   1.05044
  Beta virt. eigenvalues --    1.05692   1.06407   1.07298   1.07960   1.08130
  Beta virt. eigenvalues --    1.08880   1.09144   1.09793   1.10988   1.12249
  Beta virt. eigenvalues --    1.12369   1.12938   1.13411   1.13934   1.14276
  Beta virt. eigenvalues --    1.15341   1.16088   1.16561   1.17299   1.17335
  Beta virt. eigenvalues --    1.17955   1.18243   1.18995   1.19459   1.20207
  Beta virt. eigenvalues --    1.20603   1.20907   1.21241   1.21497   1.21807
  Beta virt. eigenvalues --    1.22191   1.22636   1.22976   1.23125   1.23719
  Beta virt. eigenvalues --    1.24244   1.24887   1.25212   1.25680   1.26273
  Beta virt. eigenvalues --    1.27137   1.27474   1.28037   1.28499   1.29069
  Beta virt. eigenvalues --    1.29605   1.29795   1.30288   1.31035   1.31527
  Beta virt. eigenvalues --    1.31896   1.32116   1.32877   1.32962   1.33565
  Beta virt. eigenvalues --    1.33813   1.34223   1.34891   1.35449   1.35780
  Beta virt. eigenvalues --    1.37023   1.37323   1.38074   1.38553   1.38764
  Beta virt. eigenvalues --    1.39170   1.39616   1.39832   1.40148   1.40922
  Beta virt. eigenvalues --    1.41459   1.41619   1.41768   1.42484   1.42848
  Beta virt. eigenvalues --    1.42952   1.43684   1.44167   1.44518   1.45148
  Beta virt. eigenvalues --    1.45197   1.46517   1.47227   1.47354   1.47619
  Beta virt. eigenvalues --    1.48709   1.48864   1.49581   1.49826   1.50003
  Beta virt. eigenvalues --    1.50574   1.51276   1.51741   1.52022   1.52547
  Beta virt. eigenvalues --    1.53169   1.53270   1.53665   1.53980   1.54435
  Beta virt. eigenvalues --    1.54552   1.54805   1.55044   1.55746   1.55988
  Beta virt. eigenvalues --    1.56407   1.57090   1.57610   1.58135   1.58426
  Beta virt. eigenvalues --    1.58987   1.59119   1.59463   1.59812   1.60129
  Beta virt. eigenvalues --    1.60552   1.61197   1.61655   1.62307   1.62515
  Beta virt. eigenvalues --    1.63230   1.64478   1.65474   1.65608   1.66002
  Beta virt. eigenvalues --    1.66376   1.67127   1.67841   1.68103   1.68606
  Beta virt. eigenvalues --    1.69529   1.69580   1.70199   1.70822   1.71204
  Beta virt. eigenvalues --    1.71411   1.71939   1.72190   1.72712   1.73290
  Beta virt. eigenvalues --    1.74567   1.74688   1.75059   1.75902   1.76204
  Beta virt. eigenvalues --    1.76342   1.76997   1.77060   1.78229   1.78515
  Beta virt. eigenvalues --    1.79110   1.80558   1.81284   1.81498   1.81961
  Beta virt. eigenvalues --    1.82841   1.83001   1.84556   1.84985   1.85265
  Beta virt. eigenvalues --    1.85974   1.86508   1.87377   1.88182   1.88250
  Beta virt. eigenvalues --    1.89316   1.89497   1.90009   1.90786   1.90891
  Beta virt. eigenvalues --    1.91383   1.91921   1.92860   1.92986   1.93295
  Beta virt. eigenvalues --    1.94138   1.94811   1.96154   1.97136   1.97741
  Beta virt. eigenvalues --    1.98234   1.98751   1.99089   1.99856   2.00162
  Beta virt. eigenvalues --    2.00908   2.01000   2.01775   2.02024   2.02499
  Beta virt. eigenvalues --    2.02800   2.03616   2.04131   2.04411   2.05002
  Beta virt. eigenvalues --    2.05625   2.06812   2.07340   2.07539   2.08105
  Beta virt. eigenvalues --    2.08765   2.09351   2.10175   2.10760   2.10960
  Beta virt. eigenvalues --    2.11748   2.12010   2.12620   2.13337   2.13822
  Beta virt. eigenvalues --    2.14069   2.15139   2.15375   2.15397   2.15740
  Beta virt. eigenvalues --    2.16126   2.17732   2.18142   2.18331   2.18978
  Beta virt. eigenvalues --    2.19871   2.20799   2.21242   2.21863   2.22002
  Beta virt. eigenvalues --    2.22968   2.23765   2.24624   2.25296   2.25391
  Beta virt. eigenvalues --    2.25797   2.25889   2.27511   2.28289   2.28592
  Beta virt. eigenvalues --    2.29246   2.30043   2.31127   2.31613   2.32982
  Beta virt. eigenvalues --    2.33168   2.33531   2.33805   2.35060   2.35410
  Beta virt. eigenvalues --    2.36133   2.37302   2.37986   2.38855   2.39050
  Beta virt. eigenvalues --    2.39485   2.40466   2.40651   2.40873   2.41069
  Beta virt. eigenvalues --    2.42155   2.42620   2.43263   2.43890   2.44604
  Beta virt. eigenvalues --    2.45290   2.45969   2.46443   2.47260   2.48052
  Beta virt. eigenvalues --    2.49167   2.49730   2.49959   2.51138   2.51290
  Beta virt. eigenvalues --    2.51770   2.52018   2.52280   2.53083   2.53771
  Beta virt. eigenvalues --    2.54009   2.54908   2.55496   2.55758   2.56326
  Beta virt. eigenvalues --    2.56718   2.57042   2.57407   2.58235   2.58789
  Beta virt. eigenvalues --    2.59402   2.60079   2.60427   2.60734   2.60836
  Beta virt. eigenvalues --    2.61312   2.61653   2.61949   2.62272   2.62608
  Beta virt. eigenvalues --    2.63415   2.63780   2.64441   2.65066   2.65184
  Beta virt. eigenvalues --    2.65644   2.66157   2.66490   2.67221   2.68043
  Beta virt. eigenvalues --    2.68229   2.68544   2.69180   2.69695   2.70002
  Beta virt. eigenvalues --    2.70112   2.70225   2.70354   2.71103   2.71759
  Beta virt. eigenvalues --    2.71915   2.72029   2.72609   2.73553   2.73766
  Beta virt. eigenvalues --    2.74319   2.74754   2.75236   2.76150   2.76460
  Beta virt. eigenvalues --    2.76999   2.77528   2.77689   2.77754   2.78490
  Beta virt. eigenvalues --    2.78861   2.78979   2.79160   2.79420   2.80250
  Beta virt. eigenvalues --    2.80808   2.81096   2.81579   2.82439   2.83066
  Beta virt. eigenvalues --    2.83470   2.83823   2.84064   2.84444   2.84800
  Beta virt. eigenvalues --    2.85001   2.86359   2.86607   2.87069   2.87496
  Beta virt. eigenvalues --    2.88141   2.88805   2.89226   2.89580   2.90064
  Beta virt. eigenvalues --    2.90407   2.90905   2.91628   2.91789   2.93053
  Beta virt. eigenvalues --    2.93494   2.93682   2.94825   2.95707   2.96217
  Beta virt. eigenvalues --    2.97137   2.97361   2.97946   2.98404   2.99122
  Beta virt. eigenvalues --    2.99325   2.99486   3.00413   3.01062   3.01932
  Beta virt. eigenvalues --    3.02240   3.02705   3.03145   3.03579   3.04396
  Beta virt. eigenvalues --    3.04661   3.04893   3.05298   3.06090   3.06391
  Beta virt. eigenvalues --    3.07037   3.07344   3.07966   3.08295   3.08547
  Beta virt. eigenvalues --    3.08784   3.09487   3.10275   3.10684   3.10925
  Beta virt. eigenvalues --    3.10956   3.11556   3.12060   3.12529   3.12620
  Beta virt. eigenvalues --    3.12945   3.13819   3.14181   3.14434   3.14901
  Beta virt. eigenvalues --    3.15032   3.15911   3.16392   3.16544   3.16962
  Beta virt. eigenvalues --    3.17230   3.17577   3.17910   3.18500   3.18914
  Beta virt. eigenvalues --    3.19418   3.19640   3.20259   3.20998   3.21741
  Beta virt. eigenvalues --    3.22268   3.22896   3.23408   3.23500   3.23918
  Beta virt. eigenvalues --    3.24220   3.24991   3.25217   3.25884   3.26113
  Beta virt. eigenvalues --    3.26300   3.26640   3.26882   3.27168   3.27462
  Beta virt. eigenvalues --    3.28095   3.28611   3.28782   3.29575   3.29750
  Beta virt. eigenvalues --    3.30017   3.30443   3.31193   3.31859   3.31931
  Beta virt. eigenvalues --    3.32405   3.33006   3.33362   3.33832   3.34284
  Beta virt. eigenvalues --    3.34396   3.35076   3.35145   3.35756   3.36508
  Beta virt. eigenvalues --    3.36798   3.37348   3.37746   3.38043   3.38503
  Beta virt. eigenvalues --    3.38776   3.39014   3.39649   3.40232   3.40473
  Beta virt. eigenvalues --    3.40708   3.41622   3.41983   3.42184   3.42928
  Beta virt. eigenvalues --    3.43315   3.43522   3.43840   3.44587   3.45135
  Beta virt. eigenvalues --    3.45164   3.46422   3.46678   3.46951   3.47266
  Beta virt. eigenvalues --    3.47995   3.48260   3.48467   3.49036   3.49408
  Beta virt. eigenvalues --    3.49635   3.50288   3.50588   3.51284   3.51486
  Beta virt. eigenvalues --    3.51898   3.52175   3.52557   3.53189   3.53608
  Beta virt. eigenvalues --    3.54645   3.54690   3.55585   3.55817   3.55893
  Beta virt. eigenvalues --    3.56438   3.57043   3.57889   3.58277   3.58658
  Beta virt. eigenvalues --    3.59141   3.60295   3.60609   3.61813   3.63104
  Beta virt. eigenvalues --    3.63933   3.65309   3.66058   3.66805   3.67114
  Beta virt. eigenvalues --    3.67802   3.68537   3.69337   3.70164   3.70732
  Beta virt. eigenvalues --    3.71617   3.72268   3.73259   3.74732   3.76088
  Beta virt. eigenvalues --    3.76099   3.77351   3.78829   3.79772   3.80530
  Beta virt. eigenvalues --    3.81417   3.82382   3.82674   3.83032   3.83765
  Beta virt. eigenvalues --    3.84042   3.84340   3.85164   3.85349   3.86622
  Beta virt. eigenvalues --    3.86767   3.87253   3.87822   3.88647   3.89517
  Beta virt. eigenvalues --    3.90261   3.91826   3.92743   3.93061   3.93809
  Beta virt. eigenvalues --    3.94813   3.95707   3.96291   3.96334   3.98069
  Beta virt. eigenvalues --    3.98744   3.98903   3.99840   4.00973   4.01827
  Beta virt. eigenvalues --    4.02059   4.02942   4.03176   4.03367   4.04371
  Beta virt. eigenvalues --    4.04718   4.05553   4.06029   4.06802   4.07912
  Beta virt. eigenvalues --    4.08466   4.09178   4.09960   4.10706   4.11012
  Beta virt. eigenvalues --    4.11393   4.11758   4.12330   4.12560   4.14318
  Beta virt. eigenvalues --    4.14882   4.15401   4.15776   4.16319   4.16800
  Beta virt. eigenvalues --    4.17503   4.18194   4.19234   4.19944   4.20396
  Beta virt. eigenvalues --    4.20739   4.21013   4.22438   4.23017   4.23828
  Beta virt. eigenvalues --    4.23975   4.24977   4.25271   4.25537   4.27354
  Beta virt. eigenvalues --    4.27444   4.27908   4.28811   4.29316   4.29600
  Beta virt. eigenvalues --    4.30423   4.30748   4.31040   4.32141   4.32632
  Beta virt. eigenvalues --    4.34192   4.34764   4.35997   4.36416   4.37441
  Beta virt. eigenvalues --    4.38398   4.39582   4.40767   4.41042   4.41855
  Beta virt. eigenvalues --    4.42552   4.43406   4.44037   4.45731   4.46503
  Beta virt. eigenvalues --    4.47406   4.48646   4.49749   4.50433   4.51354
  Beta virt. eigenvalues --    4.52296   4.53576   4.55225   4.56250   4.56551
  Beta virt. eigenvalues --    4.57352   4.58007   4.59335   4.59495   4.60823
  Beta virt. eigenvalues --    4.61545   4.63468   4.65071   4.67273   4.68739
  Beta virt. eigenvalues --    4.70194   4.70620   4.71762   4.72081   4.72675
  Beta virt. eigenvalues --    4.73391   4.74480   4.75344   4.76510   4.76664
  Beta virt. eigenvalues --    4.78256   4.79094   4.79896   4.81318   4.82312
  Beta virt. eigenvalues --    4.83092   4.83862   4.84359   4.85377   4.86112
  Beta virt. eigenvalues --    4.86438   4.87053   4.88229   4.88855   4.90274
  Beta virt. eigenvalues --    4.90745   4.91365   4.93047   4.94497   4.94689
  Beta virt. eigenvalues --    4.96964   4.97903   4.99001   4.99989   5.00538
  Beta virt. eigenvalues --    5.02196   5.05860   5.07118   5.09290   5.09465
  Beta virt. eigenvalues --    5.10087   5.10580   5.11123   5.12490   5.13838
  Beta virt. eigenvalues --    5.16166   5.19021   5.19968   5.23148   5.25231
  Beta virt. eigenvalues --    5.26509   5.28039   5.28829   5.29658   5.30794
  Beta virt. eigenvalues --    5.32354   5.33253   5.35072   5.36815   5.38735
  Beta virt. eigenvalues --    5.39899   5.42425   5.44953   5.47696   5.48866
  Beta virt. eigenvalues --    5.53996   5.54857   5.56030   5.56469   5.59048
  Beta virt. eigenvalues --    5.60610   5.61332   5.67458   5.71829   5.74670
  Beta virt. eigenvalues --    5.76903   5.79690   5.82967   5.87264   6.05430
  Beta virt. eigenvalues --    6.25447   8.72725   9.27878   9.33459  19.99327
  Beta virt. eigenvalues --   22.08146  22.24284  22.37212  22.39073  22.43447
  Beta virt. eigenvalues --   22.48090  22.51237  22.53163  22.55025  22.58473
  Beta virt. eigenvalues --   22.62088  22.62815  22.65970  22.67927  22.68824
  Beta virt. eigenvalues --   22.71572  22.76157  22.77629  22.85606  22.88465
  Beta virt. eigenvalues --   22.91809  22.95595  23.03674  23.05229  23.10342
  Beta virt. eigenvalues --   23.26801  23.50494  23.58901  23.71032  31.89491
  Beta virt. eigenvalues --   32.12320  32.25502
          Condensed to atoms (all electrons):
          Atomic-Atomic Spin Densities.
 Mulliken charges and spin densities:
               1          2
     1  C   -0.104039   0.073715
     2  C    0.147411   0.100353
     3  C   -0.160873   0.043234
     4  C   -0.060279  -0.010856
     5  C    0.193304   0.179789
     6  C   -0.210491  -0.042842
     7  H    0.166092  -0.003261
     8  H    0.158084  -0.001389
     9  H    0.155037   0.000618
    10  C    0.049864  -0.013725
    11  C   -0.003869   0.095810
    12  C   -0.180496  -0.057988
    13  C   -0.100170   0.118389
    14  C   -0.114399  -0.043172
    15  C   -0.178343   0.069811
    16  C    0.072007  -0.021485
    17  H    0.152145   0.002123
    18  H    0.159328  -0.005067
    19  H    0.156328   0.001632
    20  H    0.148287  -0.003298
    21  C   -0.365057   0.000172
    22  H    0.142597  -0.000305
    23  H    0.128917   0.000436
    24  H    0.144775  -0.000091
    25  C   -0.366701   0.000062
    26  H    0.125971   0.000496
    27  H    0.143061  -0.000160
    28  H    0.144470  -0.000080
    29  C    0.066216   0.071902
    30  C    0.063795   0.013191
    31  C   -0.150526   0.087150
    32  C    0.064298  -0.024170
    33  C   -0.179500  -0.035390
    34  H    0.159313  -0.004604
    35  C    0.106345   0.195779
    36  H    0.163484   0.000215
    37  N   -0.267355   0.015458
    38  N   -0.247383   0.059150
    39  S    0.413845  -0.031460
    40  C    0.111982  -0.007597
    41  C   -0.136573   0.074928
    42  C   -0.143884   0.074001
    43  C   -0.198233  -0.044956
    44  H    0.157123  -0.003180
    45  C   -0.202588  -0.042963
    46  H    0.147040  -0.003120
    47  C    0.153841   0.113041
    48  H    0.148622   0.001693
    49  H    0.154370   0.001605
    50  C   -0.213795  -0.006227
    51  H    0.132688   0.001699
    52  H    0.126540   0.002169
    53  C   -0.157065   0.007241
    54  H    0.110089   0.000178
    55  H    0.117779  -0.000055
    56  N   -0.482623   0.001124
    57  H    0.215755  -0.000036
    58  H    0.223437   0.000311
 Sum of Mulliken charges =   1.00000   1.00000
 Mulliken charges and spin densities with hydrogens summed into heavy atoms:
               1          2
     1  C    0.062053   0.070454
     2  C    0.147411   0.100353
     3  C   -0.002788   0.041845
     4  C   -0.060279  -0.010856
     5  C    0.193304   0.179789
     6  C   -0.055454  -0.042224
    10  C    0.049864  -0.013725
    11  C   -0.003869   0.095810
    12  C   -0.028351  -0.055864
    13  C    0.059158   0.113322
    14  C    0.041930  -0.041540
    15  C   -0.030055   0.066513
    16  C    0.072007  -0.021485
    21  C    0.051233   0.000213
    25  C    0.046801   0.000318
    29  C    0.066216   0.071902
    30  C    0.063795   0.013191
    31  C    0.008787   0.082547
    32  C    0.064298  -0.024170
    33  C   -0.016016  -0.035175
    35  C    0.106345   0.195779
    37  N   -0.267355   0.015458
    38  N   -0.247383   0.059150
    39  S    0.413845  -0.031460
    40  C    0.111982  -0.007597
    41  C    0.020550   0.071747
    42  C    0.003157   0.070881
    43  C   -0.049612  -0.043262
    45  C   -0.048218  -0.041358
    47  C    0.153841   0.113041
    50  C    0.045433  -0.002359
    53  C    0.070802   0.007365
    56  N   -0.043431   0.001399
 Electronic spatial extent (au):  <R**2>=          27599.5725
 Charge=              1.0000 electrons
 Dipole moment (field-independent basis, Debye):
    X=             -2.8790    Y=             -0.2504    Z=             -0.1127  Tot=              2.8921
 Quadrupole moment (field-independent basis, Debye-Ang):
   XX=            -30.0452   YY=           -167.5137   ZZ=           -199.2301
   XY=             10.9476   XZ=              4.1571   YZ=             -4.6503
 Traceless Quadrupole moment (field-independent basis, Debye-Ang):
   XX=            102.2178   YY=            -35.2507   ZZ=            -66.9671
   XY=             10.9476   XZ=              4.1571   YZ=             -4.6503
 Octapole moment (field-independent basis, Debye-Ang**2):
  XXX=            -68.2924  YYY=             36.0293  ZZZ=             18.1761  XYY=            -48.9036
  XXY=             53.2462  XXZ=             51.1193  XZZ=             44.4233  YZZ=              3.1595
  YYZ=              4.1073  XYZ=              7.6691
 Hexadecapole moment (field-independent basis, Debye-Ang**3):
 XXXX=         -21575.4404 YYYY=          -3114.6921 ZZZZ=           -638.9012 XXXY=           1140.0948
 XXXZ=            728.7007 YYYX=            115.2106 YYYZ=              5.7262 ZZZX=             69.0981
 ZZZY=             -0.0054 XXYY=          -5910.9892 XXZZ=          -5729.2893 YYZZ=           -669.7666
 XXYZ=           -311.7559 YYXZ=             31.1918 ZZXY=              2.0446
 N-N= 3.079658737062D+03 E-N=-1.006120552708D+04  KE= 1.674730417491D+03
 Leave Link  601 at Thu Mar 14 13:02:36 2024, MaxMem= 32212254720 cpu:              28.5 elap:               1.1
 (Enter /home/<user>/g16/l9999.exe)
 Electronic transition elements 
                 1             2             3             4             5 
      1  -0.168207D+04 -0.168205D+04 -0.168204D+04 -0.168204D+04 -0.168203D+04
      2   0.500177D+01 -0.483640D+00 -0.231049D+00  0.136168D+01 -0.253167D+01
      3  -0.142630D-01 -0.981264D-02 -0.294556D+00  0.210270D+00  0.218036D+00
      4  -0.503965D-01  0.320971D-01 -0.225650D-01 -0.242634D-01  0.643891D-02
      5  -0.206008D+00  0.340282D-01  0.177701D-01 -0.107788D+00  0.203825D+00
      6   0.591278D-03  0.923007D-03  0.221730D-01 -0.169712D-01 -0.177705D-01
      7   0.206871D-02 -0.229791D-02  0.158334D-02  0.198151D-02 -0.449720D-03
      8   0.100342D-01 -0.132156D-02 -0.264100D-01 -0.250087D-01 -0.211685D-01
      9   0.125919D+00 -0.169469D+00 -0.742755D-01  0.536991D-01 -0.148467D+00
     10   0.113692D+00 -0.617368D+00 -0.495879D+00  0.735700D-01  0.176225D+00
     11   0.477413D+00  0.577797D-01 -0.169514D+01  0.603735D+00  0.383693D+00
     12  -0.190670D-01  0.266227D-02  0.958748D-01 -0.330412D-01  0.125366D-02
     13   0.137932D-02  0.410760D-02 -0.762002D-02  0.247794D-02  0.459247D-02
     14   0.138973D+00 -0.420941D-01  0.556831D-01  0.561164D-01 -0.117689D+00
     15   0.520144D-01 -0.107678D-01  0.134759D-01 -0.649492D-02 -0.632527D-01
     16  -0.301402D-01 -0.743794D-02  0.285835D-01 -0.173236D-01  0.242355D-01
                 6             7             8             9            10 
      1  -0.168203D+04 -0.168203D+04 -0.168203D+04 -0.168201D+04 -0.168201D+04
      2   0.312408D+00 -0.629703D+00  0.822980D+00 -0.143091D+01 -0.113375D+00
      3  -0.176995D+00  0.140318D+00 -0.200978D+00 -0.110206D+00  0.895156D-01
      4  -0.291881D-01  0.832912D-01 -0.458559D-01 -0.812472D-02  0.398237D-01
      5  -0.254567D-01  0.541615D-01 -0.736974D-01  0.154067D+00  0.124111D-01
      6   0.141518D-01 -0.119377D-01  0.180612D-01  0.116331D-01 -0.995525D-02
      7   0.237697D-02 -0.728058D-02  0.411927D-02  0.853201D-03 -0.445200D-02
      8   0.153913D-01  0.120911D-01  0.966661D-02 -0.724792D-02  0.104423D-01
      9   0.161635D+00  0.914285D-02 -0.813669D-01 -0.954442D-01 -0.622572D-02
     10   0.294073D+00  0.314351D+00  0.699461D+00 -0.175078D+00 -0.828458D-01
     11  -0.128165D+01  0.826131D+00 -0.628311D+00 -0.985877D+00 -0.330308D+00
     12   0.628809D-01 -0.575170D-01  0.609063D-01  0.410134D-01 -0.615530D-01
     13  -0.333752D-03  0.281961D-02 -0.376264D-02 -0.214623D-03  0.130012D-01
     14   0.255269D+00 -0.109105D+00  0.105444D+00 -0.285038D-01 -0.120712D+00
     15  -0.187889D-01 -0.881925D-01  0.362756D-01 -0.188693D-01 -0.869942D-02
     16   0.155731D-01 -0.925376D-02  0.696751D-02  0.361671D-01 -0.475555D-01

 Test job not archived.
 1\1\GINC-PB-207\SP\UCAM-B3LYP TD-FC\def2TZVP\C29H25N3S1(1+,2)\PB-207\1
 4-Mar-2024\0\\#p td=(nstates=10) cam-b3lyp/def2tzvp\\H0ABS\\1,2\C,0,-2
 .437354,1.612708,-0.421714\C,0,-1.785402,0.369225,-0.15839\C,0,-2.5967
 64,-0.781503,0.080884\C,0,-3.966721,-0.682916,0.062051\C,0,-4.593876,0
 .565964,-0.214654\C,0,-3.813662,1.711495,-0.459721\H,0,-1.835631,2.490
 922,-0.609559\H,0,-2.129446,-1.728602,0.329291\H,0,-4.282046,2.66561,-
 0.681279\C,0,-5.012716,-1.766827,0.317932\C,0,-6.301348,-0.970487,0.12
 8834\C,0,-7.616206,-1.40444,0.221364\C,0,-8.648899,-0.482327,0.008253\
 C,0,-8.375528,0.863518,-0.29574\C,0,-7.064434,1.309889,-0.391874\C,0,-
 6.025001,0.387127,-0.178785\H,0,-7.852765,-2.438513,0.455582\H,0,-9.68
 1443,-0.811681,0.079352\H,0,-9.197642,1.55407,-0.455646\H,0,-6.849705,
 2.348215,-0.627162\C,0,-4.903682,-2.327065,1.755611\H,0,-5.705516,-3.0
 48234,1.945461\H,0,-3.948786,-2.845335,1.896442\H,0,-4.976473,-1.53008
 6,2.502038\C,0,-4.902262,-2.91589,-0.71082\H,0,-3.948717,-3.443749,-0.
 598867\H,0,-5.705096,-3.64445,-0.556922\H,0,-4.971565,-2.542405,-1.737
 212\C,0,-0.340099,0.255663,-0.153565\C,0,0.56383,1.362511,0.086079\C,0
 ,0.29914,-0.974822,-0.395514\C,0,2.007216,1.183104,0.049395\C,0,1.6839
 84,-1.143901,-0.435097\H,0,-0.308964,-1.841399,-0.627806\C,0,2.606173,
 -0.103548,-0.231915\H,0,2.057735,-2.127746,-0.694243\N,0,0.201085,2.60
 4824,0.411057\N,0,2.680446,2.296416,0.348234\S,0,1.576241,3.471069,0.6
 39978\C,0,4.041508,-0.333222,-0.306556\C,0,4.954675,0.693733,-0.655668
 \C,0,4.571658,-1.624962,-0.053602\C,0,6.311112,0.430791,-0.757932\H,0,
 4.586611,1.68852,-0.867984\C,0,5.930515,-1.869088,-0.139749\H,0,3.9141
 15,-2.430187,0.256897\C,0,6.833453,-0.85045,-0.502748\H,0,6.985244,1.2
 30375,-1.053249\H,0,6.310644,-2.863852,0.07657\C,0,8.311037,-1.119757,
 -0.569568\H,0,8.50229,-2.16868,-0.817334\H,0,8.76645,-0.509227,-1.3598
 41\C,0,9.032704,-0.816002,0.768275\H,0,8.860141,0.242544,1.032508\H,0,
 8.573748,-1.416803,1.562291\N,0,10.434718,-1.201205,0.664508\H,0,10.95
 0592,-0.535395,0.09205\H,0,10.87431,-1.20239,1.58199\\Version=ES64L-G1
 6RevC.01\State=2-A\HF=-1682.1154911\S2=0.807558\S2-1=0.\S2A=0.75225\RM
 SD=9.136e-09\PG=C01 [X(C29H25N3S1)]\\@


 "MATHEMATICS IS THE ART OF GIVING THE SAME NAME
 TO DIFFERENT THINGS."
                    - H. POINCARE
 Job cpu time:       1 days 16 hours 31 minutes 40.5 seconds.
 Elapsed time:       0 days  1 hours 21 minutes  3.8 seconds.
 File lengths (MBytes):  RWF=   6347 Int=      0 D2E=      0 Chk=    551 Scr=      1
 Normal termination of Gaussian 16 at Thu Mar 14 13:02:38 2024.
