%mem=240GB
%nprocshared=30
%chk=FBTP_E0abs.chk
#p td=(nstates=10) cam-b3lyp/def2tzvp

E0ABS

-1 2
C	 -2.487569    1.675698   -0.287557
C	 -1.790578    0.440949   -0.171452
C	 -2.586621   -0.727280    0.002399
C	 -3.966959   -0.654482    0.029083
C	 -4.634099    0.581322   -0.106479
C	 -3.875126    1.747673   -0.261012
H	 -1.905774    2.581689   -0.393202
H	 -2.098529   -1.686176    0.150420
H	 -4.361725    2.716461   -0.362379
C	 -4.974979   -1.793027    0.212239
C	 -6.301911   -1.033209    0.151746
C	 -7.594951   -1.526566    0.253611
C	 -8.681319   -0.641232    0.170981
C	 -8.456934    0.726761   -0.011659
C	 -7.158068    1.232276   -0.114542
C	 -6.072690    0.351099   -0.033659
H	 -7.772984   -2.591110    0.396835
H	 -9.697614   -1.020210    0.249425
H	 -9.303784    1.407244   -0.074361
H	 -6.994643    2.298143   -0.255862
C	 -4.793291   -2.494891    1.575962
H	 -5.556448   -3.269783    1.724331
H	 -3.808437   -2.973116    1.635343
H	 -4.870395   -1.775770    2.397812
C	 -4.868770   -2.828753   -0.928417
H	 -3.884750   -3.312376   -0.918812
H	 -5.632288   -3.610290   -0.823177
H	 -5.000952   -2.349624   -1.903957
C	 -0.330929    0.344847   -0.240322
C	  0.563328    1.451349   -0.015617
C	  0.299593   -0.884872   -0.545238
C	  2.027603    1.266026   -0.060109
C	  1.676189   -1.055804   -0.586735
H	 -0.318617   -1.734979   -0.817696
C	  2.602731   -0.021783   -0.328337
H	  2.052709   -2.030251   -0.885007
N	  0.193199    2.706998    0.269956
N	  2.718129    2.388470    0.191451
S	  1.596302    3.602247    0.467604
C	  4.049354   -0.286234   -0.346745
C	  5.017015    0.724160   -0.560084
C	  4.551665   -1.598092   -0.167671
C	  6.376386    0.429821   -0.609620
H	  4.681764    1.746043   -0.681449
C	  5.912183   -1.881689   -0.219083
H	  3.860946   -2.408887    0.043004
C	  6.861434   -0.874839   -0.443568
H	  7.083356    1.240250   -0.788737
H	  6.246991   -2.908447   -0.071853
C	  8.343785   -1.174829   -0.445454
H	  8.539543   -2.184069   -0.829521
H	  8.864056   -0.476391   -1.118858
C	  8.977577   -1.066402    0.950427
H	  8.755489   -0.066111    1.362316
H	  8.495800   -1.791948    1.617390
N	 10.414519   -1.385377    0.899090
H	 10.886637   -0.680889    0.331110
H	 10.813575   -1.293973    1.833204

