 Entering Gaussian System, Link 0=g16
 Initial command:
 /home/<user>/g16/l1.exe "/media/<user>/Gaussian/g16/scratch/Gau-217782.inp" -scrdir="/media/<user>/Gaussian/g16/scratch/"
 Default is to use a total of  96 processors:
                               96 via shared-memory
                                1 via Linda
 Entering Link 1 = /home/<user>/g16/l1.exe PID=    217784.
  
 Copyright (c) 1988-2019, Gaussian, Inc.  All Rights Reserved.
  
 This is part of the Gaussian(R) 16 program.  It is based on
 the Gaussian(R) 09 system (copyright 2009, Gaussian, Inc.),
 the Gaussian(R) 03 system (copyright 2003, Gaussian, Inc.),
 the Gaussian(R) 98 system (copyright 1998, Gaussian, Inc.),
 the Gaussian(R) 94 system (copyright 1995, Gaussian, Inc.),
 the Gaussian 92(TM) system (copyright 1992, Gaussian, Inc.),
 the Gaussian 90(TM) system (copyright 1990, Gaussian, Inc.),
 the Gaussian 88(TM) system (copyright 1988, Gaussian, Inc.),
 the Gaussian 86(TM) system (copyright 1986, Carnegie Mellon
 University), and the Gaussian 82(TM) system (copyright 1983,
 Carnegie Mellon University). Gaussian is a federally registered
 trademark of Gaussian, Inc.
  
 This software contains proprietary and confidential information,
 including trade secrets, belonging to Gaussian, Inc.
  
 This software is provided under written license and may be
 used, copied, transmitted, or stored only in accord with that
 written license.
  
 The following legend is applicable only to US Government
 contracts under FAR:
  
                    RESTRICTED RIGHTS LEGEND
  
 Use, reproduction and disclosure by the US Government is
 subject to restrictions as set forth in subparagraphs (a)
 and (c) of the Commercial Computer Software - Restricted
 Rights clause in FAR 52.227-19.
  
 Gaussian, Inc.
 340 Quinnipiac St., Bldg. 40, Wallingford CT 06492
  
  
 ---------------------------------------------------------------
 Warning -- This program may not be used in any manner that
 competes with the business of Gaussian, Inc. or will provide
 assistance to any competitor of Gaussian, Inc.  The licensee
 of this program is prohibited from giving any competitor of
 Gaussian, Inc. access to this program.  By using this program,
 the user acknowledges that Gaussian, Inc. is engaged in the
 business of creating and licensing software in the field of
 computational chemistry and represents and warrants to the
 licensee that it is not a competitor of Gaussian, Inc. and that
 it will not use this program in any manner prohibited above.
 ---------------------------------------------------------------
  

 Cite this work as:
 Gaussian 16, Revision C.01,
 M. J. Frisch, G. W. Trucks, H. B. Schlegel, G. E. Scuseria, 
 M. A. Robb, J. R. Cheeseman, G. Scalmani, V. Barone, 
 G. A. Petersson, H. Nakatsuji, X. Li, M. Caricato, A. V. Marenich, 
 J. Bloino, B. G. Janesko, R. Gomperts, B. Mennucci, H. P. Hratchian, 
 J. V. Ortiz, A. F. Izmaylov, J. L. Sonnenberg, D. Williams-Young, 
 F. Ding, F. Lipparini, F. Egidi, J. Goings, B. Peng, A. Petrone, 
 T. Henderson, D. Ranasinghe, V. G. Zakrzewski, J. Gao, N. Rega, 
 G. Zheng, W. Liang, M. Hada, M. Ehara, K. Toyota, R. Fukuda, 
 J. Hasegawa, M. Ishida, T. Nakajima, Y. Honda, O. Kitao, H. Nakai, 
 T. Vreven, K. Throssell, J. A. Montgomery, Jr., J. E. Peralta, 
 F. Ogliaro, M. J. Bearpark, J. J. Heyd, E. N. Brothers, K. N. Kudin, 
 V. N. Staroverov, T. A. Keith, R. Kobayashi, J. Normand, 
 K. Raghavachari, A. P. Rendell, J. C. Burant, S. S. Iyengar, 
 J. Tomasi, M. Cossi, J. M. Millam, M. Klene, C. Adamo, R. Cammi, 
 J. W. Ochterski, R. L. Martin, K. Morokuma, O. Farkas, 
 J. B. Foresman, and D. J. Fox, Gaussian, Inc., Wallingford CT, 2019.
 
 ******************************************
 Gaussian 16:  ES64L-G16RevC.01  3-Jul-2019
                14-Mar-2024 
 ******************************************
 %mem=240GB
 %nprocshared=30
 Will use up to   30 processors via shared memory.
 %chk=FBTP_H0opt.chk
 Default route: IOp(8/117=-99) IOp(7/127=-99)
 ---------------------
 #p opt b3lyp/6-31g(d)
 ---------------------
 1/18=20,19=15,26=3,38=1/1,3;
 2/9=110,12=2,17=6,18=5,40=1/2;
 3/5=1,6=6,7=1,11=2,25=1,30=1,71=1,74=-5/1,2,3;
 4//1;
 5/5=2,38=5/2;
 6/7=2,8=2,9=2,10=2,28=1/1;
 7/127=-99/1,2,3,16;
 1/18=20,19=15,26=3/3(2);
 2/9=110/2;
 99//99;
 2/9=110/2;
 3/5=1,6=6,7=1,11=2,25=1,30=1,71=1,74=-5/1,2,3;
 4/5=5,16=3,69=1/1;
 5/5=2,38=5/2;
 7/127=-99/1,2,3,16;
 1/18=20,19=15,26=3/3(-5);
 2/9=110/2;
 6/7=2,8=2,9=2,10=2,19=2,28=1/1;
 99/9=1/99;
 Leave Link    1 at Thu Mar 14 11:31:13 2024, MaxMem= 32212254720 cpu:               1.3 elap:               0.0
 (Enter /home/<user>/g16/l101.exe)
 -----
 H0OPT
 -----
 Symbolic Z-matrix:
 Charge =  1 Multiplicity = 2
 C                    -2.44542   1.57695  -0.64076 
 C                    -1.80077   0.3779   -0.27654 
 C                    -2.59319  -0.73283   0.08439 
 C                    -3.97616  -0.63937   0.06755 
 C                    -4.60488   0.56401  -0.30831 
 C                    -3.8351    1.67379  -0.66176 
 H                    -1.84701   2.4381   -0.91227 
 H                    -2.10824  -1.65197   0.40334 
 H                    -4.30591   2.60911  -0.95355 
 C                    -5.01102  -1.70522   0.42978 
 C                    -6.31491  -0.94163   0.19669 
 C                    -7.62391  -1.38318   0.3531 
 C                    -8.6784   -0.50296   0.08175 
 C                    -8.42139   0.80541  -0.34166 
 C                    -7.1091    1.25543  -0.5009 
 C                    -6.05737   0.37695  -0.23066 
 H                    -7.83509  -2.39808   0.68234 
 H                    -9.70499  -0.83893   0.20136 
 H                    -9.2502    1.47734  -0.54828 
 H                    -6.91421   2.27303  -0.82994 
 C                    -4.87345  -2.14582   1.90459 
 H                    -5.66193  -2.85955   2.17027 
 H                    -3.90685  -2.6342    2.07473 
 H                    -4.94654  -1.28807   2.58062 
 C                    -4.90395  -2.93496  -0.49962 
 H                    -3.93825  -3.43701  -0.36795 
 H                    -5.6931   -3.66141  -0.2734 
 H                    -4.99819  -2.64437  -1.55083 
 C                    -0.3266    0.25076  -0.29718 
 C                     0.5618    1.31728   0.08692 
 C                     0.29685  -0.92087  -0.68218 
 C                     2.01063   1.14113   0.06218 
 C                     1.70739  -1.09191  -0.70634 
 H                    -0.31617  -1.75125  -1.01973 
 C                     2.60447  -0.10485  -0.34686 
 H                     2.09278  -2.04338  -1.06061 
 N                     0.18514   2.52621   0.51989 
 N                     2.68058   2.22307   0.47675 
 S                     1.5587    3.35942   0.85873 
 C                     4.06691  -0.33176  -0.37637 
 C                     4.97177   0.6724   -0.76291 
 C                     4.59257  -1.59367  -0.04558 
 C                     6.33845   0.41378  -0.82591 
 H                     4.60057   1.65686  -1.02192 
 C                     5.96046  -1.84282  -0.10778 
 H                     3.92282  -2.3818    0.28715 
 C                     6.86199  -0.84468  -0.5009 
 H                     7.01344   1.20664  -1.14169 
 H                     6.33657  -2.82831   0.15869 
 C                     8.35077  -1.10594  -0.52408 
 H                     8.55692  -2.15344  -0.7719 
 H                     8.82176  -0.4961   -1.3078 
 C                     9.02992  -0.7933    0.82109 
 H                     8.81369   0.25527   1.09479 
 H                     8.57745  -1.41786   1.60108 
 N                     10.45827  -1.11993   0.75581 
 H                     10.92674  -0.47468   0.12 
 H                     10.8867  -0.97225   1.66832 
 
 ITRead=  0  0  0  0  0  0  0  0  0  0  0  0  0  0  0  0  0  0  0  0
 ITRead=  0  0  0  0  0  0  0  0  0  0  0  0  0  0  0  0  0  0  0  0
 ITRead=  0  0  0  0  0  0  0  0  0  0  0  0  0  0  0  0  0  0
 MicOpt= -1 -1 -1 -1 -1 -1 -1 -1 -1 -1 -1 -1 -1 -1 -1 -1 -1 -1 -1 -1
 MicOpt= -1 -1 -1 -1 -1 -1 -1 -1 -1 -1 -1 -1 -1 -1 -1 -1 -1 -1 -1 -1
 MicOpt= -1 -1 -1 -1 -1 -1 -1 -1 -1 -1 -1 -1 -1 -1 -1 -1 -1 -1
 NAtoms=     58 NQM=       58 NQMF=       0 NMMI=      0 NMMIF=      0
                NMic=       0 NMicF=      0.
                    Isotopes and Nuclear Properties:
 (Nuclear quadrupole moments (NQMom) in fm**2, nuclear magnetic moments (NMagM)
  in nuclear magnetons)

  Atom         1           2           3           4           5           6           7           8           9          10
 IAtWgt=          12          12          12          12          12          12           1           1           1          12
 AtmWgt=  12.0000000  12.0000000  12.0000000  12.0000000  12.0000000  12.0000000   1.0078250   1.0078250   1.0078250  12.0000000
 NucSpn=           0           0           0           0           0           0           1           1           1           0
 AtZEff=  -0.0000000  -0.0000000  -0.0000000  -0.0000000  -0.0000000  -0.0000000  -0.0000000  -0.0000000  -0.0000000  -0.0000000
 NQMom=    0.0000000   0.0000000   0.0000000   0.0000000   0.0000000   0.0000000   0.0000000   0.0000000   0.0000000   0.0000000
 NMagM=    0.0000000   0.0000000   0.0000000   0.0000000   0.0000000   0.0000000   2.7928460   2.7928460   2.7928460   0.0000000
 AtZNuc=   6.0000000   6.0000000   6.0000000   6.0000000   6.0000000   6.0000000   1.0000000   1.0000000   1.0000000   6.0000000

  Atom        11          12          13          14          15          16          17          18          19          20
 IAtWgt=          12          12          12          12          12          12           1           1           1           1
 AtmWgt=  12.0000000  12.0000000  12.0000000  12.0000000  12.0000000  12.0000000   1.0078250   1.0078250   1.0078250   1.0078250
 NucSpn=           0           0           0           0           0           0           1           1           1           1
 AtZEff=  -0.0000000  -0.0000000  -0.0000000  -0.0000000  -0.0000000  -0.0000000  -0.0000000  -0.0000000  -0.0000000  -0.0000000
 NQMom=    0.0000000   0.0000000   0.0000000   0.0000000   0.0000000   0.0000000   0.0000000   0.0000000   0.0000000   0.0000000
 NMagM=    0.0000000   0.0000000   0.0000000   0.0000000   0.0000000   0.0000000   2.7928460   2.7928460   2.7928460   2.7928460
 AtZNuc=   6.0000000   6.0000000   6.0000000   6.0000000   6.0000000   6.0000000   1.0000000   1.0000000   1.0000000   1.0000000

  Atom        21          22          23          24          25          26          27          28          29          30
 IAtWgt=          12           1           1           1          12           1           1           1          12          12
 AtmWgt=  12.0000000   1.0078250   1.0078250   1.0078250  12.0000000   1.0078250   1.0078250   1.0078250  12.0000000  12.0000000
 NucSpn=           0           1           1           1           0           1           1           1           0           0
 AtZEff=  -0.0000000  -0.0000000  -0.0000000  -0.0000000  -0.0000000  -0.0000000  -0.0000000  -0.0000000  -0.0000000  -0.0000000
 NQMom=    0.0000000   0.0000000   0.0000000   0.0000000   0.0000000   0.0000000   0.0000000   0.0000000   0.0000000   0.0000000
 NMagM=    0.0000000   2.7928460   2.7928460   2.7928460   0.0000000   2.7928460   2.7928460   2.7928460   0.0000000   0.0000000
 AtZNuc=   6.0000000   1.0000000   1.0000000   1.0000000   6.0000000   1.0000000   1.0000000   1.0000000   6.0000000   6.0000000

  Atom        31          32          33          34          35          36          37          38          39          40
 IAtWgt=          12          12          12           1          12           1          14          14          32          12
 AtmWgt=  12.0000000  12.0000000  12.0000000   1.0078250  12.0000000   1.0078250  14.0030740  14.0030740  31.9720718  12.0000000
 NucSpn=           0           0           0           1           0           1           2           2           0           0
 AtZEff=  -0.0000000  -0.0000000  -0.0000000  -0.0000000  -0.0000000  -0.0000000  -0.0000000  -0.0000000  -0.0000000  -0.0000000
 NQMom=    0.0000000   0.0000000   0.0000000   0.0000000   0.0000000   0.0000000   2.0440000   2.0440000   0.0000000   0.0000000
 NMagM=    0.0000000   0.0000000   0.0000000   2.7928460   0.0000000   2.7928460   0.4037610   0.4037610   0.0000000   0.0000000
 AtZNuc=   6.0000000   6.0000000   6.0000000   1.0000000   6.0000000   1.0000000   7.0000000   7.0000000  16.0000000   6.0000000

  Atom        41          42          43          44          45          46          47          48          49          50
 IAtWgt=          12          12          12           1          12           1          12           1           1          12
 AtmWgt=  12.0000000  12.0000000  12.0000000   1.0078250  12.0000000   1.0078250  12.0000000   1.0078250   1.0078250  12.0000000
 NucSpn=           0           0           0           1           0           1           0           1           1           0
 AtZEff=  -0.0000000  -0.0000000  -0.0000000  -0.0000000  -0.0000000  -0.0000000  -0.0000000  -0.0000000  -0.0000000  -0.0000000
 NQMom=    0.0000000   0.0000000   0.0000000   0.0000000   0.0000000   0.0000000   0.0000000   0.0000000   0.0000000   0.0000000
 NMagM=    0.0000000   0.0000000   0.0000000   2.7928460   0.0000000   2.7928460   0.0000000   2.7928460   2.7928460   0.0000000
 AtZNuc=   6.0000000   6.0000000   6.0000000   1.0000000   6.0000000   1.0000000   6.0000000   1.0000000   1.0000000   6.0000000

  Atom        51          52          53          54          55          56          57          58
 IAtWgt=           1           1          12           1           1          14           1           1
 AtmWgt=   1.0078250   1.0078250  12.0000000   1.0078250   1.0078250  14.0030740   1.0078250   1.0078250
 NucSpn=           1           1           0           1           1           2           1           1
 AtZEff=  -0.0000000  -0.0000000  -0.0000000  -0.0000000  -0.0000000  -0.0000000  -0.0000000  -0.0000000
 NQMom=    0.0000000   0.0000000   0.0000000   0.0000000   0.0000000   2.0440000   0.0000000   0.0000000
 NMagM=    2.7928460   2.7928460   0.0000000   2.7928460   2.7928460   0.4037610   2.7928460   2.7928460
 AtZNuc=   1.0000000   1.0000000   6.0000000   1.0000000   1.0000000   7.0000000   1.0000000   1.0000000
 Leave Link  101 at Thu Mar 14 11:31:13 2024, MaxMem= 32212254720 cpu:              15.3 elap:               0.5
 (Enter /home/<user>/g16/l103.exe)

 GradGradGradGradGradGradGradGradGradGradGradGradGradGradGradGradGradGrad
 Berny optimization.
 Initialization pass.
                           ----------------------------
                           !    Initial Parameters    !
                           ! (Angstroms and Degrees)  !
 --------------------------                            --------------------------
 ! Name  Definition              Value          Derivative Info.                !
 --------------------------------------------------------------------------------
 ! R1    R(1,2)                  1.4092         estimate D2E/DX2                !
 ! R2    R(1,6)                  1.3932         estimate D2E/DX2                !
 ! R3    R(1,7)                  1.0832         estimate D2E/DX2                !
 ! R4    R(2,3)                  1.4114         estimate D2E/DX2                !
 ! R5    R(2,29)                 1.4798         estimate D2E/DX2                !
 ! R6    R(3,4)                  1.3862         estimate D2E/DX2                !
 ! R7    R(3,8)                  1.0871         estimate D2E/DX2                !
 ! R8    R(4,5)                  1.4088         estimate D2E/DX2                !
 ! R9    R(4,10)                 1.5291         estimate D2E/DX2                !
 ! R10   R(5,6)                  1.3961         estimate D2E/DX2                !
 ! R11   R(5,16)                 1.4665         estimate D2E/DX2                !
 ! R12   R(6,9)                  1.087          estimate D2E/DX2                !
 ! R13   R(10,11)                1.5289         estimate D2E/DX2                !
 ! R14   R(10,21)                1.5454         estimate D2E/DX2                !
 ! R15   R(10,25)                1.5452         estimate D2E/DX2                !
 ! R16   R(11,12)                1.3903         estimate D2E/DX2                !
 ! R17   R(11,16)                1.4098         estimate D2E/DX2                !
 ! R18   R(12,13)                1.4001         estimate D2E/DX2                !
 ! R19   R(12,17)                1.0877         estimate D2E/DX2                !
 ! R20   R(13,14)                1.399          estimate D2E/DX2                !
 ! R21   R(13,18)                1.0868         estimate D2E/DX2                !
 ! R22   R(14,15)                1.3964         estimate D2E/DX2                !
 ! R23   R(14,19)                1.0868         estimate D2E/DX2                !
 ! R24   R(15,16)                1.3967         estimate D2E/DX2                !
 ! R25   R(15,20)                1.0871         estimate D2E/DX2                !
 ! R26   R(21,22)                1.0962         estimate D2E/DX2                !
 ! R27   R(21,23)                1.0963         estimate D2E/DX2                !
 ! R28   R(21,24)                1.0946         estimate D2E/DX2                !
 ! R29   R(25,26)                1.0963         estimate D2E/DX2                !
 ! R30   R(25,27)                1.0962         estimate D2E/DX2                !
 ! R31   R(25,28)                1.0947         estimate D2E/DX2                !
 ! R32   R(29,30)                1.4402         estimate D2E/DX2                !
 ! R33   R(29,31)                1.3819         estimate D2E/DX2                !
 ! R34   R(30,32)                1.4597         estimate D2E/DX2                !
 ! R35   R(30,37)                1.3382         estimate D2E/DX2                !
 ! R36   R(31,33)                1.4211         estimate D2E/DX2                !
 ! R37   R(31,34)                1.0859         estimate D2E/DX2                !
 ! R38   R(32,35)                1.4396         estimate D2E/DX2                !
 ! R39   R(32,38)                1.3384         estimate D2E/DX2                !
 ! R40   R(33,35)                1.3814         estimate D2E/DX2                !
 ! R41   R(33,36)                1.086          estimate D2E/DX2                !
 ! R42   R(35,40)                1.4802         estimate D2E/DX2                !
 ! R43   R(37,39)                1.6419         estimate D2E/DX2                !
 ! R44   R(38,39)                1.6419         estimate D2E/DX2                !
 ! R45   R(40,41)                1.4059         estimate D2E/DX2                !
 ! R46   R(40,42)                1.4065         estimate D2E/DX2                !
 ! R47   R(41,43)                1.3924         estimate D2E/DX2                !
 ! R48   R(41,44)                1.0835         estimate D2E/DX2                !
 ! R49   R(42,45)                1.3918         estimate D2E/DX2                !
 ! R50   R(42,46)                1.0865         estimate D2E/DX2                !
 ! R51   R(43,47)                1.4012         estimate D2E/DX2                !
 ! R52   R(43,48)                1.0881         estimate D2E/DX2                !
 ! R53   R(45,47)                1.4013         estimate D2E/DX2                !
 ! R54   R(45,49)                1.088          estimate D2E/DX2                !
 ! R55   R(47,50)                1.5117         estimate D2E/DX2                !
 ! R56   R(50,51)                1.096          estimate D2E/DX2                !
 ! R57   R(50,52)                1.0991         estimate D2E/DX2                !
 ! R58   R(50,53)                1.539          estimate D2E/DX2                !
 ! R59   R(53,54)                1.1051         estimate D2E/DX2                !
 ! R60   R(53,55)                1.0969         estimate D2E/DX2                !
 ! R61   R(53,56)                1.4667         estimate D2E/DX2                !
 ! R62   R(56,57)                1.0198         estimate D2E/DX2                !
 ! R63   R(56,58)                1.0188         estimate D2E/DX2                !
 ! A1    A(2,1,6)              121.2868         estimate D2E/DX2                !
 ! A2    A(2,1,7)              119.241          estimate D2E/DX2                !
 ! A3    A(6,1,7)              119.4719         estimate D2E/DX2                !
 ! A4    A(1,2,3)              118.6118         estimate D2E/DX2                !
 ! A5    A(1,2,29)             121.6822         estimate D2E/DX2                !
 ! A6    A(3,2,29)             119.6882         estimate D2E/DX2                !
 ! A7    A(2,3,4)              120.2635         estimate D2E/DX2                !
 ! A8    A(2,3,8)              119.3396         estimate D2E/DX2                !
 ! A9    A(4,3,8)              120.3727         estimate D2E/DX2                !
 ! A10   A(3,4,5)              120.4023         estimate D2E/DX2                !
 ! A11   A(3,4,10)             128.7053         estimate D2E/DX2                !
 ! A12   A(5,4,10)             110.8896         estimate D2E/DX2                !
 ! A13   A(4,5,6)              120.0316         estimate D2E/DX2                !
 ! A14   A(4,5,16)             108.5981         estimate D2E/DX2                !
 ! A15   A(6,5,16)             131.3685         estimate D2E/DX2                !
 ! A16   A(1,6,5)              119.4009         estimate D2E/DX2                !
 ! A17   A(1,6,9)              119.7272         estimate D2E/DX2                !
 ! A18   A(5,6,9)              120.8718         estimate D2E/DX2                !
 ! A19   A(4,10,11)            101.1241         estimate D2E/DX2                !
 ! A20   A(4,10,21)            111.3808         estimate D2E/DX2                !
 ! A21   A(4,10,25)            111.4299         estimate D2E/DX2                !
 ! A22   A(11,10,21)           111.3347         estimate D2E/DX2                !
 ! A23   A(11,10,25)           111.4002         estimate D2E/DX2                !
 ! A24   A(21,10,25)           109.9349         estimate D2E/DX2                !
 ! A25   A(10,11,12)           128.8435         estimate D2E/DX2                !
 ! A26   A(10,11,16)           110.9487         estimate D2E/DX2                !
 ! A27   A(12,11,16)           120.2078         estimate D2E/DX2                !
 ! A28   A(11,12,13)           119.185          estimate D2E/DX2                !
 ! A29   A(11,12,17)           120.8776         estimate D2E/DX2                !
 ! A30   A(13,12,17)           119.9373         estimate D2E/DX2                !
 ! A31   A(12,13,14)           120.5472         estimate D2E/DX2                !
 ! A32   A(12,13,18)           119.7192         estimate D2E/DX2                !
 ! A33   A(14,13,18)           119.7336         estimate D2E/DX2                !
 ! A34   A(13,14,15)           120.5672         estimate D2E/DX2                !
 ! A35   A(13,14,19)           119.7133         estimate D2E/DX2                !
 ! A36   A(15,14,19)           119.7195         estimate D2E/DX2                !
 ! A37   A(14,15,16)           118.8733         estimate D2E/DX2                !
 ! A38   A(14,15,20)           120.3087         estimate D2E/DX2                !
 ! A39   A(16,15,20)           120.818          estimate D2E/DX2                !
 ! A40   A(5,16,11)            108.4379         estimate D2E/DX2                !
 ! A41   A(5,16,15)            130.9426         estimate D2E/DX2                !
 ! A42   A(11,16,15)           120.6195         estimate D2E/DX2                !
 ! A43   A(10,21,22)           110.6649         estimate D2E/DX2                !
 ! A44   A(10,21,23)           110.7091         estimate D2E/DX2                !
 ! A45   A(10,21,24)           111.1032         estimate D2E/DX2                !
 ! A46   A(22,21,23)           107.8508         estimate D2E/DX2                !
 ! A47   A(22,21,24)           108.2097         estimate D2E/DX2                !
 ! A48   A(23,21,24)           108.1878         estimate D2E/DX2                !
 ! A49   A(10,25,26)           110.6864         estimate D2E/DX2                !
 ! A50   A(10,25,27)           110.6954         estimate D2E/DX2                !
 ! A51   A(10,25,28)           111.123          estimate D2E/DX2                !
 ! A52   A(26,25,27)           107.8094         estimate D2E/DX2                !
 ! A53   A(26,25,28)           108.223          estimate D2E/DX2                !
 ! A54   A(27,25,28)           108.1866         estimate D2E/DX2                !
 ! A55   A(2,29,30)            123.1726         estimate D2E/DX2                !
 ! A56   A(2,29,31)            121.747          estimate D2E/DX2                !
 ! A57   A(30,29,31)           115.0785         estimate D2E/DX2                !
 ! A58   A(29,30,32)           121.2228         estimate D2E/DX2                !
 ! A59   A(29,30,37)           125.5659         estimate D2E/DX2                !
 ! A60   A(32,30,37)           113.1954         estimate D2E/DX2                !
 ! A61   A(29,31,33)           123.6823         estimate D2E/DX2                !
 ! A62   A(29,31,34)           118.7014         estimate D2E/DX2                !
 ! A63   A(33,31,34)           117.5807         estimate D2E/DX2                !
 ! A64   A(30,32,35)           121.2448         estimate D2E/DX2                !
 ! A65   A(30,32,38)           113.2054         estimate D2E/DX2                !
 ! A66   A(35,32,38)           125.5344         estimate D2E/DX2                !
 ! A67   A(31,33,35)           123.6528         estimate D2E/DX2                !
 ! A68   A(31,33,36)           117.597          estimate D2E/DX2                !
 ! A69   A(35,33,36)           118.7163         estimate D2E/DX2                !
 ! A70   A(32,35,33)           115.1186         estimate D2E/DX2                !
 ! A71   A(32,35,40)           123.0857         estimate D2E/DX2                !
 ! A72   A(33,35,40)           121.7943         estimate D2E/DX2                !
 ! A73   A(30,37,39)           106.8427         estimate D2E/DX2                !
 ! A74   A(32,38,39)           106.8291         estimate D2E/DX2                !
 ! A75   A(37,39,38)            99.927          estimate D2E/DX2                !
 ! A76   A(35,40,41)           122.1323         estimate D2E/DX2                !
 ! A77   A(35,40,42)           120.1391         estimate D2E/DX2                !
 ! A78   A(41,40,42)           117.7073         estimate D2E/DX2                !
 ! A79   A(40,41,43)           120.7653         estimate D2E/DX2                !
 ! A80   A(40,41,44)           119.6151         estimate D2E/DX2                !
 ! A81   A(43,41,44)           119.618          estimate D2E/DX2                !
 ! A82   A(40,42,45)           121.1602         estimate D2E/DX2                !
 ! A83   A(40,42,46)           119.5034         estimate D2E/DX2                !
 ! A84   A(45,42,46)           119.3203         estimate D2E/DX2                !
 ! A85   A(41,43,47)           121.5378         estimate D2E/DX2                !
 ! A86   A(41,43,48)           119.1223         estimate D2E/DX2                !
 ! A87   A(47,43,48)           119.3385         estimate D2E/DX2                !
 ! A88   A(42,45,47)           121.154          estimate D2E/DX2                !
 ! A89   A(42,45,49)           119.405          estimate D2E/DX2                !
 ! A90   A(47,45,49)           119.4402         estimate D2E/DX2                !
 ! A91   A(43,47,45)           117.6728         estimate D2E/DX2                !
 ! A92   A(43,47,50)           121.3071         estimate D2E/DX2                !
 ! A93   A(45,47,50)           120.984          estimate D2E/DX2                !
 ! A94   A(47,50,51)           110.7255         estimate D2E/DX2                !
 ! A95   A(47,50,52)           109.6983         estimate D2E/DX2                !
 ! A96   A(47,50,53)           112.7116         estimate D2E/DX2                !
 ! A97   A(51,50,52)           106.7673         estimate D2E/DX2                !
 ! A98   A(51,50,53)           107.987          estimate D2E/DX2                !
 ! A99   A(52,50,53)           108.7501         estimate D2E/DX2                !
 ! A100  A(50,53,54)           108.8386         estimate D2E/DX2                !
 ! A101  A(50,53,55)           108.8946         estimate D2E/DX2                !
 ! A102  A(50,53,56)           110.2197         estimate D2E/DX2                !
 ! A103  A(54,53,55)           106.4654         estimate D2E/DX2                !
 ! A104  A(54,53,56)           114.3872         estimate D2E/DX2                !
 ! A105  A(55,53,56)           107.8526         estimate D2E/DX2                !
 ! A106  A(53,56,57)           109.5245         estimate D2E/DX2                !
 ! A107  A(53,56,58)           109.7172         estimate D2E/DX2                !
 ! A108  A(57,56,58)           105.8733         estimate D2E/DX2                !
 ! D1    D(6,1,2,3)             -0.6548         estimate D2E/DX2                !
 ! D2    D(6,1,2,29)           177.8063         estimate D2E/DX2                !
 ! D3    D(7,1,2,3)            179.5348         estimate D2E/DX2                !
 ! D4    D(7,1,2,29)            -2.004          estimate D2E/DX2                !
 ! D5    D(2,1,6,5)              0.3501         estimate D2E/DX2                !
 ! D6    D(2,1,6,9)           -179.5662         estimate D2E/DX2                !
 ! D7    D(7,1,6,5)           -179.84           estimate D2E/DX2                !
 ! D8    D(7,1,6,9)              0.2438         estimate D2E/DX2                !
 ! D9    D(1,2,3,4)              0.5036         estimate D2E/DX2                !
 ! D10   D(1,2,3,8)           -177.7142         estimate D2E/DX2                !
 ! D11   D(29,2,3,4)          -177.9891         estimate D2E/DX2                !
 ! D12   D(29,2,3,8)             3.7931         estimate D2E/DX2                !
 ! D13   D(1,2,29,30)           37.3343         estimate D2E/DX2                !
 ! D14   D(1,2,29,31)         -143.1958         estimate D2E/DX2                !
 ! D15   D(3,2,29,30)         -144.2207         estimate D2E/DX2                !
 ! D16   D(3,2,29,31)           35.2491         estimate D2E/DX2                !
 ! D17   D(2,3,4,5)             -0.0579         estimate D2E/DX2                !
 ! D18   D(2,3,4,10)          -179.3905         estimate D2E/DX2                !
 ! D19   D(8,3,4,5)            178.1414         estimate D2E/DX2                !
 ! D20   D(8,3,4,10)            -1.1912         estimate D2E/DX2                !
 ! D21   D(3,4,5,6)             -0.2562         estimate D2E/DX2                !
 ! D22   D(3,4,5,16)          -179.809          estimate D2E/DX2                !
 ! D23   D(10,4,5,6)           179.1863         estimate D2E/DX2                !
 ! D24   D(10,4,5,16)           -0.3665         estimate D2E/DX2                !
 ! D25   D(3,4,10,11)          179.7934         estimate D2E/DX2                !
 ! D26   D(3,4,10,21)           61.4231         estimate D2E/DX2                !
 ! D27   D(3,4,10,25)          -61.7391         estimate D2E/DX2                !
 ! D28   D(5,4,10,11)            0.4095         estimate D2E/DX2                !
 ! D29   D(5,4,10,21)         -117.9607         estimate D2E/DX2                !
 ! D30   D(5,4,10,25)          118.877          estimate D2E/DX2                !
 ! D31   D(4,5,6,1)              0.1108         estimate D2E/DX2                !
 ! D32   D(4,5,6,9)           -179.974          estimate D2E/DX2                !
 ! D33   D(16,5,6,1)           179.546          estimate D2E/DX2                !
 ! D34   D(16,5,6,9)            -0.5388         estimate D2E/DX2                !
 ! D35   D(4,5,16,11)            0.1542         estimate D2E/DX2                !
 ! D36   D(4,5,16,15)         -179.8343         estimate D2E/DX2                !
 ! D37   D(6,5,16,11)         -179.3299         estimate D2E/DX2                !
 ! D38   D(6,5,16,15)            0.6816         estimate D2E/DX2                !
 ! D39   D(4,10,11,12)         179.747          estimate D2E/DX2                !
 ! D40   D(4,10,11,16)          -0.3125         estimate D2E/DX2                !
 ! D41   D(21,10,11,12)        -61.8494         estimate D2E/DX2                !
 ! D42   D(21,10,11,16)        118.091          estimate D2E/DX2                !
 ! D43   D(25,10,11,12)         61.258          estimate D2E/DX2                !
 ! D44   D(25,10,11,16)       -118.8016         estimate D2E/DX2                !
 ! D45   D(4,10,21,22)         176.2195         estimate D2E/DX2                !
 ! D46   D(4,10,21,23)         -64.2533         estimate D2E/DX2                !
 ! D47   D(4,10,21,24)          55.984          estimate D2E/DX2                !
 ! D48   D(11,10,21,22)         64.1734         estimate D2E/DX2                !
 ! D49   D(11,10,21,23)       -176.2995         estimate D2E/DX2                !
 ! D50   D(11,10,21,24)        -56.0621         estimate D2E/DX2                !
 ! D51   D(25,10,21,22)        -59.7683         estimate D2E/DX2                !
 ! D52   D(25,10,21,23)         59.7588         estimate D2E/DX2                !
 ! D53   D(25,10,21,24)        179.9962         estimate D2E/DX2                !
 ! D54   D(4,10,25,26)          64.3077         estimate D2E/DX2                !
 ! D55   D(4,10,25,27)        -176.2118         estimate D2E/DX2                !
 ! D56   D(4,10,25,28)         -55.972          estimate D2E/DX2                !
 ! D57   D(11,10,25,26)        176.4205         estimate D2E/DX2                !
 ! D58   D(11,10,25,27)        -64.099          estimate D2E/DX2                !
 ! D59   D(11,10,25,28)         56.1408         estimate D2E/DX2                !
 ! D60   D(21,10,25,26)        -59.6759         estimate D2E/DX2                !
 ! D61   D(21,10,25,27)         59.8046         estimate D2E/DX2                !
 ! D62   D(21,10,25,28)       -179.9556         estimate D2E/DX2                !
 ! D63   D(10,11,12,13)        179.9088         estimate D2E/DX2                !
 ! D64   D(10,11,12,17)         -0.0545         estimate D2E/DX2                !
 ! D65   D(16,11,12,13)         -0.0268         estimate D2E/DX2                !
 ! D66   D(16,11,12,17)       -179.9901         estimate D2E/DX2                !
 ! D67   D(10,11,16,5)           0.1174         estimate D2E/DX2                !
 ! D68   D(10,11,16,15)       -179.8926         estimate D2E/DX2                !
 ! D69   D(12,11,16,5)        -179.9363         estimate D2E/DX2                !
 ! D70   D(12,11,16,15)          0.0537         estimate D2E/DX2                !
 ! D71   D(11,12,13,14)         -0.0026         estimate D2E/DX2                !
 ! D72   D(11,12,13,18)       -179.9841         estimate D2E/DX2                !
 ! D73   D(17,12,13,14)        179.961          estimate D2E/DX2                !
 ! D74   D(17,12,13,18)         -0.0205         estimate D2E/DX2                !
 ! D75   D(12,13,14,15)          0.0061         estimate D2E/DX2                !
 ! D76   D(12,13,14,19)       -179.9853         estimate D2E/DX2                !
 ! D77   D(18,13,14,15)        179.9876         estimate D2E/DX2                !
 ! D78   D(18,13,14,19)         -0.0038         estimate D2E/DX2                !
 ! D79   D(13,14,15,16)          0.02           estimate D2E/DX2                !
 ! D80   D(13,14,15,20)       -179.9874         estimate D2E/DX2                !
 ! D81   D(19,14,15,16)       -179.9887         estimate D2E/DX2                !
 ! D82   D(19,14,15,20)          0.004          estimate D2E/DX2                !
 ! D83   D(14,15,16,5)         179.9378         estimate D2E/DX2                !
 ! D84   D(14,15,16,11)         -0.0496         estimate D2E/DX2                !
 ! D85   D(20,15,16,5)          -0.0549         estimate D2E/DX2                !
 ! D86   D(20,15,16,11)        179.9578         estimate D2E/DX2                !
 ! D87   D(2,29,30,32)         179.4232         estimate D2E/DX2                !
 ! D88   D(2,29,30,37)           0.9746         estimate D2E/DX2                !
 ! D89   D(31,29,30,32)         -0.0791         estimate D2E/DX2                !
 ! D90   D(31,29,30,37)       -178.5276         estimate D2E/DX2                !
 ! D91   D(2,29,31,33)        -179.4397         estimate D2E/DX2                !
 ! D92   D(2,29,31,34)           2.7851         estimate D2E/DX2                !
 ! D93   D(30,29,31,33)          0.0704         estimate D2E/DX2                !
 ! D94   D(30,29,31,34)       -177.7049         estimate D2E/DX2                !
 ! D95   D(29,30,32,35)         -0.0054         estimate D2E/DX2                !
 ! D96   D(29,30,32,38)       -178.6544         estimate D2E/DX2                !
 ! D97   D(37,30,32,35)        178.6216         estimate D2E/DX2                !
 ! D98   D(37,30,32,38)         -0.0273         estimate D2E/DX2                !
 ! D99   D(29,30,37,39)        178.7105         estimate D2E/DX2                !
 ! D100  D(32,30,37,39)          0.1539         estimate D2E/DX2                !
 ! D101  D(29,31,33,35)          0.0289         estimate D2E/DX2                !
 ! D102  D(29,31,33,36)       -177.821          estimate D2E/DX2                !
 ! D103  D(34,31,33,35)        177.8274         estimate D2E/DX2                !
 ! D104  D(34,31,33,36)         -0.0225         estimate D2E/DX2                !
 ! D105  D(30,32,35,33)          0.0997         estimate D2E/DX2                !
 ! D106  D(30,32,35,40)       -179.4686         estimate D2E/DX2                !
 ! D107  D(38,32,35,33)        178.5737         estimate D2E/DX2                !
 ! D108  D(38,32,35,40)         -0.9945         estimate D2E/DX2                !
 ! D109  D(30,32,38,39)         -0.1141         estimate D2E/DX2                !
 ! D110  D(35,32,38,39)       -178.6946         estimate D2E/DX2                !
 ! D111  D(31,33,35,32)         -0.1132         estimate D2E/DX2                !
 ! D112  D(31,33,35,40)        179.4612         estimate D2E/DX2                !
 ! D113  D(36,33,35,32)        177.7141         estimate D2E/DX2                !
 ! D114  D(36,33,35,40)         -2.7116         estimate D2E/DX2                !
 ! D115  D(32,35,40,41)        -37.2314         estimate D2E/DX2                !
 ! D116  D(32,35,40,42)        144.4877         estimate D2E/DX2                !
 ! D117  D(33,35,40,41)        143.2286         estimate D2E/DX2                !
 ! D118  D(33,35,40,42)        -35.0524         estimate D2E/DX2                !
 ! D119  D(30,37,39,38)         -0.199          estimate D2E/DX2                !
 ! D120  D(32,38,39,37)          0.1838         estimate D2E/DX2                !
 ! D121  D(35,40,41,43)       -177.707          estimate D2E/DX2                !
 ! D122  D(35,40,41,44)          1.8345         estimate D2E/DX2                !
 ! D123  D(42,40,41,43)          0.6138         estimate D2E/DX2                !
 ! D124  D(42,40,41,44)       -179.8447         estimate D2E/DX2                !
 ! D125  D(35,40,42,45)        177.9115         estimate D2E/DX2                !
 ! D126  D(35,40,42,46)         -3.5585         estimate D2E/DX2                !
 ! D127  D(41,40,42,45)         -0.4442         estimate D2E/DX2                !
 ! D128  D(41,40,42,46)        178.0858         estimate D2E/DX2                !
 ! D129  D(40,41,43,47)         -0.4117         estimate D2E/DX2                !
 ! D130  D(40,41,43,48)        179.1605         estimate D2E/DX2                !
 ! D131  D(44,41,43,47)       -179.9532         estimate D2E/DX2                !
 ! D132  D(44,41,43,48)         -0.381          estimate D2E/DX2                !
 ! D133  D(40,42,45,47)          0.0634         estimate D2E/DX2                !
 ! D134  D(40,42,45,49)        179.7307         estimate D2E/DX2                !
 ! D135  D(46,42,45,47)       -178.4692         estimate D2E/DX2                !
 ! D136  D(46,42,45,49)          1.1981         estimate D2E/DX2                !
 ! D137  D(41,43,47,45)          0.0168         estimate D2E/DX2                !
 ! D138  D(41,43,47,50)       -177.8182         estimate D2E/DX2                !
 ! D139  D(48,43,47,45)       -179.5545         estimate D2E/DX2                !
 ! D140  D(48,43,47,50)          2.6105         estimate D2E/DX2                !
 ! D141  D(42,45,47,43)          0.1561         estimate D2E/DX2                !
 ! D142  D(42,45,47,50)        177.9984         estimate D2E/DX2                !
 ! D143  D(49,45,47,43)       -179.5111         estimate D2E/DX2                !
 ! D144  D(49,45,47,50)         -1.6688         estimate D2E/DX2                !
 ! D145  D(43,47,50,51)       -150.0404         estimate D2E/DX2                !
 ! D146  D(43,47,50,52)        -32.4542         estimate D2E/DX2                !
 ! D147  D(43,47,50,53)         88.8758         estimate D2E/DX2                !
 ! D148  D(45,47,50,51)         32.1961         estimate D2E/DX2                !
 ! D149  D(45,47,50,52)        149.7824         estimate D2E/DX2                !
 ! D150  D(45,47,50,53)        -88.8876         estimate D2E/DX2                !
 ! D151  D(47,50,53,54)        -56.2397         estimate D2E/DX2                !
 ! D152  D(47,50,53,55)         59.4382         estimate D2E/DX2                !
 ! D153  D(47,50,53,56)        177.5618         estimate D2E/DX2                !
 ! D154  D(51,50,53,54)       -178.8718         estimate D2E/DX2                !
 ! D155  D(51,50,53,55)        -63.1939         estimate D2E/DX2                !
 ! D156  D(51,50,53,56)         54.9297         estimate D2E/DX2                !
 ! D157  D(52,50,53,54)         65.6278         estimate D2E/DX2                !
 ! D158  D(52,50,53,55)       -178.6943         estimate D2E/DX2                !
 ! D159  D(52,50,53,56)        -60.5708         estimate D2E/DX2                !
 ! D160  D(50,53,56,57)         68.1479         estimate D2E/DX2                !
 ! D161  D(50,53,56,58)       -176.0441         estimate D2E/DX2                !
 ! D162  D(54,53,56,57)        -54.8629         estimate D2E/DX2                !
 ! D163  D(54,53,56,58)         60.9451         estimate D2E/DX2                !
 ! D164  D(55,53,56,57)       -173.0895         estimate D2E/DX2                !
 ! D165  D(55,53,56,58)        -57.2816         estimate D2E/DX2                !
 --------------------------------------------------------------------------------
 Trust Radius=3.00D-01 FncErr=1.00D-07 GrdErr=1.00D-06 EigMax=2.50D+02 EigMin=1.00D-04
 Number of steps in this run=    346 maximum allowed number of steps=    348.
 GradGradGradGradGradGradGradGradGradGradGradGradGradGradGradGradGradGrad

 Leave Link  103 at Thu Mar 14 11:31:13 2024, MaxMem= 32212254720 cpu:               0.3 elap:               0.0
 (Enter /home/<user>/g16/l202.exe)
 Stoichiometry    C29H25N3S(1+,2)
 Framework group  C1[X(C29H25N3S)]
 Deg. of freedom   168
 Full point group                 C1      NOp   1
 Largest Abelian subgroup         C1      NOp   1
 Largest concise Abelian subgroup C1      NOp   1
                         Standard orientation:                         
 ---------------------------------------------------------------------
 Center     Atomic      Atomic             Coordinates (Angstroms)
 Number     Number       Type             X           Y           Z
 ---------------------------------------------------------------------
      1          6           0       -2.445420    1.576952   -0.640756
      2          6           0       -1.800770    0.377898   -0.276543
      3          6           0       -2.593188   -0.732829    0.084386
      4          6           0       -3.976156   -0.639371    0.067553
      5          6           0       -4.604884    0.564012   -0.308309
      6          6           0       -3.835098    1.673787   -0.661764
      7          1           0       -1.847013    2.438095   -0.912271
      8          1           0       -2.108244   -1.651967    0.403337
      9          1           0       -4.305906    2.609112   -0.953548
     10          6           0       -5.011020   -1.705216    0.429783
     11          6           0       -6.314910   -0.941629    0.196693
     12          6           0       -7.623913   -1.383182    0.353095
     13          6           0       -8.678397   -0.502959    0.081747
     14          6           0       -8.421388    0.805409   -0.341662
     15          6           0       -7.109101    1.255427   -0.500897
     16          6           0       -6.057367    0.376946   -0.230661
     17          1           0       -7.835091   -2.398082    0.682337
     18          1           0       -9.704987   -0.838925    0.201362
     19          1           0       -9.250200    1.477337   -0.548281
     20          1           0       -6.914211    2.273031   -0.829937
     21          6           0       -4.873450   -2.145823    1.904592
     22          1           0       -5.661933   -2.859551    2.170274
     23          1           0       -3.906850   -2.634198    2.074728
     24          1           0       -4.946541   -1.288068    2.580623
     25          6           0       -4.903949   -2.934957   -0.499622
     26          1           0       -3.938253   -3.437009   -0.367953
     27          1           0       -5.693098   -3.661406   -0.273395
     28          1           0       -4.998190   -2.644371   -1.550825
     29          6           0       -0.326596    0.250758   -0.297183
     30          6           0        0.561803    1.317276    0.086920
     31          6           0        0.296845   -0.920873   -0.682176
     32          6           0        2.010629    1.141126    0.062178
     33          6           0        1.707388   -1.091909   -0.706344
     34          1           0       -0.316167   -1.751252   -1.019726
     35          6           0        2.604471   -0.104847   -0.346857
     36          1           0        2.092779   -2.043380   -1.060607
     37          7           0        0.185135    2.526214    0.519893
     38          7           0        2.680579    2.223073    0.476747
     39         16           0        1.558695    3.359421    0.858730
     40          6           0        4.066915   -0.331759   -0.376367
     41          6           0        4.971773    0.672396   -0.762914
     42          6           0        4.592573   -1.593667   -0.045584
     43          6           0        6.338455    0.413776   -0.825905
     44          1           0        4.600567    1.656859   -1.021918
     45          6           0        5.960456   -1.842817   -0.107780
     46          1           0        3.922815   -2.381800    0.287153
     47          6           0        6.861990   -0.844676   -0.500902
     48          1           0        7.013438    1.206643   -1.141689
     49          1           0        6.336570   -2.828307    0.158693
     50          6           0        8.350770   -1.105944   -0.524079
     51          1           0        8.556915   -2.153440   -0.771898
     52          1           0        8.821757   -0.496101   -1.307801
     53          6           0        9.029919   -0.793298    0.821086
     54          1           0        8.813687    0.255269    1.094789
     55          1           0        8.577448   -1.417855    1.601077
     56          7           0       10.458266   -1.119926    0.755806
     57          1           0       10.926743   -0.474683    0.119996
     58          1           0       10.886698   -0.972254    1.668323
 ---------------------------------------------------------------------
 Rotational constants (GHZ):           0.3750593           0.0391474           0.0364047
 Leave Link  202 at Thu Mar 14 11:31:13 2024, MaxMem= 32212254720 cpu:               0.1 elap:               0.0
 (Enter /home/<user>/g16/l301.exe)
 Standard basis: 6-31G(d) (6D, 7F)
 Ernie: Thresh=  0.10000D-02 Tol=  0.10000D-05 Strict=F.
 There are   549 symmetry adapted cartesian basis functions of A   symmetry.
 There are   549 symmetry adapted basis functions of A   symmetry.
   549 basis functions,  1048 primitive gaussians,   549 cartesian basis functions
   118 alpha electrons      117 beta electrons
       nuclear repulsion energy      3077.1700958446 Hartrees.
 IExCor=  402 DFT=T Ex+Corr=B3LYP ExCW=0 ScaHFX=  0.200000
 ScaDFX=  0.800000  0.720000  1.000000  0.810000 ScalE2=  1.000000  1.000000
 IRadAn=      5 IRanWt=     -1 IRanGd=            0 ICorTp=0 IEmpDi=  4
 NAtoms=   58 NActive=   58 NUniq=   58 SFac= 1.00D+00 NAtFMM=   60 NAOKFM=F Big=F
 Integral buffers will be    131072 words long.
 Raffenetti 2 integral format.
 Two-electron integral symmetry is turned on.
 Leave Link  301 at Thu Mar 14 11:31:13 2024, MaxMem= 32212254720 cpu:               0.8 elap:               0.0
 (Enter /home/<user>/g16/l302.exe)
 NPDir=0 NMtPBC=     1 NCelOv=     1 NCel=       1 NClECP=     1 NCelD=      1
         NCelK=      1 NCelE2=     1 NClLst=     1 CellRange=     0.0.
 One-electron integrals computed using PRISM.
 One-electron integral symmetry used in STVInt
 NBasis=   549 RedAO= T EigKep=  2.62D-04  NBF=   549
 NBsUse=   549 1.00D-06 EigRej= -1.00D+00 NBFU=   549
 Precomputing XC quadrature grid using
 IXCGrd= 4 IRadAn=           5 IRanWt=          -1 IRanGd=           0 AccXCQ= 0.00D+00.
 Generated NRdTot=       0 NPtTot=           0 NUsed=           0 NTot=          32
 NSgBfM=   513   513   513   513   513 MxSgAt=    58 MxSgA2=    58.
 Leave Link  302 at Thu Mar 14 11:31:14 2024, MaxMem= 32212254720 cpu:              12.7 elap:               0.4
 (Enter /home/<user>/g16/l303.exe)
 DipDrv:  MaxL=1.
 Leave Link  303 at Thu Mar 14 11:31:14 2024, MaxMem= 32212254720 cpu:               1.5 elap:               0.1
 (Enter /home/<user>/g16/l401.exe)
 ExpMin= 1.17D-01 ExpMax= 2.19D+04 ExpMxC= 3.30D+03 IAcc=3 IRadAn=         5 AccDes= 0.00D+00
 Harris functional with IExCor=  402 and IRadAn=       5 diagonalized for initial guess.
 HarFok:  IExCor=  402 AccDes= 0.00D+00 IRadAn=         5 IDoV= 1 UseB2=F ITyADJ=14
 ICtDFT=  3500011 ScaDFX=  1.000000  1.000000  1.000000  1.000000
 FoFCou: FMM=F IPFlag=           0 FMFlag=      100000 FMFlg1=           0
         NFxFlg=           0 DoJE=T BraDBF=F KetDBF=T FulRan=T
         wScrn=  0.000000 ICntrl=       500 IOpCl=  0 I1Cent=   200000004 NGrid=           0
         NMat0=    1 NMatS0=      1 NMatT0=    0 NMatD0=    1 NMtDS0=    0 NMtDT0=    0
 Petite list used in FoFCou.
 Harris En= -1682.30776036975    
 JPrj=0 DoOrth=F DoCkMO=F.
 Initial guess <Sx>= 0.0000 <Sy>= 0.0000 <Sz>= 0.5000 <S**2>= 0.7500 S= 0.5000
 Leave Link  401 at Thu Mar 14 11:31:15 2024, MaxMem= 32212254720 cpu:              34.1 elap:               1.1
 (Enter /home/<user>/g16/l502.exe)
 Integral symmetry usage will be decided dynamically.
 UHF open shell SCF:
 Using DIIS extrapolation, IDIIS=  1040.
 NGot= 32212254720 LenX= 32211628124 LenY= 32211326174
 Requested convergence on RMS density matrix=1.00D-08 within 128 cycles.
 Requested convergence on MAX density matrix=1.00D-06.
 Requested convergence on             energy=1.00D-06.
 No special actions if energy rises.
 Fock matrices will be formed incrementally for  20 cycles.
 Integral accuracy reduced to 1.0D-05 until final iterations.

 Cycle   1  Pass 0  IDiag  1:
 FoFJK:  IHMeth= 1 ICntrl=       0 DoSepK=F KAlg= 0 I1Cent=           0 FoldK=F
 IRaf= 550000000 NMat=       1 IRICut=       1 DoRegI=T DoRafI=F ISym2E= 0 IDoP0=0 IntGTp=1.
 FoFCou: FMM=F IPFlag=           0 FMFlag=      100000 FMFlg1=           0
         NFxFlg=           0 DoJE=F BraDBF=F KetDBF=F FulRan=T
         wScrn=  0.000000 ICntrl=         0 IOpCl=  1 I1Cent=           0 NGrid=           0
         NMat0=    1 NMatS0=      1 NMatT0=    0 NMatD0=    1 NMtDS0=    0 NMtDT0=    0
 Symmetry not used in FoFCou.
 E= -1681.38308273309    
 DIIS: error= 4.18D-02 at cycle   1 NSaved=   1.
 NSaved= 1 IEnMin= 1 EnMin= -1681.38308273309     IErMin= 1 ErrMin= 4.18D-02
 ErrMax= 4.18D-02  0.00D+00 EMaxC= 1.00D-01 BMatC= 3.14D+00 BMatP= 3.14D+00
 IDIUse=3 WtCom= 5.82D-01 WtEn= 4.18D-01
 Coeff-Com:  0.100D+01
 Coeff-En:   0.100D+01
 Coeff:      0.100D+01
 Gap=     0.397 Goal=   None    Shift=    0.000
 Gap=    -0.200 Goal=   None    Shift=    0.000
 GapD=   -0.200 DampG=0.250 DampE=0.500 DampFc=0.2500 IDamp=-1.
 Damping current iteration by 2.50D-01
 RMSDP=1.25D-02 MaxDP=1.99D+00              OVMax= 9.19D-01

 Cycle   2  Pass 0  IDiag  1:
 RMSU=  3.13D-03    CP:  9.86D-01
 E= -1681.28955416594     Delta-E=        0.093528567145 Rises=F Damp=T
 DIIS: error= 1.68D-02 at cycle   2 NSaved=   2.
 NSaved= 2 IEnMin= 1 EnMin= -1681.38308273309     IErMin= 2 ErrMin= 1.68D-02
 ErrMax= 1.68D-02  0.00D+00 EMaxC= 1.00D-01 BMatC= 8.76D-01 BMatP= 3.14D+00
 IDIUse=3 WtCom= 8.32D-01 WtEn= 1.68D-01
 Coeff-Com: -0.886D-01 0.109D+01
 Coeff-En:   0.556D+00 0.444D+00
 Coeff:      0.199D-01 0.980D+00
 Gap=    -0.127 Goal=   None    Shift=    0.000
 Gap=    -0.005 Goal=   None    Shift=    0.000
 RMSDP=5.29D-03 MaxDP=5.05D-01 DE= 9.35D-02 OVMax= 9.95D-01

 Cycle   3  Pass 0  IDiag  1:
 RMSU=  4.44D-03    CP:  9.29D-01  1.22D-01
 E= -1674.89268360500     Delta-E=        6.396870560943 Rises=F Damp=F
 DIIS: error= 7.18D-02 at cycle   3 NSaved=   3.
 NSaved= 3 IEnMin= 1 EnMin= -1681.38308273309     IErMin= 2 ErrMin= 1.68D-02
 ErrMax= 7.18D-02  0.00D+00 EMaxC= 1.00D-01 BMatC= 1.11D+01 BMatP= 8.76D-01
 IDIUse=2 WtCom= 0.00D+00 WtEn= 1.00D+00
 Rare condition: small coef for last iteration:  0.000D+00
 Coeff-En:   0.476D+00 0.462D+00 0.619D-01
 Coeff:      0.476D+00 0.462D+00 0.619D-01
 Gap=     0.079 Goal=   None    Shift=    0.000
 Gap=     0.073 Goal=   None    Shift=    0.000
 RMSDP=4.42D-03 MaxDP=4.67D-01 DE= 6.40D+00 OVMax= 6.72D-01

 Cycle   4  Pass 0  IDiag  1:
 RMSU=  3.05D-03    CP:  9.44D-01  3.77D-01  3.02D-01
 E= -1681.81862270535     Delta-E=       -6.925939100347 Rises=F Damp=F
 DIIS: error= 2.65D-02 at cycle   4 NSaved=   4.
 NSaved= 4 IEnMin= 4 EnMin= -1681.81862270535     IErMin= 2 ErrMin= 1.68D-02
 ErrMax= 2.65D-02  0.00D+00 EMaxC= 1.00D-01 BMatC= 1.73D+00 BMatP= 8.76D-01
 IDIUse=2 WtCom= 0.00D+00 WtEn= 1.00D+00
 EnCoef did   100 forward-backward iterations
 Coeff-En:   0.365D+00 0.000D+00 0.192D-02 0.633D+00
 Coeff:      0.365D+00 0.000D+00 0.192D-02 0.633D+00
 Gap=     0.135 Goal=   None    Shift=    0.000
 Gap=     0.056 Goal=   None    Shift=    0.000
 RMSDP=2.46D-03 MaxDP=2.61D-01 DE=-6.93D+00 OVMax= 6.35D-01

 Cycle   5  Pass 0  IDiag  1:
 RMSU=  1.72D-03    CP:  9.50D-01  1.91D-01  2.19D-01  4.66D-01
 E= -1682.03138770913     Delta-E=       -0.212765003786 Rises=F Damp=F
 DIIS: error= 2.85D-02 at cycle   5 NSaved=   5.
 NSaved= 5 IEnMin= 5 EnMin= -1682.03138770913     IErMin= 2 ErrMin= 1.68D-02
 ErrMax= 2.85D-02  0.00D+00 EMaxC= 1.00D-01 BMatC= 7.49D-01 BMatP= 8.76D-01
 IDIUse=3 WtCom= 7.15D-01 WtEn= 2.85D-01
 EnCoef did     5 forward-backward iterations
 Coeff-Com:  0.310D+00-0.623D-01 0.518D-02 0.455D+00 0.292D+00
 Coeff-En:   0.689D-01 0.000D+00 0.000D+00 0.377D+00 0.555D+00
 Coeff:      0.241D+00-0.445D-01 0.370D-02 0.433D+00 0.367D+00
 Gap=     0.293 Goal=   None    Shift=    0.000
 Gap=    -0.079 Goal=   None    Shift=    0.000
 RMSDP=1.60D-03 MaxDP=3.06D-01 DE=-2.13D-01 OVMax= 9.40D-01

 Cycle   6  Pass 0  IDiag  1:
 RMSU=  9.05D-04    CP:  9.53D-01  2.00D-01  2.31D-01  6.14D-01  2.76D-01
 E= -1682.28504711870     Delta-E=       -0.253659409564 Rises=F Damp=F
 DIIS: error= 1.76D-02 at cycle   6 NSaved=   6.
 NSaved= 6 IEnMin= 6 EnMin= -1682.28504711870     IErMin= 2 ErrMin= 1.68D-02
 ErrMax= 1.76D-02  0.00D+00 EMaxC= 1.00D-01 BMatC= 2.75D-01 BMatP= 7.49D-01
 IDIUse=3 WtCom= 8.24D-01 WtEn= 1.76D-01
 Coeff-Com:  0.386D-01-0.783D-04 0.101D-01 0.138D+00 0.329D+00 0.485D+00
 Coeff-En:   0.000D+00 0.000D+00 0.000D+00 0.000D+00 0.273D+00 0.727D+00
 Coeff:      0.318D-01-0.645D-04 0.829D-02 0.114D+00 0.319D+00 0.527D+00
 Gap=     0.125 Goal=   None    Shift=    0.000
 Gap=     0.036 Goal=   None    Shift=    0.000
 RMSDP=4.23D-04 MaxDP=4.22D-02 DE=-2.54D-01 OVMax= 1.35D-01

 Cycle   7  Pass 0  IDiag  1:
 RMSU=  3.85D-04    CP:  9.52D-01  1.98D-01  2.39D-01  6.14D-01  3.46D-01
                    CP:  8.66D-01
 E= -1682.34887930414     Delta-E=       -0.063832185444 Rises=F Damp=F
 DIIS: error= 5.86D-03 at cycle   7 NSaved=   7.
 NSaved= 7 IEnMin= 7 EnMin= -1682.34887930414     IErMin= 7 ErrMin= 5.86D-03
 ErrMax= 5.86D-03  0.00D+00 EMaxC= 1.00D-01 BMatC= 3.27D-02 BMatP= 2.75D-01
 IDIUse=3 WtCom= 9.41D-01 WtEn= 5.86D-02
 Coeff-Com: -0.185D-01 0.395D-01 0.298D-02 0.224D-01 0.197D+00 0.167D+00
 Coeff-Com:  0.590D+00
 Coeff-En:   0.000D+00 0.000D+00 0.000D+00 0.000D+00 0.858D-01 0.000D+00
 Coeff-En:   0.914D+00
 Coeff:     -0.174D-01 0.372D-01 0.281D-02 0.210D-01 0.190D+00 0.157D+00
 Coeff:      0.609D+00
 Gap=     0.124 Goal=   None    Shift=    0.000
 Gap=     0.037 Goal=   None    Shift=    0.000
 RMSDP=2.94D-04 MaxDP=1.79D-02 DE=-6.38D-02 OVMax= 1.44D-01

 Cycle   8  Pass 0  IDiag  1:
 RMSU=  2.79D-04    CP:  9.52D-01  1.94D-01  2.37D-01  5.92D-01  3.75D-01
                    CP:  8.72D-01  1.09D+00
 E= -1682.35242302358     Delta-E=       -0.003543719437 Rises=F Damp=F
 DIIS: error= 4.10D-03 at cycle   8 NSaved=   8.
 NSaved= 8 IEnMin= 8 EnMin= -1682.35242302358     IErMin= 8 ErrMin= 4.10D-03
 ErrMax= 4.10D-03  0.00D+00 EMaxC= 1.00D-01 BMatC= 2.87D-02 BMatP= 3.27D-02
 IDIUse=3 WtCom= 9.59D-01 WtEn= 4.10D-02
 EnCoef did     3 forward-backward iterations
 Coeff-Com: -0.238D-01 0.448D-01-0.457D-02 0.753D-04 0.114D+00-0.261D-01
 Coeff-Com:  0.480D+00 0.416D+00
 Coeff-En:   0.000D+00 0.000D+00 0.000D+00 0.000D+00 0.553D-01 0.000D+00
 Coeff-En:   0.369D+00 0.576D+00
 Coeff:     -0.228D-01 0.429D-01-0.438D-02 0.722D-04 0.111D+00-0.250D-01
 Coeff:      0.476D+00 0.422D+00
 Gap=     0.124 Goal=   None    Shift=    0.000
 Gap=     0.025 Goal=   None    Shift=    0.000
 RMSDP=1.71D-04 MaxDP=1.25D-02 DE=-3.54D-03 OVMax= 4.34D-02

 Cycle   9  Pass 0  IDiag  1:
 RMSU=  1.20D-04    CP:  9.51D-01  1.94D-01  2.34D-01  5.91D-01  4.00D-01
                    CP:  8.18D-01  1.34D+00  9.00D-01
 E= -1682.35893264749     Delta-E=       -0.006509623912 Rises=F Damp=F
 DIIS: error= 2.91D-03 at cycle   9 NSaved=   9.
 NSaved= 9 IEnMin= 9 EnMin= -1682.35893264749     IErMin= 9 ErrMin= 2.91D-03
 ErrMax= 2.91D-03  0.00D+00 EMaxC= 1.00D-01 BMatC= 8.40D-03 BMatP= 2.87D-02
 IDIUse=3 WtCom= 9.71D-01 WtEn= 2.91D-02
 Coeff-Com: -0.212D-01 0.450D-01-0.588D-02 0.861D-02 0.732D-01-0.285D-01
 Coeff-Com:  0.180D+00 0.220D+00 0.529D+00
 Coeff-En:   0.000D+00 0.000D+00 0.000D+00 0.000D+00 0.000D+00 0.000D+00
 Coeff-En:   0.000D+00 0.000D+00 0.100D+01
 Coeff:     -0.205D-01 0.437D-01-0.571D-02 0.836D-02 0.711D-01-0.276D-01
 Coeff:      0.175D+00 0.213D+00 0.542D+00
 Gap=     0.123 Goal=   None    Shift=    0.000
 Gap=     0.023 Goal=   None    Shift=    0.000
 RMSDP=7.85D-05 MaxDP=3.91D-03 DE=-6.51D-03 OVMax= 1.07D-02

 Cycle  10  Pass 0  IDiag  1:
 RMSU=  7.28D-05    CP:  9.51D-01  1.94D-01  2.32D-01  5.93D-01  4.02D-01
                    CP:  8.07D-01  1.36D+00  9.84D-01  1.04D+00
 E= -1682.36017464431     Delta-E=       -0.001241996825 Rises=F Damp=F
 DIIS: error= 1.92D-03 at cycle  10 NSaved=  10.
 NSaved=10 IEnMin=10 EnMin= -1682.36017464431     IErMin=10 ErrMin= 1.92D-03
 ErrMax= 1.92D-03  0.00D+00 EMaxC= 1.00D-01 BMatC= 4.94D-03 BMatP= 8.40D-03
 IDIUse=3 WtCom= 9.81D-01 WtEn= 1.92D-02
 Coeff-Com: -0.220D-01 0.426D-01-0.382D-02 0.124D-01 0.362D-01 0.250D-01
 Coeff-Com: -0.122D+00-0.130D+00 0.366D+00 0.795D+00
 Coeff-En:   0.000D+00 0.000D+00 0.000D+00 0.000D+00 0.000D+00 0.000D+00
 Coeff-En:   0.000D+00 0.000D+00 0.000D+00 0.100D+01
 Coeff:     -0.216D-01 0.418D-01-0.375D-02 0.121D-01 0.355D-01 0.245D-01
 Coeff:     -0.119D+00-0.127D+00 0.359D+00 0.799D+00
 Gap=     0.120 Goal=   None    Shift=    0.000
 Gap=     0.026 Goal=   None    Shift=    0.000
 RMSDP=7.24D-05 MaxDP=4.06D-03 DE=-1.24D-03 OVMax= 2.97D-02

 Cycle  11  Pass 0  IDiag  1:
 RMSU=  4.38D-05    CP:  9.51D-01  1.96D-01  2.30D-01  5.95D-01  4.05D-01
                    CP:  7.83D-01  1.39D+00  1.06D+00  1.42D+00  8.65D-01
 E= -1682.36116046388     Delta-E=       -0.000985819561 Rises=F Damp=F
 DIIS: error= 1.46D-03 at cycle  11 NSaved=  11.
 NSaved=11 IEnMin=11 EnMin= -1682.36116046388     IErMin=11 ErrMin= 1.46D-03
 ErrMax= 1.46D-03  0.00D+00 EMaxC= 1.00D-01 BMatC= 2.20D-03 BMatP= 4.94D-03
 IDIUse=3 WtCom= 9.85D-01 WtEn= 1.46D-02
 Coeff-Com: -0.140D-01 0.262D-01-0.196D-02 0.903D-02 0.156D-01 0.314D-01
 Coeff-Com: -0.109D+00-0.150D+00-0.167D+00 0.498D+00 0.861D+00
 Coeff-En:   0.000D+00 0.000D+00 0.000D+00 0.000D+00 0.000D+00 0.000D+00
 Coeff-En:   0.000D+00 0.000D+00 0.000D+00 0.000D+00 0.100D+01
 Coeff:     -0.138D-01 0.258D-01-0.193D-02 0.890D-02 0.154D-01 0.310D-01
 Coeff:     -0.107D+00-0.148D+00-0.164D+00 0.491D+00 0.863D+00
 Gap=     0.108 Goal=   None    Shift=    0.000
 Gap=     0.023 Goal=   None    Shift=    0.000
 RMSDP=6.94D-05 MaxDP=2.67D-03 DE=-9.86D-04 OVMax= 2.20D-02

 Cycle  12  Pass 0  IDiag  1:
 RMSU=  4.41D-05    CP:  9.51D-01  1.98D-01  2.27D-01  6.00D-01  4.06D-01
                    CP:  7.64D-01  1.38D+00  1.07D+00  1.64D+00  1.37D+00
                    CP:  9.01D-01
 E= -1682.36188233384     Delta-E=       -0.000721869961 Rises=F Damp=F
 DIIS: error= 6.17D-04 at cycle  12 NSaved=  12.
 NSaved=12 IEnMin=12 EnMin= -1682.36188233384     IErMin=12 ErrMin= 6.17D-04
 ErrMax= 6.17D-04  0.00D+00 EMaxC= 1.00D-01 BMatC= 7.99D-04 BMatP= 2.20D-03
 IDIUse=3 WtCom= 9.94D-01 WtEn= 6.17D-03
 Coeff-Com: -0.733D-02 0.113D-01 0.669D-04 0.136D-02 0.451D-02 0.140D-01
 Coeff-Com: -0.923D-02-0.396D-01-0.396D+00-0.287D-02 0.816D+00 0.608D+00
 Coeff-En:   0.000D+00 0.000D+00 0.000D+00 0.000D+00 0.000D+00 0.000D+00
 Coeff-En:   0.000D+00 0.000D+00 0.000D+00 0.000D+00 0.000D+00 0.100D+01
 Coeff:     -0.729D-02 0.113D-01 0.665D-04 0.135D-02 0.448D-02 0.139D-01
 Coeff:     -0.917D-02-0.394D-01-0.394D+00-0.286D-02 0.811D+00 0.610D+00
 Gap=     0.101 Goal=   None    Shift=    0.000
 Gap=     0.020 Goal=   None    Shift=    0.000
 RMSDP=4.79D-05 MaxDP=3.21D-03 DE=-7.22D-04 OVMax= 2.10D-02

 Cycle  13  Pass 0  IDiag  1:
 RMSU=  3.42D-05    CP:  9.51D-01  1.99D-01  2.27D-01  6.03D-01  4.10D-01
                    CP:  7.52D-01  1.38D+00  1.09D+00  1.77D+00  1.57D+00
                    CP:  1.37D+00  1.03D+00
 E= -1682.36215062750     Delta-E=       -0.000268293668 Rises=F Damp=F
 DIIS: error= 2.84D-04 at cycle  13 NSaved=  13.
 NSaved=13 IEnMin=13 EnMin= -1682.36215062750     IErMin=13 ErrMin= 2.84D-04
 ErrMax= 2.84D-04  0.00D+00 EMaxC= 1.00D-01 BMatC= 7.73D-05 BMatP= 7.99D-04
 IDIUse=3 WtCom= 9.97D-01 WtEn= 2.84D-03
 Coeff-Com: -0.200D-02 0.283D-02-0.532D-04 0.329D-03 0.139D-03 0.360D-03
 Coeff-Com:  0.577D-02 0.127D-01-0.197D+00-0.968D-01 0.345D+00 0.323D+00
 Coeff-Com:  0.606D+00
 Coeff-En:   0.000D+00 0.000D+00 0.000D+00 0.000D+00 0.000D+00 0.000D+00
 Coeff-En:   0.000D+00 0.000D+00 0.000D+00 0.000D+00 0.000D+00 0.000D+00
 Coeff-En:   0.100D+01
 Coeff:     -0.199D-02 0.282D-02-0.530D-04 0.328D-03 0.138D-03 0.359D-03
 Coeff:      0.575D-02 0.127D-01-0.197D+00-0.965D-01 0.344D+00 0.322D+00
 Coeff:      0.607D+00
 Gap=     0.099 Goal=   None    Shift=    0.000
 Gap=     0.019 Goal=   None    Shift=    0.000
 RMSDP=2.90D-05 MaxDP=1.57D-03 DE=-2.68D-04 OVMax= 1.54D-02

 Cycle  14  Pass 0  IDiag  1:
 RMSU=  1.93D-05    CP:  9.51D-01  1.99D-01  2.26D-01  6.05D-01  4.10D-01
                    CP:  7.47D-01  1.37D+00  1.08D+00  1.82D+00  1.66D+00
                    CP:  1.37D+00  1.37D+00  1.27D+00
 E= -1682.36217878935     Delta-E=       -0.000028161841 Rises=F Damp=F
 DIIS: error= 1.32D-04 at cycle  14 NSaved=  14.
 NSaved=14 IEnMin=14 EnMin= -1682.36217878935     IErMin=14 ErrMin= 1.32D-04
 ErrMax= 1.32D-04  0.00D+00 EMaxC= 1.00D-01 BMatC= 6.05D-05 BMatP= 7.73D-05
 IDIUse=3 WtCom= 9.99D-01 WtEn= 1.32D-03
 Coeff-Com: -0.798D-03 0.784D-03 0.779D-05-0.553D-03 0.200D-02-0.378D-02
 Coeff-Com:  0.132D-01 0.348D-01 0.173D-01-0.526D-01-0.862D-02-0.401D-01
 Coeff-Com:  0.452D+00 0.586D+00
 Coeff-En:   0.000D+00 0.000D+00 0.000D+00 0.000D+00 0.000D+00 0.000D+00
 Coeff-En:   0.000D+00 0.000D+00 0.000D+00 0.000D+00 0.000D+00 0.000D+00
 Coeff-En:   0.216D+00 0.784D+00
 Coeff:     -0.796D-03 0.783D-03 0.778D-05-0.553D-03 0.200D-02-0.377D-02
 Coeff:      0.132D-01 0.347D-01 0.173D-01-0.525D-01-0.861D-02-0.401D-01
 Coeff:      0.452D+00 0.587D+00
 Gap=     0.101 Goal=   None    Shift=    0.000
 Gap=     0.019 Goal=   None    Shift=    0.000
 RMSDP=1.63D-05 MaxDP=7.27D-04 DE=-2.82D-05 OVMax= 6.35D-03

 Cycle  15  Pass 0  IDiag  1:
 RMSU=  7.41D-06    CP:  9.51D-01  1.99D-01  2.26D-01  6.04D-01  4.11D-01
                    CP:  7.49D-01  1.36D+00  1.07D+00  1.78D+00  1.61D+00
                    CP:  1.35D+00  1.44D+00  1.59D+00  1.01D+00
 E= -1682.36220220805     Delta-E=       -0.000023418701 Rises=F Damp=F
 DIIS: error= 4.30D-05 at cycle  15 NSaved=  15.
 NSaved=15 IEnMin=15 EnMin= -1682.36220220805     IErMin=15 ErrMin= 4.30D-05
 ErrMax= 4.30D-05  0.00D+00 EMaxC= 1.00D-01 BMatC= 7.63D-06 BMatP= 6.05D-05
 IDIUse=1 WtCom= 1.00D+00 WtEn= 0.00D+00
 Coeff-Com:  0.878D-04-0.746D-04-0.186D-05-0.198D-04 0.145D-03-0.281D-02
 Coeff-Com:  0.976D-03 0.171D-01 0.554D-01-0.949D-02-0.579D-01-0.112D+00
 Coeff-Com:  0.176D+00 0.326D+00 0.606D+00
 Coeff:      0.878D-04-0.746D-04-0.186D-05-0.198D-04 0.145D-03-0.281D-02
 Coeff:      0.976D-03 0.171D-01 0.554D-01-0.949D-02-0.579D-01-0.112D+00
 Coeff:      0.176D+00 0.326D+00 0.606D+00
 Gap=     0.102 Goal=   None    Shift=    0.000
 Gap=     0.019 Goal=   None    Shift=    0.000
 RMSDP=9.80D-06 MaxDP=5.87D-04 DE=-2.34D-05 OVMax= 6.10D-03

 Initial convergence to 1.0D-05 achieved.  Increase integral accuracy.
 Cycle  16  Pass 1  IDiag  1:
 E= -1682.36222692983     Delta-E=       -0.000024721787 Rises=F Damp=F
 DIIS: error= 1.04D-04 at cycle   1 NSaved=   1.
 NSaved= 1 IEnMin= 1 EnMin= -1682.36222692983     IErMin= 1 ErrMin= 1.04D-04
 ErrMax= 1.04D-04  0.00D+00 EMaxC= 1.00D-01 BMatC= 1.52D-05 BMatP= 1.52D-05
 IDIUse=3 WtCom= 9.99D-01 WtEn= 1.04D-03
 Coeff-Com:  0.100D+01
 Coeff-En:   0.100D+01
 Coeff:      0.100D+01
 Gap=     0.103 Goal=   None    Shift=    0.000
 Gap=     0.020 Goal=   None    Shift=    0.000
 RMSDP=9.80D-06 MaxDP=5.87D-04 DE=-2.47D-05 OVMax= 2.82D-03

 Cycle  17  Pass 1  IDiag  1:
 RMSU=  6.78D-05    CP:  1.00D+00
 E= -1682.36222500095     Delta-E=        0.000001928879 Rises=F Damp=F
 DIIS: error= 1.01D-04 at cycle   2 NSaved=   2.
 NSaved= 2 IEnMin= 1 EnMin= -1682.36222692983     IErMin= 2 ErrMin= 1.01D-04
 ErrMax= 1.01D-04  0.00D+00 EMaxC= 1.00D-01 BMatC= 1.83D-05 BMatP= 1.52D-05
 IDIUse=3 WtCom= 4.99D-01 WtEn= 5.01D-01
 Coeff-Com:  0.531D+00 0.469D+00
 Coeff-En:   0.618D+00 0.382D+00
 Coeff:      0.575D+00 0.425D+00
 Gap=     0.103 Goal=   None    Shift=    0.000
 Gap=     0.019 Goal=   None    Shift=    0.000
 RMSDP=9.63D-06 MaxDP=5.37D-04 DE= 1.93D-06 OVMax= 5.13D-03

 Cycle  18  Pass 1  IDiag  1:
 RMSU=  9.59D-06    CP:  1.00D+00  9.88D-01
 E= -1682.36222870147     Delta-E=       -0.000003700514 Rises=F Damp=F
 DIIS: error= 6.42D-05 at cycle   3 NSaved=   3.
 NSaved= 3 IEnMin= 3 EnMin= -1682.36222870147     IErMin= 3 ErrMin= 6.42D-05
 ErrMax= 6.42D-05  0.00D+00 EMaxC= 1.00D-01 BMatC= 7.95D-06 BMatP= 1.52D-05
 IDIUse=1 WtCom= 1.00D+00 WtEn= 0.00D+00
 Coeff-Com:  0.648D-01 0.384D+00 0.552D+00
 Coeff:      0.648D-01 0.384D+00 0.552D+00
 Gap=     0.103 Goal=   None    Shift=    0.000
 Gap=     0.019 Goal=   None    Shift=    0.000
 RMSDP=5.00D-06 MaxDP=2.73D-04 DE=-3.70D-06 OVMax= 2.20D-03

 Cycle  19  Pass 1  IDiag  1:
 RMSU=  4.13D-06    CP:  1.00D+00  9.99D-01  7.18D-01
 E= -1682.36223090194     Delta-E=       -0.000002200474 Rises=F Damp=F
 DIIS: error= 4.15D-05 at cycle   4 NSaved=   4.
 NSaved= 4 IEnMin= 4 EnMin= -1682.36223090194     IErMin= 4 ErrMin= 4.15D-05
 ErrMax= 4.15D-05  0.00D+00 EMaxC= 1.00D-01 BMatC= 1.87D-06 BMatP= 7.95D-06
 IDIUse=1 WtCom= 1.00D+00 WtEn= 0.00D+00
 Coeff-Com: -0.110D-01 0.259D+00 0.406D+00 0.346D+00
 Coeff:     -0.110D-01 0.259D+00 0.406D+00 0.346D+00
 Gap=     0.103 Goal=   None    Shift=    0.000
 Gap=     0.019 Goal=   None    Shift=    0.000
 RMSDP=2.12D-06 MaxDP=1.37D-04 DE=-2.20D-06 OVMax= 9.73D-04

 Cycle  20  Pass 1  IDiag  1:
 RMSU=  1.13D-06    CP:  1.00D+00  1.00D+00  7.54D-01  5.74D-01
 E= -1682.36223144504     Delta-E=       -0.000000543094 Rises=F Damp=F
 DIIS: error= 6.38D-06 at cycle   5 NSaved=   5.
 NSaved= 5 IEnMin= 5 EnMin= -1682.36223144504     IErMin= 5 ErrMin= 6.38D-06
 ErrMax= 6.38D-06  0.00D+00 EMaxC= 1.00D-01 BMatC= 1.48D-07 BMatP= 1.87D-06
 IDIUse=1 WtCom= 1.00D+00 WtEn= 0.00D+00
 Coeff-Com: -0.119D-01 0.148D+00 0.191D+00 0.189D+00 0.484D+00
 Coeff:     -0.119D-01 0.148D+00 0.191D+00 0.189D+00 0.484D+00
 Gap=     0.103 Goal=   None    Shift=    0.000
 Gap=     0.019 Goal=   None    Shift=    0.000
 RMSDP=6.64D-07 MaxDP=3.88D-05 DE=-5.43D-07 OVMax= 2.98D-04

 Cycle  21  Pass 1  IDiag  1:
 RMSU=  4.98D-07    CP:  1.00D+00  1.00D+00  7.55D-01  6.79D-01  1.05D+00
 E= -1682.36223149221     Delta-E=       -0.000000047175 Rises=F Damp=F
 DIIS: error= 4.91D-06 at cycle   6 NSaved=   6.
 NSaved= 6 IEnMin= 6 EnMin= -1682.36223149221     IErMin= 6 ErrMin= 4.91D-06
 ErrMax= 4.91D-06  0.00D+00 EMaxC= 1.00D-01 BMatC= 7.55D-08 BMatP= 1.48D-07
 IDIUse=1 WtCom= 1.00D+00 WtEn= 0.00D+00
 Coeff-Com: -0.157D-02-0.983D-01-0.268D+00-0.204D+00 0.492D+00 0.108D+01
 Coeff:     -0.157D-02-0.983D-01-0.268D+00-0.204D+00 0.492D+00 0.108D+01
 Gap=     0.103 Goal=   None    Shift=    0.000
 Gap=     0.020 Goal=   None    Shift=    0.000
 RMSDP=1.12D-06 MaxDP=6.32D-05 DE=-4.72D-08 OVMax= 4.59D-04

 Cycle  22  Pass 1  IDiag  1:
 RMSU=  3.28D-07    CP:  1.00D+00  1.00D+00  7.71D-01  8.25D-01  1.81D+00
                    CP:  1.19D+00
 E= -1682.36223154870     Delta-E=       -0.000000056490 Rises=F Damp=F
 DIIS: error= 3.36D-06 at cycle   7 NSaved=   7.
 NSaved= 7 IEnMin= 7 EnMin= -1682.36223154870     IErMin= 7 ErrMin= 3.36D-06
 ErrMax= 3.36D-06  0.00D+00 EMaxC= 1.00D-01 BMatC= 3.48D-08 BMatP= 7.55D-08
 IDIUse=1 WtCom= 1.00D+00 WtEn= 0.00D+00
 Coeff-Com:  0.241D-02-0.125D+00-0.280D+00-0.223D+00 0.244D+00 0.912D+00
 Coeff-Com:  0.471D+00
 Coeff:      0.241D-02-0.125D+00-0.280D+00-0.223D+00 0.244D+00 0.912D+00
 Coeff:      0.471D+00
 Gap=     0.103 Goal=   None    Shift=    0.000
 Gap=     0.020 Goal=   None    Shift=    0.000
 RMSDP=4.31D-07 MaxDP=3.05D-05 DE=-5.65D-08 OVMax= 1.56D-04

 Cycle  23  Pass 1  IDiag  1:
 RMSU=  1.77D-07    CP:  1.00D+00  1.00D+00  7.80D-01  8.77D-01  2.04D+00
                    CP:  1.47D+00  6.45D-01
 E= -1682.36223156128     Delta-E=       -0.000000012584 Rises=F Damp=F
 DIIS: error= 1.20D-06 at cycle   8 NSaved=   8.
 NSaved= 8 IEnMin= 8 EnMin= -1682.36223156128     IErMin= 8 ErrMin= 1.20D-06
 ErrMax= 1.20D-06  0.00D+00 EMaxC= 1.00D-01 BMatC= 4.98D-09 BMatP= 3.48D-08
 IDIUse=1 WtCom= 1.00D+00 WtEn= 0.00D+00
 Coeff-Com:  0.188D-02-0.761D-01-0.159D+00-0.123D+00 0.105D+00 0.489D+00
 Coeff-Com:  0.315D+00 0.446D+00
 Coeff:      0.188D-02-0.761D-01-0.159D+00-0.123D+00 0.105D+00 0.489D+00
 Coeff:      0.315D+00 0.446D+00
 Gap=     0.103 Goal=   None    Shift=    0.000
 Gap=     0.020 Goal=   None    Shift=    0.000
 RMSDP=1.04D-07 MaxDP=7.72D-06 DE=-1.26D-08 OVMax= 2.30D-05

 Cycle  24  Pass 1  IDiag  1:
 RMSU=  8.67D-08    CP:  1.00D+00  1.00D+00  7.81D-01  8.86D-01  2.05D+00
                    CP:  1.51D+00  7.31D-01  9.26D-01
 E= -1682.36223156287     Delta-E=       -0.000000001585 Rises=F Damp=F
 DIIS: error= 1.02D-06 at cycle   9 NSaved=   9.
 NSaved= 9 IEnMin= 9 EnMin= -1682.36223156287     IErMin= 9 ErrMin= 1.02D-06
 ErrMax= 1.02D-06  0.00D+00 EMaxC= 1.00D-01 BMatC= 1.36D-09 BMatP= 4.98D-09
 IDIUse=1 WtCom= 1.00D+00 WtEn= 0.00D+00
 Coeff-Com: -0.231D-05 0.106D-01 0.387D-01 0.398D-01-0.360D-01-0.133D+00
 Coeff-Com: -0.397D-01 0.213D+00 0.906D+00
 Coeff:     -0.231D-05 0.106D-01 0.387D-01 0.398D-01-0.360D-01-0.133D+00
 Coeff:     -0.397D-01 0.213D+00 0.906D+00
 Gap=     0.103 Goal=   None    Shift=    0.000
 Gap=     0.020 Goal=   None    Shift=    0.000
 RMSDP=1.08D-07 MaxDP=5.44D-06 DE=-1.59D-09 OVMax= 5.44D-05

 Cycle  25  Pass 1  IDiag  1:
 RMSU=  4.85D-08    CP:  1.00D+00  1.00D+00  7.81D-01  8.72D-01  2.02D+00
                    CP:  1.47D+00  8.02D-01  1.26D+00  1.28D+00
 E= -1682.36223156372     Delta-E=       -0.000000000847 Rises=F Damp=F
 DIIS: error= 4.15D-07 at cycle  10 NSaved=  10.
 NSaved=10 IEnMin=10 EnMin= -1682.36223156372     IErMin=10 ErrMin= 4.15D-07
 ErrMax= 4.15D-07  0.00D+00 EMaxC= 1.00D-01 BMatC= 2.69D-10 BMatP= 1.36D-09
 IDIUse=1 WtCom= 1.00D+00 WtEn= 0.00D+00
 Coeff-Com: -0.788D-03 0.376D-01 0.905D-01 0.793D-01-0.695D-01-0.294D+00
 Coeff-Com: -0.164D+00-0.790D-01 0.496D+00 0.904D+00
 Coeff:     -0.788D-03 0.376D-01 0.905D-01 0.793D-01-0.695D-01-0.294D+00
 Coeff:     -0.164D+00-0.790D-01 0.496D+00 0.904D+00
 Gap=     0.103 Goal=   None    Shift=    0.000
 Gap=     0.020 Goal=   None    Shift=    0.000
 RMSDP=7.76D-08 MaxDP=5.23D-06 DE=-8.47D-10 OVMax= 3.10D-05

 Cycle  26  Pass 1  IDiag  1:
 RMSU=  2.99D-08    CP:  1.00D+00  1.00D+00  7.79D-01  8.66D-01  2.00D+00
                    CP:  1.48D+00  8.64D-01  1.49D+00  1.72D+00  1.18D+00
 E= -1682.36223156398     Delta-E=       -0.000000000264 Rises=F Damp=F
 DIIS: error= 1.68D-07 at cycle  11 NSaved=  11.
 NSaved=11 IEnMin=11 EnMin= -1682.36223156398     IErMin=11 ErrMin= 1.68D-07
 ErrMax= 1.68D-07  0.00D+00 EMaxC= 1.00D-01 BMatC= 1.06D-10 BMatP= 2.69D-10
 IDIUse=1 WtCom= 1.00D+00 WtEn= 0.00D+00
 Coeff-Com: -0.473D-03 0.207D-01 0.484D-01 0.418D-01-0.378D-01-0.159D+00
 Coeff-Com: -0.931D-01-0.774D-01 0.166D+00 0.602D+00 0.489D+00
 Coeff:     -0.473D-03 0.207D-01 0.484D-01 0.418D-01-0.378D-01-0.159D+00
 Coeff:     -0.931D-01-0.774D-01 0.166D+00 0.602D+00 0.489D+00
 Gap=     0.103 Goal=   None    Shift=    0.000
 Gap=     0.020 Goal=   None    Shift=    0.000
 RMSDP=2.13D-08 MaxDP=1.42D-06 DE=-2.64D-10 OVMax= 1.05D-05

 Cycle  27  Pass 1  IDiag  1:
 RMSU=  1.13D-08    CP:  1.00D+00  1.00D+00  7.79D-01  8.63D-01  2.00D+00
                    CP:  1.48D+00  8.78D-01  1.54D+00  1.79D+00  1.33D+00
                    CP:  8.07D-01
 E= -1682.36223156398     Delta-E=        0.000000000004 Rises=F Damp=F
 DIIS: error= 4.70D-08 at cycle  12 NSaved=  12.
 NSaved=12 IEnMin=11 EnMin= -1682.36223156398     IErMin=12 ErrMin= 4.70D-08
 ErrMax= 4.70D-08  0.00D+00 EMaxC= 1.00D-01 BMatC= 1.16D-11 BMatP= 1.06D-10
 IDIUse=1 WtCom= 1.00D+00 WtEn= 0.00D+00
 Coeff-Com: -0.102D-03 0.377D-02 0.810D-02 0.662D-02-0.624D-02-0.276D-01
 Coeff-Com: -0.166D-01-0.246D-01-0.177D-01 0.143D+00 0.245D+00 0.686D+00
 Coeff:     -0.102D-03 0.377D-02 0.810D-02 0.662D-02-0.624D-02-0.276D-01
 Coeff:     -0.166D-01-0.246D-01-0.177D-01 0.143D+00 0.245D+00 0.686D+00
 Gap=     0.103 Goal=   None    Shift=    0.000
 Gap=     0.020 Goal=   None    Shift=    0.000
 RMSDP=7.56D-09 MaxDP=6.73D-07 DE= 3.64D-12 OVMax= 1.54D-06

 SCF Done:  E(UB3LYP) =  -1682.36223156     A.U. after   27 cycles
            NFock= 27  Conv=0.76D-08     -V/T= 2.0082
 <Sx>= 0.0000 <Sy>= 0.0000 <Sz>= 0.5000 <S**2>= 0.7588 S= 0.5044
 <L.S>= 0.000000000000E+00
 KE= 1.668651398057D+03 PE=-1.005001265103D+04 EE= 3.621828925566D+03
 Annihilation of the first spin contaminant:
 S**2 before annihilation     0.7588,   after     0.7501
 Leave Link  502 at Thu Mar 14 11:32:15 2024, MaxMem= 32212254720 cpu:            1808.3 elap:              60.3
 (Enter /home/<user>/g16/l601.exe)
 Copying SCF densities to generalized density rwf, IOpCl= 1 IROHF=0.

 **********************************************************************

            Population analysis using the SCF Density.

 **********************************************************************

 Orbital symmetries:
 Alpha Orbitals:
       Occupied  (A) (A) (A) (A) (A) (A) (A) (A) (A) (A) (A) (A)
                 (A) (A) (A) (A) (A) (A) (A) (A) (A) (A) (A) (A)
                 (A) (A) (A) (A) (A) (A) (A) (A) (A) (A) (A) (A)
                 (A) (A) (A) (A) (A) (A) (A) (A) (A) (A) (A) (A)
                 (A) (A) (A) (A) (A) (A) (A) (A) (A) (A) (A) (A)
                 (A) (A) (A) (A) (A) (A) (A) (A) (A) (A) (A) (A)
                 (A) (A) (A) (A) (A) (A) (A) (A) (A) (A) (A) (A)
                 (A) (A) (A) (A) (A) (A) (A) (A) (A) (A) (A) (A)
                 (A) (A) (A) (A) (A) (A) (A) (A) (A) (A) (A) (A)
                 (A) (A) (A) (A) (A) (A) (A) (A) (A) (A)
       Virtual   (A) (A) (A) (A) (A) (A) (A) (A) (A) (A) (A) (A)
                 (A) (A) (A) (A) (A) (A) (A) (A) (A) (A) (A) (A)
                 (A) (A) (A) (A) (A) (A) (A) (A) (A) (A) (A) (A)
                 (A) (A) (A) (A) (A) (A) (A) (A) (A) (A) (A) (A)
                 (A) (A) (A) (A) (A) (A) (A) (A) (A) (A) (A) (A)
                 (A) (A) (A) (A) (A) (A) (A) (A) (A) (A) (A) (A)
                 (A) (A) (A) (A) (A) (A) (A) (A) (A) (A) (A) (A)
                 (A) (A) (A) (A) (A) (A) (A) (A) (A) (A) (A) (A)
                 (A) (A) (A) (A) (A) (A) (A) (A) (A) (A) (A) (A)
                 (A) (A) (A) (A) (A) (A) (A) (A) (A) (A) (A) (A)
                 (A) (A) (A) (A) (A) (A) (A) (A) (A) (A) (A) (A)
                 (A) (A) (A) (A) (A) (A) (A) (A) (A) (A) (A) (A)
                 (A) (A) (A) (A) (A) (A) (A) (A) (A) (A) (A) (A)
                 (A) (A) (A) (A) (A) (A) (A) (A) (A) (A) (A) (A)
                 (A) (A) (A) (A) (A) (A) (A) (A) (A) (A) (A) (A)
                 (A) (A) (A) (A) (A) (A) (A) (A) (A) (A) (A) (A)
                 (A) (A) (A) (A) (A) (A) (A) (A) (A) (A) (A) (A)
                 (A) (A) (A) (A) (A) (A) (A) (A) (A) (A) (A) (A)
                 (A) (A) (A) (A) (A) (A) (A) (A) (A) (A) (A) (A)
                 (A) (A) (A) (A) (A) (A) (A) (A) (A) (A) (A) (A)
                 (A) (A) (A) (A) (A) (A) (A) (A) (A) (A) (A) (A)
                 (A) (A) (A) (A) (A) (A) (A) (A) (A) (A) (A) (A)
                 (A) (A) (A) (A) (A) (A) (A) (A) (A) (A) (A) (A)
                 (A) (A) (A) (A) (A) (A) (A) (A) (A) (A) (A) (A)
                 (A) (A) (A) (A) (A) (A) (A) (A) (A) (A) (A) (A)
                 (A) (A) (A) (A) (A) (A) (A) (A) (A) (A) (A) (A)
                 (A) (A) (A) (A) (A) (A) (A) (A) (A) (A) (A) (A)
                 (A) (A) (A) (A) (A) (A) (A) (A) (A) (A) (A) (A)
                 (A) (A) (A) (A) (A) (A) (A) (A) (A) (A) (A) (A)
                 (A) (A) (A) (A) (A) (A) (A) (A) (A) (A) (A) (A)
                 (A) (A) (A) (A) (A) (A) (A) (A) (A) (A) (A) (A)
                 (A) (A) (A) (A) (A) (A) (A) (A) (A) (A) (A) (A)
                 (A) (A) (A) (A) (A) (A) (A) (A) (A) (A) (A) (A)
                 (A) (A) (A) (A) (A) (A) (A) (A) (A) (A) (A) (A)
                 (A) (A) (A) (A) (A) (A) (A) (A) (A) (A) (A) (A)
                 (A) (A) (A) (A) (A) (A) (A) (A) (A) (A) (A)
 Beta  Orbitals:
       Occupied  (A) (A) (A) (A) (A) (A) (A) (A) (A) (A) (A) (A)
                 (A) (A) (A) (A) (A) (A) (A) (A) (A) (A) (A) (A)
                 (A) (A) (A) (A) (A) (A) (A) (A) (A) (A) (A) (A)
                 (A) (A) (A) (A) (A) (A) (A) (A) (A) (A) (A) (A)
                 (A) (A) (A) (A) (A) (A) (A) (A) (A) (A) (A) (A)
                 (A) (A) (A) (A) (A) (A) (A) (A) (A) (A) (A) (A)
                 (A) (A) (A) (A) (A) (A) (A) (A) (A) (A) (A) (A)
                 (A) (A) (A) (A) (A) (A) (A) (A) (A) (A) (A) (A)
                 (A) (A) (A) (A) (A) (A) (A) (A) (A) (A) (A) (A)
                 (A) (A) (A) (A) (A) (A) (A) (A) (A)
       Virtual   (A) (A) (A) (A) (A) (A) (A) (A) (A) (A) (A) (A)
                 (A) (A) (A) (A) (A) (A) (A) (A) (A) (A) (A) (A)
                 (A) (A) (A) (A) (A) (A) (A) (A) (A) (A) (A) (A)
                 (A) (A) (A) (A) (A) (A) (A) (A) (A) (A) (A) (A)
                 (A) (A) (A) (A) (A) (A) (A) (A) (A) (A) (A) (A)
                 (A) (A) (A) (A) (A) (A) (A) (A) (A) (A) (A) (A)
                 (A) (A) (A) (A) (A) (A) (A) (A) (A) (A) (A) (A)
                 (A) (A) (A) (A) (A) (A) (A) (A) (A) (A) (A) (A)
                 (A) (A) (A) (A) (A) (A) (A) (A) (A) (A) (A) (A)
                 (A) (A) (A) (A) (A) (A) (A) (A) (A) (A) (A) (A)
                 (A) (A) (A) (A) (A) (A) (A) (A) (A) (A) (A) (A)
                 (A) (A) (A) (A) (A) (A) (A) (A) (A) (A) (A) (A)
                 (A) (A) (A) (A) (A) (A) (A) (A) (A) (A) (A) (A)
                 (A) (A) (A) (A) (A) (A) (A) (A) (A) (A) (A) (A)
                 (A) (A) (A) (A) (A) (A) (A) (A) (A) (A) (A) (A)
                 (A) (A) (A) (A) (A) (A) (A) (A) (A) (A) (A) (A)
                 (A) (A) (A) (A) (A) (A) (A) (A) (A) (A) (A) (A)
                 (A) (A) (A) (A) (A) (A) (A) (A) (A) (A) (A) (A)
                 (A) (A) (A) (A) (A) (A) (A) (A) (A) (A) (A) (A)
                 (A) (A) (A) (A) (A) (A) (A) (A) (A) (A) (A) (A)
                 (A) (A) (A) (A) (A) (A) (A) (A) (A) (A) (A) (A)
                 (A) (A) (A) (A) (A) (A) (A) (A) (A) (A) (A) (A)
                 (A) (A) (A) (A) (A) (A) (A) (A) (A) (A) (A) (A)
                 (A) (A) (A) (A) (A) (A) (A) (A) (A) (A) (A) (A)
                 (A) (A) (A) (A) (A) (A) (A) (A) (A) (A) (A) (A)
                 (A) (A) (A) (A) (A) (A) (A) (A) (A) (A) (A) (A)
                 (A) (A) (A) (A) (A) (A) (A) (A) (A) (A) (A) (A)
                 (A) (A) (A) (A) (A) (A) (A) (A) (A) (A) (A) (A)
                 (A) (A) (A) (A) (A) (A) (A) (A) (A) (A) (A) (A)
                 (A) (A) (A) (A) (A) (A) (A) (A) (A) (A) (A) (A)
                 (A) (A) (A) (A) (A) (A) (A) (A) (A) (A) (A) (A)
                 (A) (A) (A) (A) (A) (A) (A) (A) (A) (A) (A) (A)
                 (A) (A) (A) (A) (A) (A) (A) (A) (A) (A) (A) (A)
                 (A) (A) (A) (A) (A) (A) (A) (A) (A) (A) (A) (A)
                 (A) (A) (A) (A) (A) (A) (A) (A) (A) (A) (A) (A)
                 (A) (A) (A) (A) (A) (A) (A) (A) (A) (A) (A) (A)
 The electronic state is 2-A.
 Alpha  occ. eigenvalues --  -89.08008 -14.48319 -14.48301 -14.38509 -10.36124
 Alpha  occ. eigenvalues --  -10.35961 -10.34611 -10.34493 -10.33775 -10.33134
 Alpha  occ. eigenvalues --  -10.32599 -10.32547 -10.31565 -10.31488 -10.31472
 Alpha  occ. eigenvalues --  -10.31461 -10.31420 -10.31187 -10.31093 -10.30548
 Alpha  occ. eigenvalues --  -10.30375 -10.30361 -10.30218 -10.29913 -10.29667
 Alpha  occ. eigenvalues --  -10.29554 -10.29536 -10.28974 -10.28803 -10.28795
 Alpha  occ. eigenvalues --  -10.27692 -10.27602 -10.27046  -8.13544  -6.10090
 Alpha  occ. eigenvalues --   -6.09491  -6.09270  -1.13033  -1.01187  -1.00602
 Alpha  occ. eigenvalues --   -0.99221  -0.96789  -0.95911  -0.95076  -0.92704
 Alpha  occ. eigenvalues --   -0.90959  -0.88843  -0.87739  -0.86330  -0.85744
 Alpha  occ. eigenvalues --   -0.84706  -0.83912  -0.83119  -0.79895  -0.78391
 Alpha  occ. eigenvalues --   -0.76719  -0.75827  -0.74104  -0.73576  -0.71736
 Alpha  occ. eigenvalues --   -0.70827  -0.69834  -0.69278  -0.68480  -0.67019
 Alpha  occ. eigenvalues --   -0.66163  -0.62768  -0.62186  -0.62017  -0.60792
 Alpha  occ. eigenvalues --   -0.60594  -0.58659  -0.57410  -0.57123  -0.56618
 Alpha  occ. eigenvalues --   -0.56126  -0.55806  -0.55102  -0.54818  -0.54779
 Alpha  occ. eigenvalues --   -0.53830  -0.53496  -0.53127  -0.52909  -0.52333
 Alpha  occ. eigenvalues --   -0.51958  -0.50495  -0.50075  -0.49829  -0.49638
 Alpha  occ. eigenvalues --   -0.49306  -0.48932  -0.48776  -0.48455  -0.48374
 Alpha  occ. eigenvalues --   -0.47330  -0.46618  -0.46194  -0.45380  -0.45132
 Alpha  occ. eigenvalues --   -0.44697  -0.44461  -0.44280  -0.43556  -0.43180
 Alpha  occ. eigenvalues --   -0.42645  -0.42437  -0.42104  -0.41057  -0.40465
 Alpha  occ. eigenvalues --   -0.37805  -0.37384  -0.36725  -0.35278  -0.35260
 Alpha  occ. eigenvalues --   -0.34281  -0.32312  -0.30775
 Alpha virt. eigenvalues --   -0.20457  -0.15748  -0.12946  -0.12537  -0.11093
 Alpha virt. eigenvalues --   -0.10401  -0.10329  -0.09341  -0.08938  -0.06426
 Alpha virt. eigenvalues --   -0.03233  -0.01457  -0.00192   0.00624   0.00791
 Alpha virt. eigenvalues --    0.01012   0.01394   0.01650   0.03105   0.03277
 Alpha virt. eigenvalues --    0.04030   0.04156   0.04999   0.05646   0.05860
 Alpha virt. eigenvalues --    0.06529   0.06744   0.07071   0.07278   0.07558
 Alpha virt. eigenvalues --    0.08170   0.08862   0.09161   0.09825   0.09995
 Alpha virt. eigenvalues --    0.10541   0.10609   0.10899   0.11762   0.12095
 Alpha virt. eigenvalues --    0.12283   0.12545   0.13066   0.13363   0.14192
 Alpha virt. eigenvalues --    0.14585   0.15207   0.15643   0.15895   0.16480
 Alpha virt. eigenvalues --    0.17007   0.17450   0.17559   0.18341   0.19035
 Alpha virt. eigenvalues --    0.19277   0.20020   0.21715   0.22299   0.23040
 Alpha virt. eigenvalues --    0.23709   0.24253   0.24433   0.25421   0.25844
 Alpha virt. eigenvalues --    0.26531   0.28087   0.28195   0.29565   0.31126
 Alpha virt. eigenvalues --    0.31925   0.33121   0.35766   0.37643   0.38568
 Alpha virt. eigenvalues --    0.38750   0.38941   0.39362   0.39946   0.40428
 Alpha virt. eigenvalues --    0.40515   0.41483   0.41912   0.42119   0.42416
 Alpha virt. eigenvalues --    0.42834   0.43432   0.43827   0.44086   0.44475
 Alpha virt. eigenvalues --    0.44714   0.45130   0.45263   0.45775   0.46123
 Alpha virt. eigenvalues --    0.46271   0.47020   0.47255   0.47647   0.48147
 Alpha virt. eigenvalues --    0.48219   0.48703   0.49200   0.49316   0.49401
 Alpha virt. eigenvalues --    0.50065   0.50494   0.50676   0.50950   0.51266
 Alpha virt. eigenvalues --    0.51939   0.52139   0.52944   0.53293   0.53587
 Alpha virt. eigenvalues --    0.54034   0.54507   0.54607   0.55179   0.55399
 Alpha virt. eigenvalues --    0.55809   0.56171   0.57332   0.58021   0.58328
 Alpha virt. eigenvalues --    0.58915   0.59405   0.61166   0.61940   0.62823
 Alpha virt. eigenvalues --    0.63879   0.64514   0.65346   0.66238   0.66711
 Alpha virt. eigenvalues --    0.66973   0.67350   0.67865   0.68221   0.68536
 Alpha virt. eigenvalues --    0.69017   0.69906   0.70508   0.71163   0.71874
 Alpha virt. eigenvalues --    0.72084   0.72214   0.72910   0.73003   0.73719
 Alpha virt. eigenvalues --    0.74274   0.74735   0.75271   0.75777   0.76075
 Alpha virt. eigenvalues --    0.76313   0.76993   0.77497   0.77847   0.78403
 Alpha virt. eigenvalues --    0.79479   0.80408   0.81360   0.81470   0.81683
 Alpha virt. eigenvalues --    0.81965   0.82470   0.83031   0.83384   0.83994
 Alpha virt. eigenvalues --    0.84609   0.85005   0.85864   0.86096   0.86313
 Alpha virt. eigenvalues --    0.86553   0.87567   0.87886   0.88188   0.88522
 Alpha virt. eigenvalues --    0.89060   0.89675   0.89837   0.90307   0.90572
 Alpha virt. eigenvalues --    0.91267   0.91394   0.92389   0.93455   0.94466
 Alpha virt. eigenvalues --    0.95527   0.95886   0.96607   0.96792   0.97817
 Alpha virt. eigenvalues --    0.98310   0.99008   1.00444   1.00705   1.01315
 Alpha virt. eigenvalues --    1.02473   1.03193   1.04554   1.04847   1.05445
 Alpha virt. eigenvalues --    1.06913   1.07645   1.08675   1.10368   1.10866
 Alpha virt. eigenvalues --    1.12448   1.12739   1.12944   1.14262   1.15243
 Alpha virt. eigenvalues --    1.17997   1.18639   1.19141   1.21339   1.21799
 Alpha virt. eigenvalues --    1.23003   1.23651   1.23951   1.25248   1.28121
 Alpha virt. eigenvalues --    1.28886   1.29599   1.30834   1.31042   1.32267
 Alpha virt. eigenvalues --    1.32612   1.33859   1.34439   1.34507   1.35707
 Alpha virt. eigenvalues --    1.36061   1.36221   1.36510   1.36906   1.38363
 Alpha virt. eigenvalues --    1.38583   1.39034   1.39187   1.41468   1.42066
 Alpha virt. eigenvalues --    1.43577   1.44663   1.47120   1.48240   1.50007
 Alpha virt. eigenvalues --    1.50390   1.53905   1.54054   1.56130   1.57416
 Alpha virt. eigenvalues --    1.59149   1.59632   1.60965   1.61299   1.61841
 Alpha virt. eigenvalues --    1.62818   1.64683   1.64956   1.65627   1.66535
 Alpha virt. eigenvalues --    1.67543   1.68559   1.68659   1.69582   1.70460
 Alpha virt. eigenvalues --    1.70691   1.71337   1.72793   1.74215   1.75396
 Alpha virt. eigenvalues --    1.75702   1.75970   1.76568   1.77921   1.79604
 Alpha virt. eigenvalues --    1.80028   1.80372   1.81338   1.81598   1.82320
 Alpha virt. eigenvalues --    1.82574   1.82851   1.84212   1.84588   1.86229
 Alpha virt. eigenvalues --    1.87079   1.88077   1.89180   1.89873   1.90817
 Alpha virt. eigenvalues --    1.92048   1.92543   1.92935   1.93287   1.93551
 Alpha virt. eigenvalues --    1.94946   1.95564   1.96577   1.98600   1.99522
 Alpha virt. eigenvalues --    2.00712   2.01423   2.01760   2.03153   2.03311
 Alpha virt. eigenvalues --    2.05510   2.05932   2.06552   2.07655   2.08029
 Alpha virt. eigenvalues --    2.08835   2.10328   2.11009   2.11714   2.12675
 Alpha virt. eigenvalues --    2.13335   2.13806   2.14142   2.15018   2.15499
 Alpha virt. eigenvalues --    2.16323   2.16741   2.17388   2.18362   2.18701
 Alpha virt. eigenvalues --    2.19241   2.19860   2.20695   2.21159   2.21325
 Alpha virt. eigenvalues --    2.22770   2.23696   2.25616   2.25918   2.26418
 Alpha virt. eigenvalues --    2.28449   2.30718   2.31383   2.31480   2.31728
 Alpha virt. eigenvalues --    2.32446   2.34659   2.35491   2.36425   2.39207
 Alpha virt. eigenvalues --    2.40124   2.41720   2.43718   2.45430   2.46323
 Alpha virt. eigenvalues --    2.46662   2.47971   2.49460   2.50210   2.51545
 Alpha virt. eigenvalues --    2.52317   2.53682   2.54522   2.55519   2.56609
 Alpha virt. eigenvalues --    2.56734   2.58308   2.58436   2.60397   2.62668
 Alpha virt. eigenvalues --    2.63226   2.63639   2.64232   2.64848   2.65494
 Alpha virt. eigenvalues --    2.66907   2.69361   2.70813   2.72186   2.73187
 Alpha virt. eigenvalues --    2.74738   2.76702   2.80450   2.81110   2.83655
 Alpha virt. eigenvalues --    2.84090   2.86558   2.87939   2.90032   2.93999
 Alpha virt. eigenvalues --    2.96947   3.03473   3.15153   3.19543   3.20337
 Alpha virt. eigenvalues --    3.26560   3.34350   3.40057   3.71231   3.75162
 Alpha virt. eigenvalues --    3.88814   3.90546   3.95501   3.96477   3.98632
 Alpha virt. eigenvalues --    3.98905   3.99952   4.01612   4.03338   4.04253
 Alpha virt. eigenvalues --    4.04912   4.06459   4.07430   4.10762   4.13116
 Alpha virt. eigenvalues --    4.14294   4.19481   4.19741   4.23441   4.23883
 Alpha virt. eigenvalues --    4.24607   4.26758   4.31552   4.32701   4.39016
 Alpha virt. eigenvalues --    4.41492   4.49896   4.59272   4.67898   4.70455
 Alpha virt. eigenvalues --    4.73672
  Beta  occ. eigenvalues --  -89.08018 -14.48249 -14.48239 -14.38470 -10.36124
  Beta  occ. eigenvalues --  -10.35981 -10.34498 -10.34320 -10.33622 -10.33044
  Beta  occ. eigenvalues --  -10.32566 -10.32386 -10.31511 -10.31485 -10.31470
  Beta  occ. eigenvalues --  -10.31398 -10.31376 -10.31180 -10.31050 -10.30438
  Beta  occ. eigenvalues --  -10.30249 -10.30202 -10.30149 -10.29862 -10.29600
  Beta  occ. eigenvalues --  -10.29592 -10.29578 -10.28985 -10.28819 -10.28781
  Beta  occ. eigenvalues --  -10.27692 -10.27602 -10.27046  -8.13554  -6.10098
  Beta  occ. eigenvalues --   -6.09499  -6.09298  -1.12948  -1.00935  -1.00406
  Beta  occ. eigenvalues --   -0.98906  -0.96548  -0.95702  -0.94957  -0.92486
  Beta  occ. eigenvalues --   -0.90696  -0.88581  -0.87678  -0.86085  -0.85614
  Beta  occ. eigenvalues --   -0.84628  -0.83847  -0.82739  -0.79712  -0.78385
  Beta  occ. eigenvalues --   -0.76557  -0.75695  -0.73965  -0.73429  -0.71600
  Beta  occ. eigenvalues --   -0.70701  -0.69665  -0.69141  -0.68359  -0.66931
  Beta  occ. eigenvalues --   -0.66062  -0.62678  -0.62117  -0.61935  -0.60675
  Beta  occ. eigenvalues --   -0.60482  -0.58525  -0.57321  -0.56961  -0.56507
  Beta  occ. eigenvalues --   -0.56023  -0.55665  -0.55035  -0.54738  -0.54699
  Beta  occ. eigenvalues --   -0.53469  -0.53399  -0.53083  -0.52843  -0.52253
  Beta  occ. eigenvalues --   -0.51909  -0.50338  -0.49952  -0.49710  -0.49421
  Beta  occ. eigenvalues --   -0.49086  -0.48895  -0.48676  -0.48187  -0.47929
  Beta  occ. eigenvalues --   -0.46846  -0.46544  -0.45664  -0.45309  -0.44779
  Beta  occ. eigenvalues --   -0.44482  -0.44299  -0.44150  -0.43264  -0.43074
  Beta  occ. eigenvalues --   -0.42585  -0.42367  -0.42045  -0.40858  -0.39484
  Beta  occ. eigenvalues --   -0.37731  -0.36484  -0.36223  -0.35078  -0.35049
  Beta  occ. eigenvalues --   -0.32691  -0.30440
  Beta virt. eigenvalues --   -0.28488  -0.19791  -0.15052  -0.12352  -0.11953
  Beta virt. eigenvalues --   -0.10552  -0.09983  -0.09913  -0.09275  -0.08261
  Beta virt. eigenvalues --   -0.05507  -0.03210  -0.01440  -0.00128   0.00719
  Beta virt. eigenvalues --    0.00840   0.01044   0.01436   0.02058   0.03182
  Beta virt. eigenvalues --    0.03501   0.04118   0.04282   0.05107   0.05804
  Beta virt. eigenvalues --    0.05954   0.06643   0.06919   0.07326   0.07456
  Beta virt. eigenvalues --    0.07598   0.08238   0.08937   0.09246   0.09862
  Beta virt. eigenvalues --    0.10054   0.10577   0.10643   0.10949   0.11834
  Beta virt. eigenvalues --    0.12161   0.12449   0.12702   0.13216   0.13551
  Beta virt. eigenvalues --    0.14387   0.14712   0.15386   0.15753   0.15993
  Beta virt. eigenvalues --    0.16629   0.17128   0.17513   0.17605   0.18442
  Beta virt. eigenvalues --    0.19190   0.19378   0.20170   0.21886   0.22407
  Beta virt. eigenvalues --    0.23118   0.23777   0.24283   0.24501   0.25507
  Beta virt. eigenvalues --    0.25949   0.26608   0.28161   0.28349   0.29738
  Beta virt. eigenvalues --    0.31264   0.32048   0.33312   0.35892   0.37878
  Beta virt. eigenvalues --    0.38675   0.38887   0.39047   0.39561   0.40069
  Beta virt. eigenvalues --    0.40600   0.40710   0.41618   0.42082   0.42276
  Beta virt. eigenvalues --    0.42539   0.42987   0.43585   0.43995   0.44262
  Beta virt. eigenvalues --    0.44601   0.44881   0.45279   0.45482   0.45936
  Beta virt. eigenvalues --    0.46229   0.46398   0.47189   0.47379   0.47761
  Beta virt. eigenvalues --    0.48313   0.48423   0.48840   0.49331   0.49455
  Beta virt. eigenvalues --    0.49499   0.50182   0.50559   0.50778   0.51161
  Beta virt. eigenvalues --    0.51456   0.52048   0.52236   0.53067   0.53436
  Beta virt. eigenvalues --    0.53667   0.54197   0.54614   0.54708   0.55370
  Beta virt. eigenvalues --    0.55552   0.56046   0.56378   0.57495   0.58169
  Beta virt. eigenvalues --    0.58420   0.59020   0.59533   0.61453   0.62046
  Beta virt. eigenvalues --    0.63050   0.63999   0.64629   0.65494   0.66416
  Beta virt. eigenvalues --    0.66973   0.67002   0.67455   0.67942   0.68429
  Beta virt. eigenvalues --    0.68610   0.69193   0.70074   0.70590   0.71222
  Beta virt. eigenvalues --    0.71945   0.72209   0.72300   0.72972   0.73106
  Beta virt. eigenvalues --    0.73813   0.74343   0.74775   0.75364   0.75846
  Beta virt. eigenvalues --    0.76164   0.76396   0.77055   0.77593   0.77970
  Beta virt. eigenvalues --    0.78520   0.79551   0.80506   0.81444   0.81521
  Beta virt. eigenvalues --    0.81737   0.82037   0.82549   0.83131   0.83515
  Beta virt. eigenvalues --    0.84147   0.84669   0.85192   0.85944   0.86205
  Beta virt. eigenvalues --    0.86424   0.86611   0.87664   0.87991   0.88274
  Beta virt. eigenvalues --    0.88572   0.89122   0.89719   0.89901   0.90415
  Beta virt. eigenvalues --    0.90633   0.91323   0.91519   0.92467   0.93519
  Beta virt. eigenvalues --    0.94560   0.95601   0.95969   0.96701   0.96886
  Beta virt. eigenvalues --    0.97899   0.98457   0.99111   1.00524   1.00819
  Beta virt. eigenvalues --    1.01409   1.02558   1.03282   1.04631   1.04954
  Beta virt. eigenvalues --    1.05533   1.07008   1.07763   1.08828   1.10456
  Beta virt. eigenvalues --    1.11114   1.12559   1.12916   1.13022   1.14448
  Beta virt. eigenvalues --    1.15444   1.18185   1.18860   1.19376   1.21545
  Beta virt. eigenvalues --    1.22156   1.23142   1.23833   1.24043   1.25429
  Beta virt. eigenvalues --    1.28316   1.29049   1.29746   1.31061   1.31253
  Beta virt. eigenvalues --    1.32437   1.32747   1.34045   1.34615   1.34749
  Beta virt. eigenvalues --    1.35829   1.36196   1.36436   1.36666   1.37157
  Beta virt. eigenvalues --    1.38624   1.38783   1.39232   1.39461   1.41584
  Beta virt. eigenvalues --    1.42232   1.43764   1.44839   1.47213   1.48426
  Beta virt. eigenvalues --    1.50165   1.50543   1.54082   1.54195   1.56302
  Beta virt. eigenvalues --    1.57582   1.59361   1.59764   1.61124   1.61573
  Beta virt. eigenvalues --    1.62037   1.62962   1.64850   1.65131   1.65795
  Beta virt. eigenvalues --    1.66765   1.67701   1.68709   1.68928   1.69764
  Beta virt. eigenvalues --    1.70595   1.70899   1.71466   1.72904   1.74380
  Beta virt. eigenvalues --    1.75538   1.75807   1.76155   1.76745   1.78191
  Beta virt. eigenvalues --    1.79776   1.80133   1.80485   1.81483   1.81727
  Beta virt. eigenvalues --    1.82466   1.82702   1.82949   1.84351   1.84731
  Beta virt. eigenvalues --    1.86323   1.87154   1.88170   1.89390   1.89951
  Beta virt. eigenvalues --    1.91040   1.92152   1.92636   1.93086   1.93435
  Beta virt. eigenvalues --    1.93651   1.95138   1.95762   1.96815   1.98779
  Beta virt. eigenvalues --    1.99677   2.01008   2.01574   2.01966   2.03391
  Beta virt. eigenvalues --    2.03602   2.05651   2.06242   2.06835   2.07897
  Beta virt. eigenvalues --    2.08267   2.09014   2.10609   2.11283   2.12047
  Beta virt. eigenvalues --    2.12992   2.13488   2.13999   2.14373   2.15310
  Beta virt. eigenvalues --    2.15748   2.16489   2.16797   2.17609   2.18442
  Beta virt. eigenvalues --    2.18882   2.19405   2.20044   2.21028   2.21324
  Beta virt. eigenvalues --    2.21607   2.22815   2.23995   2.25737   2.26132
  Beta virt. eigenvalues --    2.26586   2.28614   2.30909   2.31587   2.31732
  Beta virt. eigenvalues --    2.31888   2.32695   2.34766   2.35608   2.36555
  Beta virt. eigenvalues --    2.39283   2.40298   2.41853   2.43864   2.45609
  Beta virt. eigenvalues --    2.46593   2.46878   2.48235   2.49694   2.50447
  Beta virt. eigenvalues --    2.51653   2.52577   2.53873   2.54658   2.55721
  Beta virt. eigenvalues --    2.56831   2.57007   2.58554   2.58681   2.60607
  Beta virt. eigenvalues --    2.62759   2.63410   2.63780   2.64310   2.64921
  Beta virt. eigenvalues --    2.65597   2.67032   2.69471   2.70899   2.72311
  Beta virt. eigenvalues --    2.73259   2.74838   2.76787   2.80531   2.81233
  Beta virt. eigenvalues --    2.83779   2.84248   2.86730   2.88094   2.90276
  Beta virt. eigenvalues --    2.94321   2.97040   3.03560   3.15258   3.19647
  Beta virt. eigenvalues --    3.20417   3.26628   3.34415   3.40133   3.71309
  Beta virt. eigenvalues --    3.75236   3.88841   3.90716   3.95734   3.96682
  Beta virt. eigenvalues --    3.98795   3.99103   4.00110   4.01678   4.03441
  Beta virt. eigenvalues --    4.04331   4.05039   4.06636   4.07582   4.10974
  Beta virt. eigenvalues --    4.13200   4.14363   4.19486   4.19868   4.23518
  Beta virt. eigenvalues --    4.24027   4.24753   4.26884   4.31706   4.32896
  Beta virt. eigenvalues --    4.39205   4.41580   4.50017   4.59414   4.68048
  Beta virt. eigenvalues --    4.70583   4.73870
          Condensed to atoms (all electrons):
          Atomic-Atomic Spin Densities.
 Mulliken charges and spin densities:
               1          2
     1  C   -0.149231   0.042243
     2  C    0.119405   0.109617
     3  C   -0.239936  -0.001542
     4  C    0.113519   0.034694
     5  C    0.101613   0.117407
     6  C   -0.184231  -0.002351
     7  H    0.182253  -0.002230
     8  H    0.156889  -0.000214
     9  H    0.170627  -0.000454
    10  C   -0.077592  -0.009208
    11  C    0.119235   0.082726
    12  C   -0.195199  -0.046850
    13  C   -0.110439   0.123266
    14  C   -0.131802  -0.023060
    15  C   -0.171488   0.050696
    16  C    0.083147   0.024163
    17  H    0.158521   0.001547
    18  H    0.173143  -0.005497
    19  H    0.169089   0.000567
    20  H    0.161164  -0.002520
    21  C   -0.440622  -0.000157
    22  H    0.167239   0.000063
    23  H    0.156632   0.000467
    24  H    0.167481  -0.000095
    25  C   -0.440945  -0.000208
    26  H    0.153702   0.000567
    27  H    0.168025   0.000258
    28  H    0.166044  -0.000096
    29  C    0.122693   0.075303
    30  C    0.198377  -0.003417
    31  C   -0.195744   0.058435
    32  C    0.196102  -0.018815
    33  C   -0.203898   0.013936
    34  H    0.173561  -0.002975
    35  C    0.136274   0.124908
    36  H    0.177472  -0.001184
    37  N   -0.558499   0.027449
    38  N   -0.547744   0.040622
    39  S    0.639140  -0.015713
    40  C    0.099894   0.036044
    41  C   -0.136606   0.048154
    42  C   -0.161275   0.035796
    43  C   -0.182729  -0.022706
    44  H    0.170896  -0.002278
    45  C   -0.179692  -0.012561
    46  H    0.152777  -0.001647
    47  C    0.186808   0.096000
    48  H    0.156538   0.000749
    49  H    0.161303   0.000326
    50  C   -0.352761  -0.004051
    51  H    0.179511   0.002662
    52  H    0.156885   0.001304
    53  C   -0.135027   0.007501
    54  H    0.131184   0.003466
    55  H    0.154108  -0.000370
    56  N   -0.703765   0.019078
    57  H    0.304027  -0.000445
    58  H    0.313946   0.000630
 Sum of Mulliken charges =   1.00000   1.00000
 Mulliken charges and spin densities with hydrogens summed into heavy atoms:
               1          2
     1  C    0.033022   0.040013
     2  C    0.119405   0.109617
     3  C   -0.083047  -0.001756
     4  C    0.113519   0.034694
     5  C    0.101613   0.117407
     6  C   -0.013604  -0.002804
    10  C   -0.077592  -0.009208
    11  C    0.119235   0.082726
    12  C   -0.036678  -0.045304
    13  C    0.062703   0.117769
    14  C    0.037287  -0.022492
    15  C   -0.010324   0.048176
    16  C    0.083147   0.024163
    21  C    0.050730   0.000277
    25  C    0.046826   0.000521
    29  C    0.122693   0.075303
    30  C    0.198377  -0.003417
    31  C   -0.022183   0.055460
    32  C    0.196102  -0.018815
    33  C   -0.026427   0.012753
    35  C    0.136274   0.124908
    37  N   -0.558499   0.027449
    38  N   -0.547744   0.040622
    39  S    0.639140  -0.015713
    40  C    0.099894   0.036044
    41  C    0.034291   0.045875
    42  C   -0.008498   0.034149
    43  C   -0.026191  -0.021957
    45  C   -0.018389  -0.012235
    47  C    0.186808   0.096000
    50  C   -0.016365  -0.000085
    53  C    0.150265   0.010597
    56  N   -0.085791   0.019263
 Electronic spatial extent (au):  <R**2>=          27666.9372
 Charge=              1.0000 electrons
 Dipole moment (field-independent basis, Debye):
    X=             -2.8832    Y=             -0.3695    Z=             -0.5140  Tot=              2.9519
 Quadrupole moment (field-independent basis, Debye-Ang):
   XX=            -14.6261   YY=           -168.4690   ZZ=           -193.0221
   XY=             11.1676   XZ=              3.1788   YZ=             -4.5995
 Traceless Quadrupole moment (field-independent basis, Debye-Ang):
   XX=            110.7463   YY=            -43.0966   ZZ=            -67.6497
   XY=             11.1676   XZ=              3.1788   YZ=             -4.5995
 Octapole moment (field-independent basis, Debye-Ang**2):
  XXX=            -67.1355  YYY=             26.7926  ZZZ=             19.2592  XYY=            -47.2149
  XXY=             66.2786  XXZ=             47.7814  XZZ=             41.6795  YZZ=              3.9420
  YYZ=              2.6198  XYZ=             21.3367
 Hexadecapole moment (field-independent basis, Debye-Ang**3):
 XXXX=         -20132.0170 YYYY=          -2936.0527 ZZZZ=           -727.4679 XXXY=           1299.6395
 XXXZ=            641.6018 YYYX=             94.2298 YYYZ=              8.6252 ZZZX=             76.8381
 ZZZY=              2.9259 XXYY=          -5866.1179 XXZZ=          -5576.2229 YYZZ=           -630.9829
 XXYZ=           -270.7931 YYXZ=             16.2862 ZZXY=              3.2577
 N-N= 3.077170095845D+03 E-N=-1.005001268688D+04  KE= 1.668651398057D+03
                          Isotropic Fermi Contact Couplings
        Atom                 a.u.       MegaHertz       Gauss      10(-4) cm-1
     1  C(13)              0.00294       3.30027       1.17762       1.10085
     2  C(13)              0.00884       9.93579       3.54534       3.31422
     3  C(13)             -0.00076      -0.85091      -0.30363      -0.28383
     4  C(13)              0.00262       2.94050       1.04924       0.98085
     5  C(13)              0.01038      11.67353       4.16541       3.89387
     6  C(13)             -0.00232      -2.60741      -0.93039      -0.86974
     7  H(1)              -0.00080      -3.57893      -1.27705      -1.19380
     8  H(1)              -0.00018      -0.78383      -0.27969      -0.26146
     9  H(1)              -0.00017      -0.75148      -0.26815      -0.25067
    10  C(13)             -0.00225      -2.52549      -0.90116      -0.84241
    11  C(13)              0.00832       9.35442       3.33789       3.12030
    12  C(13)             -0.00705      -7.92534      -2.82796      -2.64361
    13  C(13)              0.01228      13.81049       4.92793       4.60668
    14  C(13)             -0.00439      -4.93012      -1.75919      -1.64451
    15  C(13)              0.00454       5.10641       1.82209       1.70332
    16  C(13)             -0.00073      -0.81559      -0.29102      -0.27205
    17  H(1)               0.00049       2.18106       0.77826       0.72752
    18  H(1)              -0.00181      -8.10206      -2.89102      -2.70256
    19  H(1)               0.00017       0.75825       0.27056       0.25293
    20  H(1)              -0.00087      -3.88887      -1.38765      -1.29719
    21  C(13)             -0.00008      -0.08692      -0.03101      -0.02899
    22  H(1)               0.00007       0.29552       0.10545       0.09857
    23  H(1)               0.00018       0.80835       0.28844       0.26964
    24  H(1)               0.00000       0.02189       0.00781       0.00730
    25  C(13)             -0.00009      -0.09862      -0.03519      -0.03290
    26  H(1)               0.00022       0.96516       0.34439       0.32194
    27  H(1)               0.00016       0.71084       0.25365       0.23711
    28  H(1)               0.00000       0.01799       0.00642       0.00600
    29  C(13)              0.00506       5.68483       2.02849       1.89626
    30  C(13)             -0.00123      -1.37851      -0.49189      -0.45982
    31  C(13)              0.00673       7.56426       2.69912       2.52317
    32  C(13)             -0.00413      -4.64096      -1.65601      -1.54806
    33  C(13)              0.00058       0.64882       0.23152       0.21642
    34  H(1)              -0.00110      -4.92791      -1.75840      -1.64377
    35  C(13)              0.01167      13.12113       4.68195       4.37674
    36  H(1)              -0.00049      -2.19561      -0.78345      -0.73238
    37  N(14)              0.00382       1.23565       0.44091       0.41217
    38  N(14)              0.00559       1.80626       0.64452       0.60250
    39  S(33)             -0.00272      -0.93468      -0.33352      -0.31177
    40  C(13)              0.00042       0.47017       0.16777       0.15683
    41  C(13)              0.00506       5.68651       2.02909       1.89681
    42  C(13)              0.00484       5.44132       1.94160       1.81503
    43  C(13)             -0.00379      -4.26401      -1.52150      -1.42232
    44  H(1)              -0.00076      -3.40610      -1.21538      -1.13615
    45  C(13)             -0.00264      -2.96271      -1.05717      -0.98825
    46  H(1)              -0.00062      -2.77523      -0.99027      -0.92572
    47  C(13)              0.00945      10.62334       3.79067       3.54356
    48  H(1)               0.00022       0.96857       0.34561       0.32308
    49  H(1)               0.00011       0.48644       0.17357       0.16226
    50  C(13)             -0.00268      -3.01379      -1.07540      -1.00529
    51  H(1)               0.00127       5.68536       2.02868       1.89643
    52  H(1)               0.00070       3.13804       1.11973       1.04674
    53  C(13)              0.00823       9.25049       3.30080       3.08563
    54  H(1)               0.00114       5.10376       1.82115       1.70243
    55  H(1)              -0.00007      -0.33315      -0.11887      -0.11113
    56  N(14)              0.01381       4.46094       1.59177       1.48801
    57  H(1)              -0.00008      -0.36017      -0.12852      -0.12014
    58  H(1)               0.00058       2.60067       0.92798       0.86749
 --------------------------------------------------------
       Center         ----  Spin Dipole Couplings  ----
                      3XX-RR        3YY-RR        3ZZ-RR
 --------------------------------------------------------
     1   Atom       -0.027050     -0.007893      0.034943
     2   Atom       -0.060781     -0.055624      0.116405
     3   Atom       -0.000249     -0.000851      0.001101
     4   Atom       -0.022699     -0.015569      0.038268
     5   Atom       -0.063190     -0.049435      0.112625
     6   Atom       -0.005229     -0.002080      0.007309
     7   Atom       -0.002195      0.004526     -0.002331
     8   Atom       -0.000076      0.003197     -0.003121
     9   Atom       -0.001229      0.003057     -0.001828
    10   Atom       -0.000810      0.002203     -0.001393
    11   Atom       -0.043456     -0.029394      0.072849
    12   Atom        0.020056      0.011410     -0.031466
    13   Atom       -0.059664     -0.045860      0.105523
    14   Atom        0.006173      0.005133     -0.011306
    15   Atom       -0.027473     -0.018852      0.046325
    16   Atom       -0.020497     -0.017371      0.037868
    17   Atom        0.001795     -0.000176     -0.001619
    18   Atom        0.007372     -0.005666     -0.001706
    19   Atom       -0.000183      0.001545     -0.001362
    20   Atom       -0.003118      0.004364     -0.001246
    21   Atom        0.000091      0.000432     -0.000523
    22   Atom       -0.000425      0.000538     -0.000113
    23   Atom       -0.000161      0.000400     -0.000239
    24   Atom       -0.000311     -0.000854      0.001165
    25   Atom        0.000071      0.001632     -0.001703
    26   Atom       -0.000121      0.001237     -0.001116
    27   Atom       -0.000406      0.001419     -0.001013
    28   Atom       -0.000323      0.001249     -0.000926
    29   Atom       -0.046098     -0.041105      0.087204
    30   Atom       -0.000943      0.006507     -0.005565
    31   Atom       -0.035543     -0.016066      0.051609
    32   Atom        0.002978      0.010226     -0.013204
    33   Atom       -0.014052     -0.007586      0.021639
    34   Atom       -0.002351      0.005171     -0.002820
    35   Atom       -0.066860     -0.053860      0.120720
    36   Atom       -0.001866      0.004401     -0.002535
    37   Atom       -0.023293     -0.010891      0.034184
    38   Atom       -0.034468     -0.024527      0.058996
    39   Atom        0.030910      0.016303     -0.047213
    40   Atom       -0.024219     -0.026990      0.051209
    41   Atom       -0.022452     -0.010485      0.032937
    42   Atom       -0.019597     -0.008273      0.027870
    43   Atom        0.007754      0.005645     -0.013399
    44   Atom       -0.002111      0.003908     -0.001796
    45   Atom        0.002470      0.002551     -0.005022
    46   Atom       -0.000779      0.003252     -0.002473
    47   Atom       -0.045699     -0.039894      0.085593
    48   Atom        0.000206      0.000997     -0.001203
    49   Atom       -0.000244      0.001409     -0.001164
    50   Atom       -0.001649     -0.004815      0.006463
    51   Atom        0.000847      0.000405     -0.001252
    52   Atom        0.001356     -0.000785     -0.000571
    53   Atom       -0.002374     -0.003895      0.006269
    54   Atom        0.000557      0.000275     -0.000832
    55   Atom        0.000104     -0.001388      0.001284
    56   Atom       -0.016226      0.027107     -0.010881
    57   Atom       -0.000051      0.000027      0.000024
    58   Atom       -0.000450     -0.001170      0.001620
 --------------------------------------------------------
                        XY            XZ            YZ
 --------------------------------------------------------
     1   Atom       -0.004137     -0.006296      0.034372
     2   Atom       -0.000696      0.004256      0.039609
     3   Atom        0.005293      0.009307      0.004766
     4   Atom        0.002544      0.009319      0.021388
     5   Atom        0.000107     -0.000185      0.054207
     6   Atom       -0.000026     -0.004371      0.006450
     7   Atom        0.002603     -0.000909     -0.002107
     8   Atom        0.000390     -0.000752     -0.001222
     9   Atom       -0.000336      0.000055     -0.002085
    10   Atom        0.000095     -0.000042     -0.001343
    11   Atom       -0.000209     -0.000516      0.038197
    12   Atom       -0.000519     -0.000703     -0.015447
    13   Atom        0.002120      0.002136      0.053535
    14   Atom        0.001081     -0.000351     -0.005847
    15   Atom       -0.001037      0.001617      0.023677
    16   Atom       -0.000916     -0.000227      0.019905
    17   Atom       -0.000617      0.000143     -0.000513
    18   Atom        0.005522     -0.001881      0.001301
    19   Atom       -0.000636      0.000196     -0.001030
    20   Atom       -0.000624      0.000193     -0.002079
    21   Atom       -0.000107      0.000305     -0.001550
    22   Atom        0.000172     -0.000156     -0.001167
    23   Atom       -0.000034     -0.000011     -0.001156
    24   Atom        0.000079      0.000059     -0.001480
    25   Atom       -0.000215     -0.000223      0.000057
    26   Atom       -0.000035     -0.000007      0.000049
    27   Atom        0.000256     -0.000009      0.000022
    28   Atom        0.000031     -0.000131      0.001403
    29   Atom       -0.001499     -0.004116     -0.034165
    30   Atom        0.003707     -0.003099     -0.004207
    31   Atom       -0.003216      0.002938     -0.041921
    32   Atom        0.000225      0.000721      0.002602
    33   Atom        0.003259     -0.001911     -0.019440
    34   Atom        0.003580      0.000591      0.002053
    35   Atom        0.001401     -0.001538     -0.056390
    36   Atom       -0.000443      0.000409      0.001985
    37   Atom       -0.008560      0.022492     -0.032399
    38   Atom        0.011264     -0.030547     -0.040872
    39   Atom        0.000172      0.002179      0.032781
    40   Atom        0.000646      0.003784      0.009759
    41   Atom        0.008664      0.014801      0.030167
    42   Atom       -0.003418     -0.005254      0.022882
    43   Atom       -0.000887      0.000312     -0.004956
    44   Atom       -0.000643      0.000291     -0.001602
    45   Atom       -0.001024     -0.005559      0.000710
    46   Atom        0.001598      0.000003     -0.001054
    47   Atom        0.004154      0.016241      0.037615
    48   Atom       -0.000085     -0.000062     -0.000961
    49   Atom        0.000086     -0.000193     -0.001154
    50   Atom        0.000618      0.003618      0.003967
    51   Atom       -0.001316      0.000048      0.000204
    52   Atom        0.000542     -0.000814     -0.000546
    53   Atom        0.003359      0.006745      0.007248
    54   Atom        0.000110      0.000810      0.000680
    55   Atom       -0.000291      0.000280     -0.000973
    56   Atom        0.008476      0.003314      0.018306
    57   Atom        0.001220     -0.001029     -0.001053
    58   Atom        0.000027      0.001858     -0.000069
 --------------------------------------------------------


 ---------------------------------------------------------------------------------
              Anisotropic Spin Dipole Couplings in Principal Axis System
 ---------------------------------------------------------------------------------

       Atom             a.u.   MegaHertz   Gauss  10(-4) cm-1        Axes

              Baa    -0.0280    -3.762    -1.342    -1.255  0.8810  0.4468 -0.1558
     1 C(13)  Bbb    -0.0267    -3.580    -1.277    -1.194 -0.4642  0.7525 -0.4672
              Bcc     0.0547     7.342     2.620     2.449 -0.0915  0.4839  0.8703
 
              Baa    -0.0649    -8.713    -3.109    -2.906  0.3646  0.9079 -0.2069
     2 C(13)  Bbb    -0.0602    -8.084    -2.885    -2.697  0.9309 -0.3605  0.0584
              Bcc     0.1252    16.797     5.994     5.603  0.0215  0.2139  0.9766
 
              Baa    -0.0090    -1.205    -0.430    -0.402  0.7563 -0.1150 -0.6440
     3 C(13)  Bbb    -0.0043    -0.582    -0.208    -0.194 -0.2144  0.8865 -0.4101
              Bcc     0.0133     1.787     0.638     0.596  0.6181  0.4482  0.6458
 
              Baa    -0.0244    -3.269    -1.166    -1.090  0.8866  0.3811 -0.2621
     4 C(13)  Bbb    -0.0227    -3.046    -1.087    -1.016 -0.4418  0.8655 -0.2361
              Bcc     0.0471     6.315     2.253     2.107  0.1368  0.3251  0.9357
 
              Baa    -0.0659    -8.844    -3.156    -2.950 -0.0573  0.9553 -0.2901
     5 C(13)  Bbb    -0.0632    -8.478    -3.025    -2.828  0.9984  0.0551 -0.0159
              Bcc     0.1291    17.322     6.181     5.778 -0.0008  0.2905  0.9569
 
              Baa    -0.0077    -1.034    -0.369    -0.345  0.7567 -0.4912  0.4314
     6 C(13)  Bbb    -0.0038    -0.512    -0.183    -0.171  0.6119  0.7645 -0.2029
              Bcc     0.0115     1.545     0.551     0.515 -0.2301  0.4175  0.8791
 
              Baa    -0.0032    -1.710    -0.610    -0.570  0.8256 -0.1283  0.5495
     7 H(1)   Bbb    -0.0028    -1.514    -0.540    -0.505 -0.4668  0.3919  0.7928
              Bcc     0.0060     3.223     1.150     1.075  0.3171  0.9110 -0.2637
 
              Baa    -0.0035    -1.858    -0.663    -0.620  0.1945  0.1655  0.9668
     8 H(1)   Bbb    -0.0000    -0.011    -0.004    -0.004  0.9698 -0.1800 -0.1643
              Bcc     0.0035     1.869     0.667     0.623  0.1468  0.9696 -0.1956
 
              Baa    -0.0026    -1.387    -0.495    -0.463  0.0477  0.3479  0.9363
     9 H(1)   Bbb    -0.0012    -0.666    -0.238    -0.222  0.9967  0.0450 -0.0675
              Bcc     0.0038     2.053     0.733     0.685 -0.0656  0.9365 -0.3446
 
              Baa    -0.0018    -0.247    -0.088    -0.082  0.0099  0.3150  0.9490
    10 C(13)  Bbb    -0.0008    -0.109    -0.039    -0.036  0.9995 -0.0314 -0.0000
              Bcc     0.0027     0.356     0.127     0.119  0.0298  0.9486 -0.3152
 
              Baa    -0.0435    -5.832    -2.081    -1.945  0.9996  0.0262 -0.0042
    11 C(13)  Bbb    -0.0421    -5.648    -2.015    -1.884 -0.0261  0.9486 -0.3154
              Bcc     0.0855    11.479     4.096     3.829 -0.0043  0.3154  0.9490
 
              Baa    -0.0365    -4.893    -1.746    -1.632  0.0146  0.3072  0.9515
    12 C(13)  Bbb     0.0164     2.197     0.784     0.733  0.0750  0.9486 -0.3074
              Bcc     0.0201     2.696     0.962     0.899  0.9971 -0.0758  0.0091
 
              Baa    -0.0634    -8.506    -3.035    -2.837 -0.3490  0.8946 -0.2791
    13 C(13)  Bbb    -0.0592    -7.943    -2.834    -2.649  0.9370  0.3284 -0.1189
              Bcc     0.1226    16.449     5.870     5.487  0.0147  0.3030  0.9529
 
              Baa    -0.0132    -1.768    -0.631    -0.590  0.0003  0.3042  0.9526
    14 C(13)  Bbb     0.0054     0.722     0.257     0.241  0.8191 -0.5465  0.1743
              Bcc     0.0078     1.046     0.373     0.349  0.5737  0.7802 -0.2493
 
              Baa    -0.0286    -3.835    -1.368    -1.279  0.8072  0.5576 -0.1937
    15 C(13)  Bbb    -0.0255    -3.416    -1.219    -1.140 -0.5901  0.7706 -0.2409
              Bcc     0.0540     7.251     2.587     2.419  0.0149  0.3087  0.9510
 
              Baa    -0.0240    -3.218    -1.148    -1.073  0.2245  0.9278 -0.2978
    16 C(13)  Bbb    -0.0203    -2.726    -0.973    -0.909  0.9744 -0.2114  0.0761
              Bcc     0.0443     5.944     2.121     1.983 -0.0077  0.3073  0.9516
 
              Baa    -0.0018    -0.952    -0.340    -0.317  0.0154  0.3093  0.9509
    17 H(1)   Bbb    -0.0002    -0.112    -0.040    -0.037  0.3001  0.9057 -0.2994
              Bcc     0.0020     1.064     0.380     0.355  0.9538 -0.2900  0.0788
 
              Baa    -0.0082    -4.393    -1.568    -1.465 -0.3501  0.8942 -0.2791
    18 H(1)   Bbb    -0.0013    -0.704    -0.251    -0.235  0.0138  0.3029  0.9529
              Bcc     0.0096     5.097     1.819     1.700  0.9366  0.3297 -0.1184
 
              Baa    -0.0017    -0.902    -0.322    -0.301  0.0044  0.3043  0.9526
    19 H(1)   Bbb    -0.0004    -0.202    -0.072    -0.068  0.9590  0.2685 -0.0902
              Bcc     0.0021     1.104     0.394     0.368 -0.2832  0.9140 -0.2906
 
              Baa    -0.0032    -1.692    -0.604    -0.564  0.9968  0.0784 -0.0151
    20 H(1)   Bbb    -0.0019    -1.031    -0.368    -0.344 -0.0102  0.3126  0.9498
              Bcc     0.0051     2.723     0.972     0.908 -0.0792  0.9466 -0.3124
 
              Baa    -0.0017    -0.226    -0.081    -0.075 -0.1028  0.5840  0.8052
    21 C(13)  Bbb     0.0001     0.008     0.003     0.003  0.9796  0.1999 -0.0199
              Bcc     0.0016     0.218     0.078     0.073 -0.1726  0.7868 -0.5926
 
              Baa    -0.0010    -0.534    -0.190    -0.178  0.0368  0.6014  0.7981
    22 H(1)   Bbb    -0.0005    -0.241    -0.086    -0.081  0.9918 -0.1195  0.0443
              Bcc     0.0015     0.775     0.277     0.259  0.1221  0.7900 -0.6009
 
              Baa    -0.0011    -0.598    -0.213    -0.199  0.0308  0.6055  0.7952
    23 H(1)   Bbb    -0.0002    -0.085    -0.030    -0.029  0.9994 -0.0074 -0.0331
              Bcc     0.0013     0.683     0.244     0.228 -0.0141  0.7958 -0.6054
 
              Baa    -0.0016    -0.876    -0.313    -0.292 -0.0729  0.8816  0.4663
    24 H(1)   Bbb    -0.0003    -0.162    -0.058    -0.054  0.9973  0.0677  0.0278
              Bcc     0.0019     1.039     0.371     0.347  0.0070 -0.4670  0.8842
 
              Baa    -0.0017    -0.232    -0.083    -0.077  0.1220 -0.0090  0.9925
    25 C(13)  Bbb     0.0001     0.009     0.003     0.003  0.9830  0.1396 -0.1195
              Bcc     0.0017     0.223     0.080     0.074 -0.1375  0.9902  0.0259
 
              Baa    -0.0011    -0.596    -0.213    -0.199  0.0066 -0.0206  0.9998
    26 H(1)   Bbb    -0.0001    -0.065    -0.023    -0.022  0.9997  0.0257 -0.0061
              Bcc     0.0012     0.661     0.236     0.220 -0.0255  0.9995  0.0207
 
              Baa    -0.0010    -0.541    -0.193    -0.180  0.0189 -0.0112  0.9998
    27 H(1)   Bbb    -0.0004    -0.235    -0.084    -0.079  0.9905 -0.1359 -0.0202
              Bcc     0.0015     0.776     0.277     0.259  0.1360  0.9907  0.0085
 
              Baa    -0.0016    -0.868    -0.310    -0.290  0.0999 -0.4370  0.8939
    28 H(1)   Bbb    -0.0003    -0.165    -0.059    -0.055  0.9949  0.0560 -0.0839
              Bcc     0.0019     1.033     0.369     0.345 -0.0134  0.8977  0.4404
 
              Baa    -0.0509    -6.831    -2.438    -2.279  0.4608  0.8582  0.2260
    29 C(13)  Bbb    -0.0449    -6.028    -2.151    -2.011  0.8871 -0.4528 -0.0895
              Bcc     0.0958    12.859     4.588     4.289 -0.0256 -0.2417  0.9700
 
              Baa    -0.0075    -1.010    -0.361    -0.337  0.3279  0.1907  0.9253
    30 C(13)  Bbb    -0.0022    -0.296    -0.106    -0.099  0.8596 -0.4666 -0.2085
              Bcc     0.0097     1.306     0.466     0.436  0.3919  0.8637 -0.3169
 
              Baa    -0.0375    -5.038    -1.798    -1.681  0.6615  0.6868  0.3011
    31 C(13)  Bbb    -0.0343    -4.596    -1.640    -1.533  0.7490 -0.5849 -0.3112
              Bcc     0.0718     9.634     3.438     3.214  0.0376 -0.4314  0.9014
 
              Baa    -0.0135    -1.814    -0.647    -0.605 -0.0419 -0.1084  0.9932
    32 C(13)  Bbb     0.0030     0.402     0.143     0.134  0.9983 -0.0445  0.0373
              Bcc     0.0105     1.412     0.504     0.471  0.0402  0.9931  0.1101
 
              Baa    -0.0183    -2.460    -0.878    -0.821 -0.4507  0.8111  0.3729
    33 C(13)  Bbb    -0.0132    -1.775    -0.634    -0.592  0.8900  0.3758  0.2583
              Bcc     0.0316     4.236     1.511     1.413 -0.0694 -0.4483  0.8912
 
              Baa    -0.0039    -2.058    -0.734    -0.687  0.8487 -0.4120  0.3316
    34 H(1)   Bbb    -0.0032    -1.709    -0.610    -0.570 -0.3882 -0.0595  0.9196
              Bcc     0.0071     3.767     1.344     1.257  0.3591  0.9093  0.2105
 
              Baa    -0.0707    -9.488    -3.386    -3.165 -0.2310  0.9338  0.2732
    35 C(13)  Bbb    -0.0667    -8.945    -3.192    -2.984  0.9729  0.2190  0.0739
              Bcc     0.1374    18.433     6.577     6.149 -0.0092 -0.2829  0.9591
 
              Baa    -0.0033    -1.735    -0.619    -0.579 -0.3475 -0.2543  0.9026
    36 H(1)   Bbb    -0.0017    -0.903    -0.322    -0.301  0.9365 -0.0452  0.3478
              Bcc     0.0049     2.638     0.941     0.880 -0.0476  0.9661  0.2538
 
              Baa    -0.0321    -1.236    -0.441    -0.412  0.8086 -0.3715 -0.4563
    37 N(14)  Bbb    -0.0261    -1.006    -0.359    -0.336  0.5165  0.8196  0.2479
              Bcc     0.0581     2.242     0.800     0.748  0.2819 -0.4361  0.8546
 
              Baa    -0.0438    -1.689    -0.603    -0.564  0.8924  0.2601  0.3686
    38 N(14)  Bbb    -0.0408    -1.572    -0.561    -0.524 -0.3661  0.8951  0.2546
              Bcc     0.0846     3.261     1.164     1.088 -0.2637 -0.3622  0.8940
 
              Baa    -0.0611    -2.507    -0.894    -0.836 -0.0211 -0.3897  0.9207
    39 S(33)  Bbb     0.0295     1.209     0.431     0.403 -0.5678  0.7627  0.3098
              Bcc     0.0316     1.297     0.463     0.433  0.8229  0.5162  0.2373
 
              Baa    -0.0282    -3.784    -1.350    -1.262 -0.0473  0.9917 -0.1196
    40 C(13)  Bbb    -0.0244    -3.275    -1.168    -1.092  0.9976  0.0410 -0.0552
              Bcc     0.0526     7.058     2.519     2.354  0.0499  0.1220  0.9913
 
              Baa    -0.0271    -3.639    -1.299    -1.214  0.7630 -0.6332  0.1300
    41 C(13)  Bbb    -0.0252    -3.381    -1.206    -1.128  0.6066  0.6319 -0.4824
              Bcc     0.0523     7.020     2.505     2.342  0.2233  0.4469  0.8663
 
              Baa    -0.0207    -2.778    -0.991    -0.927  0.8601  0.4911 -0.1383
    42 C(13)  Bbb    -0.0189    -2.537    -0.905    -0.846 -0.4994  0.7548 -0.4253
              Bcc     0.0396     5.315     1.897     1.773 -0.1045  0.4349  0.8944
 
              Baa    -0.0146    -1.961    -0.700    -0.654 -0.0041  0.2375  0.9714
    43 C(13)  Bbb     0.0063     0.841     0.300     0.281  0.5329  0.8225 -0.1988
              Bcc     0.0083     1.120     0.399     0.373  0.8462 -0.5168  0.1299
 
              Baa    -0.0023    -1.238    -0.442    -0.413 -0.6578  0.1233  0.7431
    44 H(1)   Bbb    -0.0021    -1.111    -0.396    -0.370  0.7457  0.2456  0.6193
              Bcc     0.0044     2.348     0.838     0.783 -0.1062  0.9615 -0.2535
 
              Baa    -0.0080    -1.071    -0.382    -0.357  0.4685 -0.0140  0.8834
    45 C(13)  Bbb     0.0021     0.281     0.100     0.094  0.3137  0.9374 -0.1515
              Bcc     0.0059     0.790     0.282     0.264  0.8259 -0.3481 -0.4435
 
              Baa    -0.0027    -1.447    -0.516    -0.483 -0.1814  0.2180  0.9589
    46 H(1)   Bbb    -0.0012    -0.667    -0.238    -0.222  0.9314 -0.2747  0.2387
              Bcc     0.0040     2.114     0.754     0.705  0.3155  0.9365 -0.1532
 
              Baa    -0.0503    -6.756    -2.411    -2.253  0.1198  0.9531 -0.2780
    47 C(13)  Bbb    -0.0476    -6.389    -2.280    -2.131  0.9860 -0.1469 -0.0787
              Bcc     0.0980    13.145     4.691     4.385  0.1159  0.2647  0.9573
 
              Baa    -0.0016    -0.837    -0.299    -0.279  0.0496  0.3518  0.9347
    48 H(1)   Bbb     0.0002     0.111     0.040     0.037  0.9975  0.0293 -0.0640
              Bcc     0.0014     0.726     0.259     0.242 -0.0500  0.9356 -0.3495
 
              Baa    -0.0016    -0.866    -0.309    -0.289  0.1083  0.3510  0.9301
    49 H(1)   Bbb    -0.0002    -0.127    -0.045    -0.042  0.9916 -0.1047 -0.0759
              Bcc     0.0019     0.993     0.354     0.331  0.0708  0.9305 -0.3594
 
              Baa    -0.0061    -0.824    -0.294    -0.275  0.1406  0.9321 -0.3337
    50 C(13)  Bbb    -0.0028    -0.379    -0.135    -0.126  0.9354 -0.2356 -0.2638
              Bcc     0.0090     1.203     0.429     0.401  0.3245  0.2751  0.9050
 
              Baa    -0.0013    -0.700    -0.250    -0.234 -0.1699 -0.2437  0.9549
    51 H(1)   Bbb    -0.0006    -0.347    -0.124    -0.116  0.6252  0.7223  0.2956
              Bcc     0.0020     1.047     0.374     0.349  0.7617 -0.6472 -0.0297
 
              Baa    -0.0012    -0.662    -0.236    -0.221  0.0560  0.7391  0.6713
    52 H(1)   Bbb    -0.0006    -0.321    -0.114    -0.107  0.4413 -0.6214  0.6474
              Bcc     0.0018     0.983     0.351     0.328  0.8956  0.2600 -0.3609
 
              Baa    -0.0077    -1.030    -0.367    -0.343  0.0632  0.8727 -0.4842
    53 C(13)  Bbb    -0.0059    -0.794    -0.283    -0.265  0.9022 -0.2574 -0.3462
              Bcc     0.0136     1.824     0.651     0.608  0.4267  0.4150  0.8036
 
              Baa    -0.0014    -0.751    -0.268    -0.250 -0.3436 -0.3328  0.8782
    54 H(1)   Bbb     0.0003     0.145     0.052     0.048 -0.5671  0.8189  0.0884
              Bcc     0.0011     0.606     0.216     0.202  0.7486  0.4676  0.4701
 
              Baa    -0.0017    -0.920    -0.328    -0.307  0.1057  0.9490  0.2969
    55 H(1)   Bbb     0.0000     0.023     0.008     0.008  0.9693 -0.0317 -0.2437
              Bcc     0.0017     0.897     0.320     0.299  0.2219 -0.3136  0.9233
 
              Baa    -0.0183    -0.705    -0.252    -0.235  0.1952 -0.3980  0.8964
    56 N(14)  Bbb    -0.0178    -0.686    -0.245    -0.229  0.9657 -0.0817 -0.2466
              Bcc     0.0361     1.391     0.496     0.464  0.1714  0.9138  0.3683
 
              Baa    -0.0012    -0.658    -0.235    -0.219  0.7256 -0.6879  0.0177
    57 H(1)   Bbb    -0.0010    -0.518    -0.185    -0.173  0.3746  0.4165  0.8284
              Bcc     0.0022     1.175     0.419     0.392  0.5772  0.5945 -0.5599
 
              Baa    -0.0016    -0.827    -0.295    -0.276  0.8513 -0.1522 -0.5022
    58 H(1)   Bbb    -0.0012    -0.620    -0.221    -0.207  0.1371  0.9883 -0.0671
              Bcc     0.0027     1.447     0.516     0.483  0.5065 -0.0117  0.8622
 

 ---------------------------------------------------------------------------------

 No NMR shielding tensors so no spin-rotation constants.
 Leave Link  601 at Thu Mar 14 11:32:16 2024, MaxMem= 32212254720 cpu:               8.4 elap:               0.3
 (Enter /home/<user>/g16/l701.exe)
 ... and contract with generalized density number  0.
 Compute integral first derivatives.
 Leave Link  701 at Thu Mar 14 11:32:16 2024, MaxMem= 32212254720 cpu:               5.0 elap:               0.2
 (Enter /home/<user>/g16/l702.exe)
 L702 exits ... SP integral derivatives will be done elsewhere.
 Leave Link  702 at Thu Mar 14 11:32:16 2024, MaxMem= 32212254720 cpu:               0.7 elap:               0.0
 (Enter /home/<user>/g16/l703.exe)
 Integral derivatives from FoFJK, PRISM(SPDF).
 Compute integral first derivatives, UseDBF=F ICtDFT=           0.
 Calling FoFJK, ICntrl=      2127 FMM=F ISym2X=0 I1Cent= 0 IOpClX= 1 NMat=1 NMatS=1 NMatT=0.
 FoFJK:  IHMeth= 1 ICntrl=    2127 DoSepK=F KAlg= 0 I1Cent=           0 FoldK=F
 IRaf=         0 NMat=       1 IRICut=       1 DoRegI=T DoRafI=F ISym2E= 0 IDoP0=0 IntGTp=1.
 FoFCou: FMM=F IPFlag=           0 FMFlag=      100000 FMFlg1=         800
         NFxFlg=           0 DoJE=F BraDBF=F KetDBF=F FulRan=T
         wScrn=  0.000000 ICntrl=      2127 IOpCl=  1 I1Cent=           0 NGrid=           0
         NMat0=    1 NMatS0=      1 NMatT0=    0 NMatD0=    1 NMtDS0=    0 NMtDT0=    0
 Symmetry not used in FoFCou.
 Leave Link  703 at Thu Mar 14 11:32:23 2024, MaxMem= 32212254720 cpu:             204.8 elap:               6.8
 (Enter /home/<user>/g16/l716.exe)
 Dipole        =-1.13435109D+00-1.45372616D-01-2.02210788D-01
 ***** Axes restored to original set *****
 -------------------------------------------------------------------
 Center     Atomic                   Forces (Hartrees/Bohr)
 Number     Number              X              Y              Z
 -------------------------------------------------------------------
      1        6          -0.010891092    0.012424113   -0.000798046
      2        6           0.017835203   -0.005031199    0.000061055
      3        6          -0.009464785   -0.008745872   -0.000576690
      4        6           0.009242591   -0.011553138    0.004027043
      5        6          -0.018349180    0.000799390    0.000324410
      6        6           0.010956885    0.009114667   -0.002987423
      7        1          -0.000513722   -0.000090026   -0.000204833
      8        1          -0.000893225    0.000265272   -0.000212453
      9        1           0.000701172   -0.000683213   -0.000226139
     10        6          -0.000414746   -0.002491687    0.001221545
     11        6           0.000143022   -0.007642232    0.002513151
     12        6           0.003083595   -0.003108446    0.000790971
     13        6           0.000679082   -0.003666073    0.001151687
     14        6           0.004766079    0.008504079   -0.002744529
     15        6          -0.008850717    0.005630453   -0.001738552
     16        6           0.014693350    0.003552335   -0.001433975
     17        1           0.000139419    0.000817066   -0.000255972
     18        1           0.000566752    0.000154637   -0.000013536
     19        1           0.000793231   -0.000376859    0.000112277
     20        1          -0.000550715   -0.000436559    0.000102773
     21        6           0.000270787    0.000616791    0.001327506
     22        1           0.000616593    0.000483211   -0.000504005
     23        1          -0.000539908   -0.000092038   -0.000186858
     24        1          -0.000075885   -0.000290321    0.000421107
     25        6           0.000265385   -0.000226665   -0.001450640
     26        1          -0.000560795    0.000034191    0.000244786
     27        1           0.000621109    0.000681876    0.000115235
     28        1          -0.000085836   -0.000476101   -0.000158764
     29        6          -0.017478790    0.011972335    0.004388858
     30        6           0.004554421    0.006800259   -0.000666664
     31        6           0.014959766   -0.015595595   -0.001889124
     32        6          -0.003695543    0.006749781   -0.000205724
     33        6          -0.018432685   -0.011379482   -0.002533373
     34        1           0.000865289   -0.000124370   -0.000096847
     35        6           0.018589059    0.006746809    0.003341672
     36        1          -0.000770412    0.000451958   -0.000088747
     37        7           0.001695145   -0.004321977   -0.000759932
     38        7          -0.003764156   -0.002986732   -0.000214919
     39       16           0.001074938    0.001919193    0.000332492
     40        6          -0.013214344    0.001315952    0.000040312
     41        6           0.006944015    0.006924938   -0.000221070
     42        6           0.004015997   -0.008823241   -0.000929097
     43        6          -0.004535392    0.006124391   -0.001339904
     44        1           0.000482568   -0.000102479   -0.000468489
     45        6          -0.007480332   -0.004295241    0.002886687
     46        1           0.000686552   -0.000283260   -0.000093053
     47        6           0.006330646   -0.000323123   -0.000090081
     48        1          -0.000818927   -0.000563553   -0.000012769
     49        1          -0.000479651    0.000762432    0.000166273
     50        6          -0.002188843   -0.000482959   -0.004798274
     51        1          -0.000657137    0.000168146    0.000469547
     52        1          -0.000747032   -0.000013150    0.000497201
     53        6           0.003438215    0.000354658    0.004683517
     54        1           0.000145046   -0.000085320   -0.000520218
     55        1           0.000238867    0.000159594    0.000279248
     56        7          -0.004173438    0.003073601   -0.000851077
     57        1           0.000452048   -0.000628678   -0.000296359
     58        1          -0.000219537   -0.001682538    0.000068784
 -------------------------------------------------------------------
 Cartesian Forces:  Max     0.018589059 RMS     0.005239713
 Leave Link  716 at Thu Mar 14 11:32:23 2024, MaxMem= 32212254720 cpu:               0.7 elap:               0.0
 (Enter /home/<user>/g16/l103.exe)

 GradGradGradGradGradGradGradGradGradGradGradGradGradGradGradGradGradGrad
 Berny optimization.
 FormGI is forming the generalized inverse of G from B-inverse, IUseBI=4.
 GSVD:  received Info=                   1 from GESDD.
 Internal  Forces:  Max     0.014302352 RMS     0.002718909
 Search for a local minimum.
 Step number   1 out of a maximum of  346
 All quantities printed in internal units (Hartrees-Bohrs-Radians)
 RMS Force = .27189D-02 SwitMx=.10000D-02 MixMth= 1
 Mixed Optimization -- RFO/linear search
 Second derivative matrix not updated -- first step.
 ITU=  0
     Eigenvalues ---    0.00230   0.00230   0.00250   0.00611   0.00754
     Eigenvalues ---    0.00810   0.01027   0.01033   0.01253   0.01452
     Eigenvalues ---    0.01467   0.01604   0.01608   0.01639   0.01639
     Eigenvalues ---    0.01655   0.01692   0.01714   0.01732   0.01757
     Eigenvalues ---    0.01884   0.01903   0.02006   0.02027   0.02037
     Eigenvalues ---    0.02068   0.02077   0.02084   0.02088   0.02094
     Eigenvalues ---    0.02112   0.02114   0.02119   0.02120   0.02122
     Eigenvalues ---    0.02134   0.02143   0.02145   0.02146   0.02155
     Eigenvalues ---    0.02160   0.02161   0.02189   0.02292   0.04037
     Eigenvalues ---    0.04268   0.04398   0.04475   0.05426   0.05428
     Eigenvalues ---    0.05431   0.05497   0.05497   0.05554   0.05979
     Eigenvalues ---    0.08012   0.08978   0.09291   0.11605   0.12617
     Eigenvalues ---    0.12832   0.15987   0.15992   0.15993   0.15995
     Eigenvalues ---    0.15999   0.16000   0.16000   0.16000   0.16000
     Eigenvalues ---    0.16000   0.16000   0.16000   0.16000   0.16000
     Eigenvalues ---    0.16000   0.16000   0.16000   0.16000   0.16000
     Eigenvalues ---    0.16000   0.16000   0.18962   0.21874   0.21950
     Eigenvalues ---    0.22000   0.22000   0.22451   0.22465   0.22615
     Eigenvalues ---    0.22951   0.23523   0.23992   0.24472   0.24529
     Eigenvalues ---    0.24663   0.24980   0.24981   0.24988   0.24990
     Eigenvalues ---    0.24997   0.24998   0.24999   0.24999   0.24999
     Eigenvalues ---    0.28050   0.28067   0.28484   0.28609   0.29012
     Eigenvalues ---    0.31179   0.33128   0.33785   0.34027   0.34037
     Eigenvalues ---    0.34090   0.34100   0.34104   0.34105   0.34131
     Eigenvalues ---    0.34276   0.34289   0.34542   0.34594   0.34766
     Eigenvalues ---    0.35033   0.35049   0.35084   0.35151   0.35154
     Eigenvalues ---    0.35158   0.35186   0.35189   0.35222   0.35283
     Eigenvalues ---    0.35287   0.35571   0.35607   0.36142   0.37940
     Eigenvalues ---    0.38123   0.38999   0.40437   0.41409   0.41434
     Eigenvalues ---    0.41611   0.41653   0.42109   0.42369   0.42658
     Eigenvalues ---    0.43586   0.44364   0.44523   0.44545   0.44935
     Eigenvalues ---    0.44950   0.45054   0.45798   0.45947   0.46077
     Eigenvalues ---    0.46106   0.46907   0.46962   0.47199   0.47533
     Eigenvalues ---    0.48084   0.54483   0.56913
 RFO step:  Lambda=-8.26043838D-03 EMin= 2.30000000D-03
 Linear search not attempted -- first point.
 Iteration  1 RMS(Cart)=  0.07282765 RMS(Int)=  0.00131809
 Iteration  2 RMS(Cart)=  0.00317837 RMS(Int)=  0.00002911
 Iteration  3 RMS(Cart)=  0.00000847 RMS(Int)=  0.00002905
 Iteration  4 RMS(Cart)=  0.00000000 RMS(Int)=  0.00002905
 ITry= 1 IFail=0 DXMaxC= 4.47D-01 DCOld= 1.00D+10 DXMaxT= 3.00D-01 DXLimC= 3.00D+00 Rises=F
 Variable       Old X    -DE/DX   Delta X   Delta X   Delta X     New X
                                 (Linear)    (Quad)   (Total)
    R1        2.66308   0.01125   0.00000   0.02468   0.02468   2.68776
    R2        2.63278  -0.00960   0.00000  -0.02040  -0.02040   2.61238
    R3        2.04700  -0.00030   0.00000  -0.00083  -0.00083   2.04617
    R4        2.66707   0.00789   0.00000   0.01757   0.01758   2.68464
    R5        2.79640  -0.01430   0.00000  -0.04038  -0.04038   2.75602
    R6        2.61958  -0.00852   0.00000  -0.01723  -0.01723   2.60236
    R7        2.05426  -0.00069   0.00000  -0.00190  -0.00190   2.05236
    R8        2.66224   0.01234   0.00000   0.02749   0.02748   2.68972
    R9        2.88960  -0.00203   0.00000  -0.00439  -0.00439   2.88521
   R10        2.63825   0.00896   0.00000   0.01913   0.01912   2.65737
   R11        2.77135  -0.01258   0.00000  -0.03617  -0.03616   2.73519
   R12        2.05419  -0.00083   0.00000  -0.00231  -0.00231   2.05188
   R13        2.88920  -0.00159   0.00000  -0.00350  -0.00349   2.88570
   R14        2.92030   0.00083   0.00000   0.00287   0.00287   2.92317
   R15        2.91993   0.00076   0.00000   0.00262   0.00262   2.92255
   R16        2.62728  -0.00368   0.00000  -0.00745  -0.00745   2.61983
   R17        2.66418   0.00856   0.00000   0.01883   0.01883   2.68301
   R18        2.64586   0.00206   0.00000   0.00406   0.00407   2.64992
   R19        2.05539  -0.00087   0.00000  -0.00241  -0.00241   2.05298
   R20        2.64370   0.00685   0.00000   0.01412   0.01413   2.65782
   R21        2.05370  -0.00058   0.00000  -0.00162  -0.00162   2.05207
   R22        2.63884  -0.00660   0.00000  -0.01425  -0.01424   2.62459
   R23        2.05373  -0.00086   0.00000  -0.00239  -0.00239   2.05135
   R24        2.63947   0.00667   0.00000   0.01457   0.01456   2.65403
   R25        2.05430  -0.00054   0.00000  -0.00150  -0.00150   2.05281
   R26        2.07156  -0.00088   0.00000  -0.00252  -0.00252   2.06904
   R27        2.07162  -0.00046   0.00000  -0.00133  -0.00133   2.07029
   R28        2.06846   0.00004   0.00000   0.00011   0.00011   2.06856
   R29        2.07178  -0.00048   0.00000  -0.00138  -0.00138   2.07041
   R30        2.07153  -0.00088   0.00000  -0.00251  -0.00251   2.06902
   R31        2.06867   0.00003   0.00000   0.00009   0.00009   2.06876
   R32        2.72163   0.00254   0.00000   0.00582   0.00581   2.72744
   R33        2.61139   0.01423   0.00000   0.02907   0.02909   2.64048
   R34        2.75844  -0.00598   0.00000  -0.01754  -0.01758   2.74087
   R35        2.52890  -0.00321   0.00000  -0.00570  -0.00570   2.52320
   R36        2.68545  -0.01237   0.00000  -0.02789  -0.02786   2.65759
   R37        2.05212  -0.00036   0.00000  -0.00101  -0.00101   2.05111
   R38        2.72042   0.00341   0.00000   0.00800   0.00798   2.72841
   R39        2.52921  -0.00306   0.00000  -0.00547  -0.00547   2.52374
   R40        2.61048   0.01404   0.00000   0.02866   0.02867   2.63915
   R41        2.05218  -0.00064   0.00000  -0.00177  -0.00177   2.05041
   R42        2.79724  -0.01187   0.00000  -0.03357  -0.03357   2.76367
   R43        3.10267   0.00029   0.00000   0.00121   0.00121   3.10388
   R44        3.10273  -0.00065   0.00000  -0.00092  -0.00091   3.10182
   R45        2.65674   0.00680   0.00000   0.01509   0.01509   2.67183
   R46        2.65783   0.00605   0.00000   0.01345   0.01345   2.67128
   R47        2.63118  -0.00525   0.00000  -0.01099  -0.01098   2.62020
   R48        2.04758  -0.00015   0.00000  -0.00040  -0.00040   2.04718
   R49        2.63008  -0.00577   0.00000  -0.01207  -0.01208   2.61800
   R50        2.05315  -0.00025   0.00000  -0.00068  -0.00068   2.05247
   R51        2.64792   0.00491   0.00000   0.01050   0.01050   2.65843
   R52        2.05621  -0.00091   0.00000  -0.00255  -0.00255   2.05366
   R53        2.64804   0.00616   0.00000   0.01319   0.01319   2.66123
   R54        2.05595  -0.00082   0.00000  -0.00227  -0.00227   2.05368
   R55        2.85672  -0.00380   0.00000  -0.01187  -0.01187   2.84485
   R56        2.07109  -0.00039   0.00000  -0.00112  -0.00112   2.06997
   R57        2.07694  -0.00068   0.00000  -0.00197  -0.00197   2.07497
   R58        2.90825   0.00313   0.00000   0.01064   0.01064   2.91889
   R59        2.08826  -0.00024   0.00000  -0.00070  -0.00070   2.08756
   R60        2.07284   0.00001   0.00000   0.00003   0.00003   2.07286
   R61        2.77161  -0.00396   0.00000  -0.01071  -0.01071   2.76089
   R62        1.92721  -0.00001   0.00000  -0.00001  -0.00001   1.92720
   R63        1.92534  -0.00027   0.00000  -0.00061  -0.00061   1.92474
    A1        2.11685  -0.00136   0.00000  -0.00609  -0.00612   2.11074
    A2        2.08115   0.00110   0.00000   0.00554   0.00554   2.08668
    A3        2.08518   0.00026   0.00000   0.00052   0.00052   2.08570
    A4        2.07017   0.00392   0.00000   0.01531   0.01530   2.08546
    A5        2.12376  -0.00336   0.00000  -0.01305  -0.01305   2.11070
    A6        2.08895  -0.00055   0.00000  -0.00216  -0.00215   2.08680
    A7        2.09899  -0.00229   0.00000  -0.00881  -0.00886   2.09014
    A8        2.08287   0.00182   0.00000   0.00823   0.00821   2.09108
    A9        2.10090   0.00047   0.00000   0.00021   0.00018   2.10108
   A10        2.10142  -0.00140   0.00000  -0.00627  -0.00628   2.09513
   A11        2.24633   0.00103   0.00000   0.00021   0.00024   2.24657
   A12        1.93539   0.00036   0.00000   0.00608   0.00606   1.94145
   A13        2.09495   0.00302   0.00000   0.01336   0.01333   2.10828
   A14        1.89539  -0.00016   0.00000  -0.00132  -0.00132   1.89407
   A15        2.29281  -0.00286   0.00000  -0.01201  -0.01198   2.28083
   A16        2.08394  -0.00189   0.00000  -0.00748  -0.00751   2.07643
   A17        2.08963   0.00055   0.00000   0.00141   0.00143   2.09106
   A18        2.10961   0.00134   0.00000   0.00607   0.00608   2.11569
   A19        1.76495  -0.00194   0.00000  -0.01278  -0.01278   1.75217
   A20        1.94396   0.00058   0.00000   0.00164   0.00165   1.94561
   A21        1.94482   0.00052   0.00000   0.00070   0.00067   1.94549
   A22        1.94316   0.00066   0.00000   0.00275   0.00274   1.94590
   A23        1.94430   0.00053   0.00000   0.00145   0.00142   1.94572
   A24        1.91873  -0.00040   0.00000   0.00504   0.00502   1.92374
   A25        2.24874   0.00007   0.00000  -0.00265  -0.00264   2.24610
   A26        1.93642   0.00174   0.00000   0.00986   0.00987   1.94629
   A27        2.09802  -0.00180   0.00000  -0.00722  -0.00723   2.09080
   A28        2.08017  -0.00146   0.00000  -0.00635  -0.00634   2.07383
   A29        2.10971   0.00076   0.00000   0.00335   0.00335   2.11306
   A30        2.09330   0.00070   0.00000   0.00299   0.00299   2.09629
   A31        2.10395   0.00346   0.00000   0.01357   0.01359   2.11753
   A32        2.08949  -0.00177   0.00000  -0.00705  -0.00705   2.08244
   A33        2.08975  -0.00168   0.00000  -0.00653  -0.00653   2.08321
   A34        2.10429  -0.00041   0.00000  -0.00300  -0.00299   2.10130
   A35        2.08939   0.00042   0.00000   0.00280   0.00280   2.09219
   A36        2.08950  -0.00001   0.00000   0.00020   0.00020   2.08969
   A37        2.07473  -0.00220   0.00000  -0.00886  -0.00887   2.06586
   A38        2.09978   0.00062   0.00000   0.00161   0.00162   2.10140
   A39        2.10867   0.00157   0.00000   0.00725   0.00725   2.11592
   A40        1.89260  -0.00000   0.00000  -0.00189  -0.00189   1.89071
   A41        2.28538  -0.00241   0.00000  -0.00996  -0.00995   2.27543
   A42        2.10521   0.00241   0.00000   0.01185   0.01184   2.11705
   A43        1.93147  -0.00060   0.00000  -0.00471  -0.00471   1.92675
   A44        1.93224  -0.00012   0.00000  -0.00085  -0.00086   1.93137
   A45        1.93912   0.00090   0.00000   0.00665   0.00665   1.94577
   A46        1.88235   0.00005   0.00000  -0.00222  -0.00223   1.88012
   A47        1.88862  -0.00012   0.00000  -0.00044  -0.00043   1.88819
   A48        1.88823  -0.00013   0.00000   0.00146   0.00145   1.88968
   A49        1.93184  -0.00013   0.00000  -0.00091  -0.00093   1.93092
   A50        1.93200  -0.00061   0.00000  -0.00483  -0.00484   1.92716
   A51        1.93946   0.00090   0.00000   0.00669   0.00669   1.94615
   A52        1.88163   0.00005   0.00000  -0.00235  -0.00236   1.87927
   A53        1.88885  -0.00011   0.00000   0.00166   0.00165   1.89050
   A54        1.88821  -0.00011   0.00000  -0.00038  -0.00037   1.88784
   A55        2.14977  -0.00192   0.00000  -0.00741  -0.00742   2.14235
   A56        2.12489  -0.00117   0.00000  -0.00447  -0.00449   2.12040
   A57        2.00850   0.00309   0.00000   0.01195   0.01194   2.02044
   A58        2.11574  -0.00102   0.00000  -0.00506  -0.00511   2.11063
   A59        2.19154   0.00036   0.00000   0.00336   0.00338   2.19492
   A60        1.97563   0.00065   0.00000   0.00153   0.00152   1.97715
   A61        2.15866  -0.00215   0.00000  -0.00733  -0.00732   2.15134
   A62        2.07173   0.00189   0.00000   0.00832   0.00827   2.08000
   A63        2.05217   0.00025   0.00000  -0.00143  -0.00148   2.05069
   A64        2.11612  -0.00033   0.00000  -0.00229  -0.00233   2.11379
   A65        1.97581   0.00004   0.00000  -0.00092  -0.00093   1.97488
   A66        2.19099   0.00028   0.00000   0.00308   0.00311   2.19410
   A67        2.15815  -0.00215   0.00000  -0.00722  -0.00719   2.15096
   A68        2.05245   0.00047   0.00000  -0.00008  -0.00011   2.05235
   A69        2.07199   0.00167   0.00000   0.00706   0.00704   2.07903
   A70        2.00920   0.00255   0.00000   0.00998   0.00997   2.01917
   A71        2.14825  -0.00121   0.00000  -0.00474  -0.00474   2.14351
   A72        2.12571  -0.00134   0.00000  -0.00522  -0.00521   2.12050
   A73        1.86476   0.00102   0.00000   0.00393   0.00391   1.86867
   A74        1.86452   0.00157   0.00000   0.00583   0.00581   1.87033
   A75        1.74406  -0.00329   0.00000  -0.01040  -0.01041   1.73365
   A76        2.13161  -0.00182   0.00000  -0.00747  -0.00747   2.12414
   A77        2.09682  -0.00123   0.00000  -0.00518  -0.00517   2.09165
   A78        2.05438   0.00305   0.00000   0.01269   0.01267   2.06705
   A79        2.10775  -0.00182   0.00000  -0.00722  -0.00725   2.10050
   A80        2.08768   0.00143   0.00000   0.00664   0.00662   2.09430
   A81        2.08773   0.00039   0.00000   0.00050   0.00048   2.08821
   A82        2.11464  -0.00216   0.00000  -0.00883  -0.00888   2.10577
   A83        2.08573   0.00179   0.00000   0.00853   0.00852   2.09425
   A84        2.08253   0.00036   0.00000  -0.00000  -0.00002   2.08252
   A85        2.12123  -0.00096   0.00000  -0.00393  -0.00393   2.11730
   A86        2.07908   0.00018   0.00000   0.00019   0.00020   2.07927
   A87        2.08285   0.00078   0.00000   0.00373   0.00373   2.08658
   A88        2.11454  -0.00051   0.00000  -0.00205  -0.00208   2.11245
   A89        2.08401   0.00000   0.00000  -0.00046  -0.00045   2.08356
   A90        2.08462   0.00051   0.00000   0.00255   0.00255   2.08717
   A91        2.05378   0.00240   0.00000   0.00933   0.00931   2.06309
   A92        2.11721  -0.00081   0.00000  -0.00304  -0.00304   2.11417
   A93        2.11157  -0.00159   0.00000  -0.00608  -0.00608   2.10549
   A94        1.93253  -0.00040   0.00000  -0.00650  -0.00651   1.92601
   A95        1.91460   0.00004   0.00000   0.00103   0.00103   1.91563
   A96        1.96719  -0.00031   0.00000  -0.00252  -0.00253   1.96466
   A97        1.86344   0.00027   0.00000   0.00530   0.00530   1.86874
   A98        1.88473   0.00014   0.00000  -0.00082  -0.00084   1.88389
   A99        1.89805   0.00030   0.00000   0.00408   0.00408   1.90212
   A100       1.89959   0.00082   0.00000   0.00402   0.00403   1.90362
   A101       1.90057   0.00081   0.00000   0.00260   0.00256   1.90313
   A102       1.92370  -0.00268   0.00000  -0.01302  -0.01302   1.91068
   A103       1.85817  -0.00028   0.00000   0.00289   0.00288   1.86105
   A104       1.99643   0.00102   0.00000   0.00535   0.00535   2.00179
   A105       1.88238   0.00042   0.00000  -0.00132  -0.00134   1.88105
   A106       1.91156   0.00129   0.00000   0.01201   0.01192   1.92349
   A107       1.91493   0.00058   0.00000   0.00780   0.00771   1.92264
   A108       1.84784   0.00015   0.00000   0.01010   0.00993   1.85776
    D1       -0.01143  -0.00002   0.00000  -0.00070  -0.00075  -0.01218
    D2        3.10331   0.00008   0.00000   0.00345   0.00340   3.10670
    D3        3.13347   0.00023   0.00000   0.00816   0.00813  -3.14158
    D4       -0.03498   0.00033   0.00000   0.01232   0.01227  -0.02270
    D5        0.00611   0.00034   0.00000   0.01225   0.01221   0.01832
    D6       -3.13402   0.00030   0.00000   0.01101   0.01094  -3.12308
    D7       -3.13880   0.00010   0.00000   0.00337   0.00334  -3.13546
    D8        0.00425   0.00006   0.00000   0.00213   0.00208   0.00634
    D9        0.00879  -0.00042   0.00000  -0.01369  -0.01375  -0.00496
   D10       -3.10170   0.00000   0.00000   0.00017   0.00012  -3.10158
   D11       -3.10650  -0.00047   0.00000  -0.01758  -0.01766  -3.12416
   D12        0.06620  -0.00005   0.00000  -0.00372  -0.00379   0.06241
   D13        0.65161  -0.00249   0.00000  -0.12999  -0.12994   0.52167
   D14       -2.49924  -0.00225   0.00000  -0.12073  -0.12074  -2.61998
   D15       -2.51713  -0.00232   0.00000  -0.12553  -0.12553  -2.64265
   D16        0.61521  -0.00208   0.00000  -0.11627  -0.11633   0.49889
   D17       -0.00101   0.00049   0.00000   0.01635   0.01623   0.01522
   D18       -3.13095   0.00043   0.00000   0.01401   0.01389  -3.11706
   D19        3.10915   0.00009   0.00000   0.00249   0.00242   3.11158
   D20       -0.02079   0.00003   0.00000   0.00014   0.00009  -0.02070
   D21       -0.00447  -0.00013   0.00000  -0.00452  -0.00456  -0.00903
   D22       -3.13826  -0.00022   0.00000  -0.00866  -0.00874   3.13619
   D23        3.12739  -0.00008   0.00000  -0.00258  -0.00262   3.12477
   D24       -0.00640  -0.00017   0.00000  -0.00672  -0.00680  -0.01319
   D25        3.13799   0.00016   0.00000   0.00765   0.00766  -3.13754
   D26        1.07204   0.00021   0.00000   0.01079   0.01079   1.08282
   D27       -1.07755  -0.00006   0.00000   0.00257   0.00258  -1.07497
   D28        0.00715   0.00012   0.00000   0.00555   0.00555   0.01270
   D29       -2.05880   0.00017   0.00000   0.00869   0.00868  -2.05012
   D30        2.07480  -0.00011   0.00000   0.00047   0.00047   2.07527
   D31        0.00193  -0.00030   0.00000  -0.00976  -0.00983  -0.00790
   D32       -3.14114  -0.00026   0.00000  -0.00850  -0.00856   3.13349
   D33        3.13367  -0.00016   0.00000  -0.00442  -0.00451   3.12916
   D34       -0.00940  -0.00012   0.00000  -0.00317  -0.00323  -0.01264
   D35        0.00269   0.00012   0.00000   0.00493   0.00493   0.00762
   D36       -3.13870   0.00010   0.00000   0.00421   0.00419  -3.13451
   D37       -3.12990  -0.00002   0.00000  -0.00001   0.00003  -3.12986
   D38        0.01190  -0.00004   0.00000  -0.00074  -0.00071   0.01119
   D39        3.13718  -0.00009   0.00000  -0.00369  -0.00372   3.13346
   D40       -0.00545  -0.00005   0.00000  -0.00246  -0.00249  -0.00794
   D41       -1.07948  -0.00020   0.00000  -0.00763  -0.00764  -1.08711
   D42        2.06108  -0.00016   0.00000  -0.00640  -0.00641   2.05467
   D43        1.06915   0.00015   0.00000   0.00192   0.00191   1.07106
   D44       -2.07348   0.00018   0.00000   0.00315   0.00314  -2.07034
   D45        3.07561  -0.00068   0.00000  -0.00528  -0.00529   3.07032
   D46       -1.12143  -0.00108   0.00000  -0.01166  -0.01166  -1.13310
   D47        0.97711  -0.00072   0.00000  -0.00599  -0.00599   0.97112
   D48        1.12004   0.00097   0.00000   0.00776   0.00776   1.12780
   D49       -3.07701   0.00057   0.00000   0.00138   0.00139  -3.07562
   D50       -0.97847   0.00092   0.00000   0.00705   0.00706  -0.97140
   D51       -1.04315   0.00011   0.00000   0.00038   0.00037  -1.04278
   D52        1.04299  -0.00029   0.00000  -0.00600  -0.00601   1.03698
   D53        3.14153   0.00006   0.00000  -0.00033  -0.00033   3.14120
   D54        1.12238   0.00114   0.00000   0.01302   0.01304   1.13542
   D55       -3.07548   0.00072   0.00000   0.00637   0.00639  -3.06908
   D56       -0.97690   0.00077   0.00000   0.00710   0.00711  -0.96978
   D57        3.07912  -0.00061   0.00000  -0.00134  -0.00135   3.07777
   D58       -1.11874  -0.00103   0.00000  -0.00799  -0.00800  -1.12673
   D59        0.97984  -0.00098   0.00000  -0.00726  -0.00727   0.97257
   D60       -1.04154   0.00032   0.00000   0.00681   0.00681  -1.03473
   D61        1.04379  -0.00010   0.00000   0.00016   0.00016   1.04395
   D62       -3.14082  -0.00005   0.00000   0.00089   0.00088  -3.13993
   D63        3.14000   0.00000   0.00000   0.00001   0.00001   3.14001
   D64       -0.00095   0.00003   0.00000   0.00109   0.00109   0.00014
   D65       -0.00047  -0.00003   0.00000  -0.00133  -0.00131  -0.00178
   D66       -3.14142  -0.00000   0.00000  -0.00025  -0.00024   3.14153
   D67        0.00205  -0.00004   0.00000  -0.00129  -0.00131   0.00074
   D68       -3.13972  -0.00002   0.00000  -0.00066  -0.00065  -3.14037
   D69       -3.14048  -0.00001   0.00000  -0.00018  -0.00020  -3.14068
   D70        0.00094   0.00001   0.00000   0.00045   0.00045   0.00139
   D71       -0.00005   0.00003   0.00000   0.00113   0.00113   0.00109
   D72       -3.14132   0.00004   0.00000   0.00136   0.00136  -3.13996
   D73        3.14091   0.00000   0.00000   0.00006   0.00007   3.14098
   D74       -0.00036   0.00001   0.00000   0.00029   0.00029  -0.00006
   D75        0.00011  -0.00000   0.00000  -0.00004  -0.00004   0.00007
   D76       -3.14134  -0.00001   0.00000  -0.00033  -0.00033   3.14152
   D77        3.14138  -0.00001   0.00000  -0.00026  -0.00026   3.14111
   D78       -0.00007  -0.00002   0.00000  -0.00056  -0.00055  -0.00062
   D79        0.00035  -0.00003   0.00000  -0.00085  -0.00084  -0.00049
   D80       -3.14137  -0.00002   0.00000  -0.00061  -0.00060   3.14122
   D81       -3.14139  -0.00002   0.00000  -0.00055  -0.00055   3.14124
   D82        0.00007  -0.00001   0.00000  -0.00031  -0.00031  -0.00024
   D83        3.14051   0.00005   0.00000   0.00144   0.00146  -3.14122
   D84       -0.00087   0.00002   0.00000   0.00064   0.00064  -0.00022
   D85       -0.00096   0.00004   0.00000   0.00120   0.00121   0.00026
   D86        3.14086   0.00001   0.00000   0.00040   0.00039   3.14125
   D87        3.13153   0.00038   0.00000   0.01426   0.01426  -3.13740
   D88        0.01701   0.00056   0.00000   0.02279   0.02280   0.03981
   D89       -0.00138   0.00018   0.00000   0.00564   0.00563   0.00425
   D90       -3.11589   0.00036   0.00000   0.01417   0.01416  -3.10173
   D91       -3.13181  -0.00051   0.00000  -0.01908  -0.01912   3.13226
   D92        0.04861  -0.00011   0.00000  -0.00500  -0.00502   0.04359
   D93        0.00123  -0.00032   0.00000  -0.01061  -0.01062  -0.00939
   D94       -3.10153   0.00009   0.00000   0.00346   0.00348  -3.09806
   D95       -0.00009   0.00010   0.00000   0.00411   0.00410   0.00401
   D96       -3.11811   0.00022   0.00000   0.01000   0.00997  -3.10813
   D97        3.11754  -0.00006   0.00000  -0.00340  -0.00339   3.11414
   D98       -0.00048   0.00007   0.00000   0.00250   0.00248   0.00200
   D99        3.11909  -0.00006   0.00000  -0.00355  -0.00356   3.11553
   D100       0.00269   0.00013   0.00000   0.00448   0.00451   0.00719
   D101       0.00050   0.00017   0.00000   0.00588   0.00584   0.00635
   D102      -3.10356   0.00036   0.00000   0.01321   0.01314  -3.09042
   D103       3.10367  -0.00019   0.00000  -0.00784  -0.00783   3.09584
   D104      -0.00039  -0.00001   0.00000  -0.00052  -0.00053  -0.00092
   D105       0.00174  -0.00024   0.00000  -0.00892  -0.00894  -0.00720
   D106      -3.13232  -0.00031   0.00000  -0.01193  -0.01197   3.13890
   D107       3.11670  -0.00039   0.00000  -0.01564  -0.01566   3.10104
   D108      -0.01736  -0.00046   0.00000  -0.01866  -0.01869  -0.03605
   D109      -0.00199  -0.00023   0.00000  -0.00811  -0.00813  -0.01012
   D110      -3.11881  -0.00009   0.00000  -0.00183  -0.00185  -3.12066
   D111      -0.00198   0.00012   0.00000   0.00435   0.00431   0.00234
   D112       3.13219   0.00019   0.00000   0.00732   0.00730   3.13949
   D113       3.10170  -0.00009   0.00000  -0.00320  -0.00324   3.09845
   D114      -0.04733  -0.00002   0.00000  -0.00023  -0.00026  -0.04758
   D115      -0.64981   0.00180   0.00000   0.09471   0.09470  -0.55511
   D116       2.52179   0.00171   0.00000   0.09305   0.09305   2.61484
   D117       2.49981   0.00171   0.00000   0.09144   0.09143   2.59124
   D118      -0.61178   0.00162   0.00000   0.08977   0.08979  -0.52199
   D119      -0.00347  -0.00023   0.00000  -0.00828  -0.00826  -0.01173
   D120       0.00321   0.00027   0.00000   0.00967   0.00965   0.01286
   D121      -3.10157   0.00000   0.00000  -0.00044  -0.00042  -3.10199
   D122       0.03202  -0.00034   0.00000  -0.01256  -0.01256   0.01946
   D123       0.01071   0.00003   0.00000   0.00091   0.00092   0.01163
   D124      -3.13888  -0.00032   0.00000  -0.01122  -0.01123   3.13308
   D125       3.10514   0.00041   0.00000   0.01468   0.01471   3.11985
   D126      -0.06211   0.00000   0.00000   0.00126   0.00128  -0.06082
   D127      -0.00775   0.00040   0.00000   0.01342   0.01345   0.00570
   D128       3.10818  -0.00001   0.00000  -0.00000   0.00002   3.10821
   D129      -0.00719  -0.00026   0.00000  -0.00981  -0.00980  -0.01698
   D130       3.12694  -0.00031   0.00000  -0.01121  -0.01117   3.11577
   D131      -3.14078   0.00008   0.00000   0.00229   0.00228  -3.13850
   D132      -0.00665   0.00003   0.00000   0.00089   0.00090  -0.00575
   D133       0.00111  -0.00059   0.00000  -0.01922  -0.01914  -0.01803
   D134       3.13689  -0.00035   0.00000  -0.01148  -0.01139   3.12550
   D135      -3.11488  -0.00020   0.00000  -0.00595  -0.00593  -3.12080
   D136       0.02091   0.00004   0.00000   0.00180   0.00182   0.02273
   D137       0.00029   0.00011   0.00000   0.00445   0.00450   0.00480
   D138      -3.10351  -0.00000   0.00000  -0.00182  -0.00178  -3.10529
   D139      -3.13382   0.00015   0.00000   0.00587   0.00590  -3.12792
   D140       0.04556   0.00004   0.00000  -0.00040  -0.00038   0.04518
   D141       0.00272   0.00033   0.00000   0.00996   0.01002   0.01275
   D142       3.10666   0.00045   0.00000   0.01627   0.01634   3.12300
   D143      -3.13306   0.00009   0.00000   0.00222   0.00227  -3.13079
   D144      -0.02913   0.00021   0.00000   0.00853   0.00859  -0.02054
   D145      -2.61870  -0.00008   0.00000  -0.00224  -0.00225  -2.62094
   D146      -0.56643   0.00004   0.00000   0.00099   0.00096  -0.56547
   D147       1.55118   0.00024   0.00000   0.00522   0.00519   1.55637
   D148       0.56193  -0.00028   0.00000  -0.00905  -0.00902   0.55291
   D149       2.61420  -0.00016   0.00000  -0.00582  -0.00581   2.60839
   D150      -1.55138   0.00004   0.00000  -0.00159  -0.00158  -1.55296
   D151      -0.98157  -0.00056   0.00000  -0.02135  -0.02135  -1.00292
   D152       1.03739  -0.00001   0.00000  -0.01431  -0.01431   1.02309
   D153       3.09904  -0.00057   0.00000  -0.02197  -0.02196   3.07707
   D154      -3.12190   0.00005   0.00000  -0.01090  -0.01090  -3.13280
   D155      -1.10294   0.00060   0.00000  -0.00386  -0.00386  -1.10680
   D156       0.95870   0.00003   0.00000  -0.01152  -0.01152   0.94719
   D157       1.14542  -0.00051   0.00000  -0.01883  -0.01884   1.12658
   D158      -3.11880   0.00005   0.00000  -0.01180  -0.01180  -3.13060
   D159      -1.05716  -0.00052   0.00000  -0.01945  -0.01945  -1.07661
   D160       1.18941  -0.00027   0.00000   0.01027   0.01020   1.19961
   D161      -3.07255   0.00097   0.00000   0.03371   0.03374  -3.03881
   D162      -0.95754  -0.00001   0.00000   0.01119   0.01115  -0.94639
   D163       1.06369   0.00123   0.00000   0.03463   0.03468   1.09837
   D164      -3.02098  -0.00057   0.00000   0.00521   0.00517  -3.01581
   D165      -0.99975   0.00068   0.00000   0.02865   0.02871  -0.97104
         Item               Value     Threshold  Converged?
 Maximum Force            0.014302     0.000450     NO 
 RMS     Force            0.002719     0.000300     NO 
 Maximum Displacement     0.447100     0.001800     NO 
 RMS     Displacement     0.072646     0.001200     NO 
 Predicted change in Energy=-4.648583D-03
 Lowest energy point so far.  Saving SCF results.
 GradGradGradGradGradGradGradGradGradGradGradGradGradGradGradGradGradGrad

 Leave Link  103 at Thu Mar 14 11:32:23 2024, MaxMem= 32212254720 cpu:               3.1 elap:               0.1
 (Enter /home/<user>/g16/l202.exe)
 Stoichiometry    C29H25N3S(1+,2)
 Framework group  C1[X(C29H25N3S)]
 Deg. of freedom   168
 Full point group                 C1      NOp   1
 RotChk:  IX=0 Diff= 3.98D-02
 Largest Abelian subgroup         C1      NOp   1
 Largest concise Abelian subgroup C1      NOp   1
                         Standard orientation:                         
 ---------------------------------------------------------------------
 Center     Atomic      Atomic             Coordinates (Angstroms)
 Number     Number       Type             X           Y           Z
 ---------------------------------------------------------------------
      1          6           0       -2.407464    1.585574   -0.518871
      2          6           0       -1.780577    0.344326   -0.220112
      3          6           0       -2.582298   -0.792432    0.068467
      4          6           0       -3.954814   -0.680265    0.061895
      5          6           0       -4.566406    0.566217   -0.251351
      6          6           0       -3.785057    1.697562   -0.546322
      7          1           0       -1.797505    2.452706   -0.738994
      8          1           0       -2.109322   -1.733398    0.333801
      9          1           0       -4.244367    2.649889   -0.793473
     10          6           0       -5.001793   -1.748649    0.367622
     11          6           0       -6.283711   -0.943571    0.166597
     12          6           0       -7.599159   -1.363374    0.290420
     13          6           0       -8.628287   -0.439758    0.057575
     14          6           0       -8.348938    0.892202   -0.297355
     15          6           0       -7.035321    1.324477   -0.425907
     16          6           0       -6.003152    0.401069   -0.192605
     17          1           0       -7.837495   -2.387346    0.564131
     18          1           0       -9.661557   -0.759589    0.153825
     19          1           0       -9.164028    1.587471   -0.472264
     20          1           0       -6.819460    2.353124   -0.700379
     21          6           0       -4.877918   -2.263428    1.821059
     22          1           0       -5.680340   -2.974273    2.043764
     23          1           0       -3.923584   -2.781073    1.967759
     24          1           0       -4.937974   -1.443145    2.543387
     25          6           0       -4.912727   -2.929460   -0.627145
     26          1           0       -3.959674   -3.458036   -0.514613
     27          1           0       -5.716172   -3.649015   -0.438796
     28          1           0       -4.996467   -2.588013   -1.663900
     29          6           0       -0.327900    0.215704   -0.233513
     30          6           0        0.555933    1.312412    0.081416
     31          6           0        0.294879   -0.992740   -0.556315
     32          6           0        1.995941    1.141787    0.050862
     33          6           0        1.691316   -1.155596   -0.591365
     34          1           0       -0.316130   -1.843072   -0.842150
     35          6           0        2.589594   -0.126791   -0.299670
     36          1           0        2.077018   -2.121330   -0.901011
     37          7           0        0.177374    2.536517    0.457008
     38          7           0        2.662823    2.242681    0.407054
     39         16           0        1.546394    3.400136    0.735872
     40          6           0        4.035808   -0.339381   -0.345421
     41          6           0        4.928183    0.696913   -0.704308
     42          6           0        4.568400   -1.617040   -0.058807
     43          6           0        6.290588    0.451945   -0.784109
     44          1           0        4.546670    1.683806   -0.936848
     45          6           0        5.933665   -1.843593   -0.122239
     46          1           0        3.909256   -2.423284    0.249670
     47          6           0        6.823480   -0.817157   -0.493540
     48          1           0        6.956076    1.256565   -1.085330
     49          1           0        6.322098   -2.829991    0.116893
     50          6           0        8.307472   -1.066646   -0.536465
     51          1           0        8.511027   -2.107534   -0.810292
     52          1           0        8.767973   -0.434609   -1.307266
     53          6           0        8.994829   -0.788013    0.818421
     54          1           0        8.793499    0.256260    1.117256
     55          1           0        8.543126   -1.427133    1.586996
     56          7           0       10.411217   -1.134266    0.726330
     57          1           0       10.893785   -0.482272    0.108201
     58          1           0       10.853946   -1.047178    1.639458
 ---------------------------------------------------------------------
 Rotational constants (GHZ):           0.3736945           0.0396631           0.0366961
 Leave Link  202 at Thu Mar 14 11:32:23 2024, MaxMem= 32212254720 cpu:               0.1 elap:               0.0
 (Enter /home/<user>/g16/l301.exe)
 Standard basis: 6-31G(d) (6D, 7F)
 Ernie: Thresh=  0.10000D-02 Tol=  0.10000D-05 Strict=F.
 There are   549 symmetry adapted cartesian basis functions of A   symmetry.
 There are   549 symmetry adapted basis functions of A   symmetry.
   549 basis functions,  1048 primitive gaussians,   549 cartesian basis functions
   118 alpha electrons      117 beta electrons
       nuclear repulsion energy      3084.8757913840 Hartrees.
 IExCor=  402 DFT=T Ex+Corr=B3LYP ExCW=0 ScaHFX=  0.200000
 ScaDFX=  0.800000  0.720000  1.000000  0.810000 ScalE2=  1.000000  1.000000
 IRadAn=      5 IRanWt=     -1 IRanGd=            0 ICorTp=0 IEmpDi=  4
 NAtoms=   58 NActive=   58 NUniq=   58 SFac= 1.00D+00 NAtFMM=   60 NAOKFM=F Big=F
 Integral buffers will be    131072 words long.
 Raffenetti 2 integral format.
 Two-electron integral symmetry is turned on.
 Leave Link  301 at Thu Mar 14 11:32:23 2024, MaxMem= 32212254720 cpu:               0.8 elap:               0.0
 (Enter /home/<user>/g16/l302.exe)
 NPDir=0 NMtPBC=     1 NCelOv=     1 NCel=       1 NClECP=     1 NCelD=      1
         NCelK=      1 NCelE2=     1 NClLst=     1 CellRange=     0.0.
 One-electron integrals computed using PRISM.
 One-electron integral symmetry used in STVInt
 NBasis=   549 RedAO= T EigKep=  2.66D-04  NBF=   549
 NBsUse=   549 1.00D-06 EigRej= -1.00D+00 NBFU=   549
 Precomputing XC quadrature grid using
 IXCGrd= 4 IRadAn=           5 IRanWt=          -1 IRanGd=           0 AccXCQ= 0.00D+00.
 Generated NRdTot=       0 NPtTot=           0 NUsed=           0 NTot=          32
 NSgBfM=   512   512   512   512   512 MxSgAt=    58 MxSgA2=    58.
 Leave Link  302 at Thu Mar 14 11:32:24 2024, MaxMem= 32212254720 cpu:              12.7 elap:               0.4
 (Enter /home/<user>/g16/l303.exe)
 DipDrv:  MaxL=1.
 Leave Link  303 at Thu Mar 14 11:32:24 2024, MaxMem= 32212254720 cpu:               1.4 elap:               0.1
 (Enter /home/<user>/g16/l401.exe)
 Initial guess from the checkpoint file:  "FBTP_H0opt.chk"
 B after Tr=     0.000000    0.000000    0.000000
         Rot=    0.999994   -0.003418    0.000091    0.000369 Ang=  -0.39 deg.
 Guess basis will be translated and rotated to current coordinates.
 JPrj=2 DoOrth=T DoCkMO=T.
 Initial guess <Sx>= 0.0000 <Sy>= 0.0000 <Sz>= 0.5000 <S**2>= 0.7589 S= 0.5044
 Generating alternative initial guess.
 ExpMin= 1.17D-01 ExpMax= 2.19D+04 ExpMxC= 3.30D+03 IAcc=3 IRadAn=         5 AccDes= 0.00D+00
 Harris functional with IExCor=  402 and IRadAn=       5 diagonalized for initial guess.
 HarFok:  IExCor=  402 AccDes= 0.00D+00 IRadAn=         5 IDoV= 1 UseB2=F ITyADJ=14
 ICtDFT=  3500011 ScaDFX=  1.000000  1.000000  1.000000  1.000000
 FoFCou: FMM=F IPFlag=           0 FMFlag=      100000 FMFlg1=           0
         NFxFlg=           0 DoJE=T BraDBF=F KetDBF=T FulRan=T
         wScrn=  0.000000 ICntrl=       500 IOpCl=  0 I1Cent=   200000004 NGrid=           0
         NMat0=    1 NMatS0=      1 NMatT0=    0 NMatD0=    1 NMtDS0=    0 NMtDT0=    0
 Petite list used in FoFCou.
 Harris En= -1682.30517045273    
 Leave Link  401 at Thu Mar 14 11:32:25 2024, MaxMem= 32212254720 cpu:              47.8 elap:               1.6
 (Enter /home/<user>/g16/l502.exe)
 Integral symmetry usage will be decided dynamically.
 UHF open shell SCF:
 Using DIIS extrapolation, IDIIS=  1040.
 NGot= 32212254720 LenX= 32211628124 LenY= 32211326174
 Requested convergence on RMS density matrix=1.00D-08 within 128 cycles.
 Requested convergence on MAX density matrix=1.00D-06.
 Requested convergence on             energy=1.00D-06.
 No special actions if energy rises.
 Fock matrices will be formed incrementally for  20 cycles.
 Integral accuracy reduced to 1.0D-05 until final iterations.

 Cycle   1  Pass 0  IDiag  1:
 FoFJK:  IHMeth= 1 ICntrl=       0 DoSepK=F KAlg= 0 I1Cent=           0 FoldK=F
 IRaf= 550000000 NMat=       1 IRICut=       1 DoRegI=T DoRafI=F ISym2E= 0 IDoP0=0 IntGTp=1.
 FoFCou: FMM=F IPFlag=           0 FMFlag=      100000 FMFlg1=           0
         NFxFlg=           0 DoJE=F BraDBF=F KetDBF=F FulRan=T
         wScrn=  0.000000 ICntrl=         0 IOpCl=  1 I1Cent=           0 NGrid=           0
         NMat0=    1 NMatS0=      1 NMatT0=    0 NMatD0=    1 NMtDS0=    0 NMtDT0=    0
 Symmetry not used in FoFCou.
 E= -1682.34150650674    
 DIIS: error= 2.80D-03 at cycle   1 NSaved=   1.
 NSaved= 1 IEnMin= 1 EnMin= -1682.34150650674     IErMin= 1 ErrMin= 2.80D-03
 ErrMax= 2.80D-03  0.00D+00 EMaxC= 1.00D-01 BMatC= 4.39D-02 BMatP= 4.39D-02
 IDIUse=3 WtCom= 9.72D-01 WtEn= 2.80D-02
 Coeff-Com:  0.100D+01
 Coeff-En:   0.100D+01
 Coeff:      0.100D+01
 Gap=     1.962 Goal=   None    Shift=    0.000
 Gap=     1.947 Goal=   None    Shift=    0.000
 GapD=    1.947 DampG=2.000 DampE=1.000 DampFc=2.0000 IDamp=-1.
 RMSDP=4.13D-04 MaxDP=1.67D-02              OVMax= 3.56D-02

 Cycle   2  Pass 0  IDiag  1:
 RMSU=  4.13D-04    CP:  1.00D+00
 E= -1682.36625359688     Delta-E=       -0.024747090143 Rises=F Damp=F
 DIIS: error= 6.00D-04 at cycle   2 NSaved=   2.
 NSaved= 2 IEnMin= 2 EnMin= -1682.36625359688     IErMin= 2 ErrMin= 6.00D-04
 ErrMax= 6.00D-04  0.00D+00 EMaxC= 1.00D-01 BMatC= 1.10D-03 BMatP= 4.39D-02
 IDIUse=3 WtCom= 9.94D-01 WtEn= 6.00D-03
 Coeff-Com: -0.560D-01 0.106D+01
 Coeff-En:   0.000D+00 0.100D+01
 Coeff:     -0.557D-01 0.106D+01
 Gap=     0.096 Goal=   None    Shift=    0.000
 Gap=     0.024 Goal=   None    Shift=    0.000
 RMSDP=8.34D-05 MaxDP=5.12D-03 DE=-2.47D-02 OVMax= 8.79D-03

 Cycle   3  Pass 0  IDiag  1:
 RMSU=  7.97D-05    CP:  1.00D+00  1.06D+00
 E= -1682.36650213740     Delta-E=       -0.000248540518 Rises=F Damp=F
 DIIS: error= 4.27D-04 at cycle   3 NSaved=   3.
 NSaved= 3 IEnMin= 3 EnMin= -1682.36650213740     IErMin= 3 ErrMin= 4.27D-04
 ErrMax= 4.27D-04  0.00D+00 EMaxC= 1.00D-01 BMatC= 1.00D-03 BMatP= 1.10D-03
 IDIUse=3 WtCom= 9.96D-01 WtEn= 4.27D-03
 Coeff-Com: -0.427D-01 0.541D+00 0.502D+00
 Coeff-En:   0.000D+00 0.155D+00 0.845D+00
 Coeff:     -0.425D-01 0.539D+00 0.503D+00
 Gap=     0.097 Goal=   None    Shift=    0.000
 Gap=     0.026 Goal=   None    Shift=    0.000
 RMSDP=4.95D-05 MaxDP=3.12D-03 DE=-2.49D-04 OVMax= 9.11D-03

 Cycle   4  Pass 0  IDiag  1:
 RMSU=  3.21D-05    CP:  1.00D+00  1.08D+00  5.44D-01
 E= -1682.36671911605     Delta-E=       -0.000216978655 Rises=F Damp=F
 DIIS: error= 2.57D-04 at cycle   4 NSaved=   4.
 NSaved= 4 IEnMin= 4 EnMin= -1682.36671911605     IErMin= 4 ErrMin= 2.57D-04
 ErrMax= 2.57D-04  0.00D+00 EMaxC= 1.00D-01 BMatC= 2.03D-04 BMatP= 1.00D-03
 IDIUse=3 WtCom= 9.97D-01 WtEn= 2.57D-03
 Coeff-Com: -0.200D-01 0.224D+00 0.329D+00 0.467D+00
 Coeff-En:   0.000D+00 0.000D+00 0.140D+00 0.860D+00
 Coeff:     -0.200D-01 0.224D+00 0.329D+00 0.468D+00
 Gap=     0.096 Goal=   None    Shift=    0.000
 Gap=     0.026 Goal=   None    Shift=    0.000
 RMSDP=2.02D-05 MaxDP=1.94D-03 DE=-2.17D-04 OVMax= 3.30D-03

 Cycle   5  Pass 0  IDiag  1:
 RMSU=  1.65D-05    CP:  1.00D+00  1.08D+00  6.17D-01  6.85D-01
 E= -1682.36675866579     Delta-E=       -0.000039549739 Rises=F Damp=F
 DIIS: error= 1.41D-04 at cycle   5 NSaved=   5.
 NSaved= 5 IEnMin= 5 EnMin= -1682.36675866579     IErMin= 5 ErrMin= 1.41D-04
 ErrMax= 1.41D-04  0.00D+00 EMaxC= 1.00D-01 BMatC= 5.50D-05 BMatP= 2.03D-04
 IDIUse=3 WtCom= 9.99D-01 WtEn= 1.41D-03
 Coeff-Com: -0.762D-02 0.731D-01 0.168D+00 0.356D+00 0.410D+00
 Coeff-En:   0.000D+00 0.000D+00 0.000D+00 0.216D+00 0.784D+00
 Coeff:     -0.761D-02 0.730D-01 0.168D+00 0.356D+00 0.411D+00
 Gap=     0.096 Goal=   None    Shift=    0.000
 Gap=     0.025 Goal=   None    Shift=    0.000
 RMSDP=9.86D-06 MaxDP=7.88D-04 DE=-3.95D-05 OVMax= 2.95D-03

 Initial convergence to 1.0D-05 achieved.  Increase integral accuracy.
 Cycle   6  Pass 1  IDiag  1:
 E= -1682.36680537238     Delta-E=       -0.000046706587 Rises=F Damp=F
 DIIS: error= 7.80D-05 at cycle   1 NSaved=   1.
 NSaved= 1 IEnMin= 1 EnMin= -1682.36680537238     IErMin= 1 ErrMin= 7.80D-05
 ErrMax= 7.80D-05  0.00D+00 EMaxC= 1.00D-01 BMatC= 1.57D-05 BMatP= 1.57D-05
 IDIUse=1 WtCom= 1.00D+00 WtEn= 0.00D+00
 Coeff-Com:  0.100D+01
 Coeff:      0.100D+01
 Gap=     0.096 Goal=   None    Shift=    0.000
 Gap=     0.026 Goal=   None    Shift=    0.000
 RMSDP=9.86D-06 MaxDP=7.88D-04 DE=-4.67D-05 OVMax= 3.10D-03

 Cycle   7  Pass 1  IDiag  1:
 RMSU=  6.05D-05    CP:  1.00D+00
 E= -1682.36679970445     Delta-E=        0.000005667927 Rises=F Damp=F
 DIIS: error= 1.18D-04 at cycle   2 NSaved=   2.
 NSaved= 2 IEnMin= 1 EnMin= -1682.36680537238     IErMin= 1 ErrMin= 7.80D-05
 ErrMax= 1.18D-04  0.00D+00 EMaxC= 1.00D-01 BMatC= 3.85D-05 BMatP= 1.57D-05
 IDIUse=3 WtCom= 4.79D-01 WtEn= 5.21D-01
 Coeff-Com:  0.641D+00 0.359D+00
 Coeff-En:   0.708D+00 0.292D+00
 Coeff:      0.676D+00 0.324D+00
 Gap=     0.096 Goal=   None    Shift=    0.000
 Gap=     0.025 Goal=   None    Shift=    0.000
 RMSDP=8.53D-06 MaxDP=6.93D-04 DE= 5.67D-06 OVMax= 2.83D-03

 Cycle   8  Pass 1  IDiag  1:
 RMSU=  8.46D-06    CP:  1.00D+00  9.82D-01
 E= -1682.36680920404     Delta-E=       -0.000009499589 Rises=F Damp=F
 DIIS: error= 4.07D-05 at cycle   3 NSaved=   3.
 NSaved= 3 IEnMin= 3 EnMin= -1682.36680920404     IErMin= 3 ErrMin= 4.07D-05
 ErrMax= 4.07D-05  0.00D+00 EMaxC= 1.00D-01 BMatC= 3.81D-06 BMatP= 1.57D-05
 IDIUse=1 WtCom= 1.00D+00 WtEn= 0.00D+00
 Coeff-Com:  0.875D-01 0.226D+00 0.687D+00
 Coeff:      0.875D-01 0.226D+00 0.687D+00
 Gap=     0.096 Goal=   None    Shift=    0.000
 Gap=     0.025 Goal=   None    Shift=    0.000
 RMSDP=3.26D-06 MaxDP=2.86D-04 DE=-9.50D-06 OVMax= 7.42D-04

 Cycle   9  Pass 1  IDiag  1:
 RMSU=  2.44D-06    CP:  1.00D+00  9.95D-01  7.63D-01
 E= -1682.36681016661     Delta-E=       -0.000000962572 Rises=F Damp=F
 DIIS: error= 2.46D-05 at cycle   4 NSaved=   4.
 NSaved= 4 IEnMin= 4 EnMin= -1682.36681016661     IErMin= 4 ErrMin= 2.46D-05
 ErrMax= 2.46D-05  0.00D+00 EMaxC= 1.00D-01 BMatC= 1.29D-06 BMatP= 3.81D-06
 IDIUse=1 WtCom= 1.00D+00 WtEn= 0.00D+00
 Coeff-Com: -0.102D-01 0.113D+00 0.462D+00 0.436D+00
 Coeff:     -0.102D-01 0.113D+00 0.462D+00 0.436D+00
 Gap=     0.096 Goal=   None    Shift=    0.000
 Gap=     0.025 Goal=   None    Shift=    0.000
 RMSDP=1.48D-06 MaxDP=1.15D-04 DE=-9.63D-07 OVMax= 4.69D-04

 Cycle  10  Pass 1  IDiag  1:
 RMSU=  1.29D-06    CP:  1.00D+00  9.96D-01  8.00D-01  7.40D-01
 E= -1682.36681055645     Delta-E=       -0.000000389840 Rises=F Damp=F
 DIIS: error= 5.44D-06 at cycle   5 NSaved=   5.
 NSaved= 5 IEnMin= 5 EnMin= -1682.36681055645     IErMin= 5 ErrMin= 5.44D-06
 ErrMax= 5.44D-06  0.00D+00 EMaxC= 1.00D-01 BMatC= 1.01D-07 BMatP= 1.29D-06
 IDIUse=1 WtCom= 1.00D+00 WtEn= 0.00D+00
 Coeff-Com: -0.165D-01 0.982D-02 0.809D-01 0.177D+00 0.749D+00
 Coeff:     -0.165D-01 0.982D-02 0.809D-01 0.177D+00 0.749D+00
 Gap=     0.096 Goal=   None    Shift=    0.000
 Gap=     0.025 Goal=   None    Shift=    0.000
 RMSDP=8.52D-07 MaxDP=5.11D-05 DE=-3.90D-07 OVMax= 2.82D-04

 Cycle  11  Pass 1  IDiag  1:
 RMSU=  6.20D-07    CP:  1.00D+00  9.97D-01  7.96D-01  9.26D-01  1.28D+00
 E= -1682.36681064424     Delta-E=       -0.000000087783 Rises=F Damp=F
 DIIS: error= 3.84D-06 at cycle   6 NSaved=   6.
 NSaved= 6 IEnMin= 6 EnMin= -1682.36681064424     IErMin= 6 ErrMin= 3.84D-06
 ErrMax= 3.84D-06  0.00D+00 EMaxC= 1.00D-01 BMatC= 5.78D-08 BMatP= 1.01D-07
 IDIUse=1 WtCom= 1.00D+00 WtEn= 0.00D+00
 Coeff-Com: -0.523D-02-0.688D-01-0.246D+00-0.147D+00 0.562D+00 0.905D+00
 Coeff:     -0.523D-02-0.688D-01-0.246D+00-0.147D+00 0.562D+00 0.905D+00
 Gap=     0.095 Goal=   None    Shift=    0.000
 Gap=     0.025 Goal=   None    Shift=    0.000
 RMSDP=1.07D-06 MaxDP=7.09D-05 DE=-8.78D-08 OVMax= 4.05D-04

 Cycle  12  Pass 1  IDiag  1:
 RMSU=  5.19D-07    CP:  1.00D+00  9.98D-01  8.13D-01  1.13D+00  1.88D+00
                    CP:  9.96D-01
 E= -1682.36681070620     Delta-E=       -0.000000061968 Rises=F Damp=F
 DIIS: error= 4.56D-06 at cycle   7 NSaved=   7.
 NSaved= 7 IEnMin= 7 EnMin= -1682.36681070620     IErMin= 6 ErrMin= 3.84D-06
 ErrMax= 4.56D-06  0.00D+00 EMaxC= 1.00D-01 BMatC= 6.16D-08 BMatP= 5.78D-08
 IDIUse=1 WtCom= 1.00D+00 WtEn= 0.00D+00
 Coeff-Com:  0.215D-02-0.705D-01-0.270D+00-0.220D+00 0.191D+00 0.861D+00
 Coeff-Com:  0.507D+00
 Coeff:      0.215D-02-0.705D-01-0.270D+00-0.220D+00 0.191D+00 0.861D+00
 Coeff:      0.507D+00
 Gap=     0.095 Goal=   None    Shift=    0.000
 Gap=     0.025 Goal=   None    Shift=    0.000
 RMSDP=6.42D-07 MaxDP=3.96D-05 DE=-6.20D-08 OVMax= 1.78D-04

 Cycle  13  Pass 1  IDiag  1:
 RMSU=  2.56D-07    CP:  1.00D+00  9.98D-01  8.08D-01  1.26D+00  2.16D+00
                    CP:  1.41D+00  6.34D-01
 E= -1682.36681073646     Delta-E=       -0.000000030253 Rises=F Damp=F
 DIIS: error= 1.43D-06 at cycle   8 NSaved=   8.
 NSaved= 8 IEnMin= 8 EnMin= -1682.36681073646     IErMin= 8 ErrMin= 1.43D-06
 ErrMax= 1.43D-06  0.00D+00 EMaxC= 1.00D-01 BMatC= 6.04D-09 BMatP= 5.78D-08
 IDIUse=1 WtCom= 1.00D+00 WtEn= 0.00D+00
 Coeff-Com:  0.206D-02-0.389D-01-0.150D+00-0.130D+00 0.779D-01 0.467D+00
 Coeff-Com:  0.338D+00 0.434D+00
 Coeff:      0.206D-02-0.389D-01-0.150D+00-0.130D+00 0.779D-01 0.467D+00
 Coeff:      0.338D+00 0.434D+00
 Gap=     0.095 Goal=   None    Shift=    0.000
 Gap=     0.025 Goal=   None    Shift=    0.000
 RMSDP=1.10D-07 MaxDP=7.22D-06 DE=-3.03D-08 OVMax= 2.78D-05

 Cycle  14  Pass 1  IDiag  1:
 RMSU=  9.55D-08    CP:  1.00D+00  9.98D-01  8.10D-01  1.27D+00  2.18D+00
                    CP:  1.41D+00  7.21D-01  9.71D-01
 E= -1682.36681073863     Delta-E=       -0.000000002176 Rises=F Damp=F
 DIIS: error= 5.11D-07 at cycle   9 NSaved=   9.
 NSaved= 9 IEnMin= 9 EnMin= -1682.36681073863     IErMin= 9 ErrMin= 5.11D-07
 ErrMax= 5.11D-07  0.00D+00 EMaxC= 1.00D-01 BMatC= 7.17D-10 BMatP= 6.04D-09
 IDIUse=1 WtCom= 1.00D+00 WtEn= 0.00D+00
 Coeff-Com:  0.142D-03 0.729D-02 0.297D-01 0.155D-01-0.206D-01-0.112D+00
 Coeff-Com: -0.214D-01 0.142D+00 0.960D+00
 Coeff:      0.142D-03 0.729D-02 0.297D-01 0.155D-01-0.206D-01-0.112D+00
 Coeff:     -0.214D-01 0.142D+00 0.960D+00
 Gap=     0.095 Goal=   None    Shift=    0.000
 Gap=     0.025 Goal=   None    Shift=    0.000
 RMSDP=1.13D-07 MaxDP=6.65D-06 DE=-2.18D-09 OVMax= 5.68D-05

 Cycle  15  Pass 1  IDiag  1:
 RMSU=  5.15D-08    CP:  1.00D+00  9.98D-01  8.10D-01  1.26D+00  2.16D+00
                    CP:  1.42D+00  7.98D-01  1.30D+00  1.26D+00
 E= -1682.36681073939     Delta-E=       -0.000000000753 Rises=F Damp=F
 DIIS: error= 3.00D-07 at cycle  10 NSaved=  10.
 NSaved=10 IEnMin=10 EnMin= -1682.36681073939     IErMin=10 ErrMin= 3.00D-07
 ErrMax= 3.00D-07  0.00D+00 EMaxC= 1.00D-01 BMatC= 3.64D-10 BMatP= 7.17D-10
 IDIUse=1 WtCom= 1.00D+00 WtEn= 0.00D+00
 Coeff-Com: -0.650D-03 0.179D-01 0.704D-01 0.530D-01-0.359D-01-0.237D+00
 Coeff-Com: -0.126D+00-0.953D-01 0.601D+00 0.752D+00
 Coeff:     -0.650D-03 0.179D-01 0.704D-01 0.530D-01-0.359D-01-0.237D+00
 Coeff:     -0.126D+00-0.953D-01 0.601D+00 0.752D+00
 Gap=     0.095 Goal=   None    Shift=    0.000
 Gap=     0.025 Goal=   None    Shift=    0.000
 RMSDP=7.70D-08 MaxDP=4.98D-06 DE=-7.53D-10 OVMax= 4.20D-05

 Cycle  16  Pass 1  IDiag  1:
 RMSU=  2.81D-08    CP:  1.00D+00  9.98D-01  8.11D-01  1.26D+00  2.15D+00
                    CP:  1.43D+00  8.48D-01  1.50D+00  1.64D+00  1.04D+00
 E= -1682.36681073975     Delta-E=       -0.000000000361 Rises=F Damp=F
 DIIS: error= 1.56D-07 at cycle  11 NSaved=  11.
 NSaved=11 IEnMin=11 EnMin= -1682.36681073975     IErMin=11 ErrMin= 1.56D-07
 ErrMax= 1.56D-07  0.00D+00 EMaxC= 1.00D-01 BMatC= 9.80D-11 BMatP= 3.64D-10
 IDIUse=1 WtCom= 1.00D+00 WtEn= 0.00D+00
 Coeff-Com: -0.451D-03 0.106D-01 0.416D-01 0.325D-01-0.194D-01-0.137D+00
 Coeff-Com: -0.768D-01-0.925D-01 0.218D+00 0.477D+00 0.546D+00
 Coeff:     -0.451D-03 0.106D-01 0.416D-01 0.325D-01-0.194D-01-0.137D+00
 Coeff:     -0.768D-01-0.925D-01 0.218D+00 0.477D+00 0.546D+00
 Gap=     0.095 Goal=   None    Shift=    0.000
 Gap=     0.025 Goal=   None    Shift=    0.000
 RMSDP=2.27D-08 MaxDP=1.67D-06 DE=-3.61D-10 OVMax= 5.76D-06

 Cycle  17  Pass 1  IDiag  1:
 RMSU=  1.47D-08    CP:  1.00D+00  9.98D-01  8.11D-01  1.25D+00  2.14D+00
                    CP:  1.42D+00  8.61D-01  1.54D+00  1.71D+00  1.15D+00
                    CP:  8.13D-01
 E= -1682.36681073975     Delta-E=       -0.000000000005 Rises=F Damp=F
 DIIS: error= 6.71D-08 at cycle  12 NSaved=  12.
 NSaved=12 IEnMin=12 EnMin= -1682.36681073975     IErMin=12 ErrMin= 6.71D-08
 ErrMax= 6.71D-08  0.00D+00 EMaxC= 1.00D-01 BMatC= 1.82D-11 BMatP= 9.80D-11
 IDIUse=1 WtCom= 1.00D+00 WtEn= 0.00D+00
 Coeff-Com: -0.136D-04-0.575D-03-0.220D-02-0.129D-02 0.958D-03 0.810D-02
 Coeff-Com:  0.475D-02-0.118D-01-0.787D-01-0.459D-03 0.291D+00 0.790D+00
 Coeff:     -0.136D-04-0.575D-03-0.220D-02-0.129D-02 0.958D-03 0.810D-02
 Coeff:      0.475D-02-0.118D-01-0.787D-01-0.459D-03 0.291D+00 0.790D+00
 Gap=     0.095 Goal=   None    Shift=    0.000
 Gap=     0.025 Goal=   None    Shift=    0.000
 RMSDP=1.15D-08 MaxDP=1.35D-06 DE=-4.55D-12 OVMax= 2.63D-06

 Cycle  18  Pass 1  IDiag  1:
 RMSU=  7.88D-09    CP:  1.00D+00  9.98D-01  8.11D-01  1.25D+00  2.14D+00
                    CP:  1.43D+00  8.66D-01  1.55D+00  1.74D+00  1.21D+00
                    CP:  1.02D+00  1.09D+00
 E= -1682.36681073975     Delta-E=        0.000000000004 Rises=F Damp=F
 DIIS: error= 4.73D-08 at cycle  13 NSaved=  13.
 NSaved=13 IEnMin=12 EnMin= -1682.36681073975     IErMin=13 ErrMin= 4.73D-08
 ErrMax= 4.73D-08  0.00D+00 EMaxC= 1.00D-01 BMatC= 9.31D-12 BMatP= 1.82D-11
 IDIUse=1 WtCom= 1.00D+00 WtEn= 0.00D+00
 Coeff-Com:  0.171D-03-0.471D-02-0.184D-01-0.140D-01 0.807D-02 0.611D-01
 Coeff-Com:  0.347D-01 0.300D-01-0.146D+00-0.188D+00 0.199D-01 0.572D+00
 Coeff-Com:  0.645D+00
 Coeff:      0.171D-03-0.471D-02-0.184D-01-0.140D-01 0.807D-02 0.611D-01
 Coeff:      0.347D-01 0.300D-01-0.146D+00-0.188D+00 0.199D-01 0.572D+00
 Coeff:      0.645D+00
 Gap=     0.095 Goal=   None    Shift=    0.000
 Gap=     0.025 Goal=   None    Shift=    0.000
 RMSDP=7.77D-09 MaxDP=8.49D-07 DE= 3.64D-12 OVMax= 2.09D-06

 SCF Done:  E(UB3LYP) =  -1682.36681074     A.U. after   18 cycles
            NFock= 18  Conv=0.78D-08     -V/T= 2.0082
 <Sx>= 0.0000 <Sy>= 0.0000 <Sz>= 0.5000 <S**2>= 0.7614 S= 0.5057
 <L.S>= 0.000000000000E+00
 KE= 1.668674042693D+03 PE=-1.006543384595D+04 EE= 3.629517201138D+03
 Annihilation of the first spin contaminant:
 S**2 before annihilation     0.7614,   after     0.7501
 Leave Link  502 at Thu Mar 14 11:33:11 2024, MaxMem= 32212254720 cpu:            1384.5 elap:              46.2
 (Enter /home/<user>/g16/l701.exe)
 ... and contract with generalized density number  0.
 Compute integral first derivatives.
 Leave Link  701 at Thu Mar 14 11:33:12 2024, MaxMem= 32212254720 cpu:               5.0 elap:               0.2
 (Enter /home/<user>/g16/l702.exe)
 L702 exits ... SP integral derivatives will be done elsewhere.
 Leave Link  702 at Thu Mar 14 11:33:12 2024, MaxMem= 32212254720 cpu:               0.7 elap:               0.0
 (Enter /home/<user>/g16/l703.exe)
 Integral derivatives from FoFJK, PRISM(SPDF).
 Compute integral first derivatives, UseDBF=F ICtDFT=           0.
 Calling FoFJK, ICntrl=      2127 FMM=F ISym2X=0 I1Cent= 0 IOpClX= 1 NMat=1 NMatS=1 NMatT=0.
 FoFJK:  IHMeth= 1 ICntrl=    2127 DoSepK=F KAlg= 0 I1Cent=           0 FoldK=F
 IRaf=         0 NMat=       1 IRICut=       1 DoRegI=T DoRafI=F ISym2E= 0 IDoP0=0 IntGTp=1.
 FoFCou: FMM=F IPFlag=           0 FMFlag=      100000 FMFlg1=         800
         NFxFlg=           0 DoJE=F BraDBF=F KetDBF=F FulRan=T
         wScrn=  0.000000 ICntrl=      2127 IOpCl=  1 I1Cent=           0 NGrid=           0
         NMat0=    1 NMatS0=      1 NMatT0=    0 NMatD0=    1 NMtDS0=    0 NMtDT0=    0
 Symmetry not used in FoFCou.
 Leave Link  703 at Thu Mar 14 11:33:19 2024, MaxMem= 32212254720 cpu:             203.7 elap:               6.8
 (Enter /home/<user>/g16/l716.exe)
 Dipole        =-1.13293941D+00-1.38508586D-01-1.49033167D-01
 ***** Axes restored to original set *****
 -------------------------------------------------------------------
 Center     Atomic                   Forces (Hartrees/Bohr)
 Number     Number              X              Y              Z
 -------------------------------------------------------------------
      1        6          -0.004661821    0.002831368    0.000030909
      2        6           0.010001934   -0.001751232   -0.000698206
      3        6          -0.004878386   -0.000794228   -0.001195720
      4        6           0.004733325   -0.001856663    0.000750041
      5        6          -0.005818079   -0.000489121    0.000216742
      6        6           0.002780220    0.000413019    0.000180320
      7        1          -0.000412470   -0.001473432    0.000003638
      8        1          -0.000367198    0.000581466    0.000061615
      9        1          -0.000632512   -0.000515978   -0.000059094
     10        6          -0.000605215    0.002135237   -0.000777634
     11        6          -0.001032172   -0.000653003    0.000202484
     12        6          -0.000969158    0.000572811   -0.000148252
     13        6           0.000131265   -0.000810136    0.000227198
     14        6           0.000598838    0.000446236   -0.000145463
     15        6          -0.001532152    0.000177463    0.000017163
     16        6           0.004565049   -0.000331528    0.000113911
     17        1          -0.000436938    0.000162069   -0.000045544
     18        1          -0.000214687    0.000123981   -0.000031051
     19        1          -0.000425157   -0.000513738    0.000149471
     20        1           0.000456585   -0.000297397    0.000056438
     21        6           0.000050486    0.000337364    0.000084932
     22        1          -0.000077073   -0.000058616   -0.000075515
     23        1          -0.000020198   -0.000059210   -0.000146245
     24        1          -0.000026429   -0.000053658   -0.000213009
     25        6          -0.000011345    0.000144962   -0.000193902
     26        1          -0.000026284   -0.000025974    0.000144327
     27        1          -0.000048664   -0.000042176    0.000088932
     28        1          -0.000008524    0.000071940    0.000232893
     29        6          -0.010160012    0.004508358    0.001305465
     30        6           0.001882124    0.001300698   -0.001381948
     31        6           0.008532461   -0.004441638    0.000609043
     32        6          -0.001704389    0.001289655   -0.000838347
     33        6          -0.008862898   -0.002339444    0.000735711
     34        1           0.000241510    0.000820776   -0.000075688
     35        6           0.008944885    0.001898288    0.000992740
     36        1           0.000221918    0.000798649   -0.000135371
     37        7           0.000830975   -0.000288388    0.000332800
     38        7          -0.000334077    0.000347208    0.000095302
     39       16           0.000662942   -0.001553031    0.000328602
     40        6          -0.006825819    0.001070122   -0.000610871
     41        6           0.002659476    0.000962340    0.000416249
     42        6           0.002637834   -0.001675150   -0.000935028
     43        6          -0.001171700    0.000007253    0.000356452
     44        1           0.000106233   -0.001084188   -0.000010621
     45        6          -0.001706453   -0.000157362    0.000204623
     46        1           0.000464452    0.000463406    0.000023075
     47        6           0.001548706    0.000154261   -0.000209898
     48        1           0.000372121   -0.000420184   -0.000012385
     49        1           0.000570277    0.000293775   -0.000017346
     50        6          -0.001363563   -0.000755974   -0.001434737
     51        1           0.000423053    0.000146063    0.000482144
     52        1           0.000010522    0.000189586    0.000468808
     53        6           0.002206715   -0.000342907    0.001169835
     54        1          -0.000358714    0.000155163   -0.000541617
     55        1          -0.000283003    0.000252002   -0.000107021
     56        7          -0.000479072    0.001026889   -0.000298108
     57        1          -0.000084390   -0.000265416    0.000619575
     58        1          -0.000095354   -0.000632636   -0.000362814
 -------------------------------------------------------------------
 Cartesian Forces:  Max     0.010160012 RMS     0.002092092
 Leave Link  716 at Thu Mar 14 11:33:19 2024, MaxMem= 32212254720 cpu:               0.7 elap:               0.0
 (Enter /home/<user>/g16/l103.exe)

 GradGradGradGradGradGradGradGradGradGradGradGradGradGradGradGradGradGrad
 Berny optimization.
 Using GEDIIS/GDIIS optimizer.
 FormGI is forming the generalized inverse of G from B-inverse, IUseBI=4.
 Internal  Forces:  Max     0.005481567 RMS     0.000946646
 Search for a local minimum.
 Step number   2 out of a maximum of  346
 All quantities printed in internal units (Hartrees-Bohrs-Radians)
 RMS Force = .94665D-03 SwitMx=.10000D-02 MixMth= 2
 Mixed Optimization -- En-DIIS/RFO-DIIS
 Update second derivatives using D2CorX and points    1    2
 DE= -4.58D-03 DEPred=-4.65D-03 R= 9.85D-01
 TightC=F SS=  1.41D+00  RLast= 3.54D-01 DXNew= 5.0454D-01 1.0624D+00
 Trust test= 9.85D-01 RLast= 3.54D-01 DXMaxT set to 5.05D-01
 ITU=  1  0
 Use linear search instead of GDIIS.
     Eigenvalues ---    0.00230   0.00230   0.00251   0.00611   0.00756
     Eigenvalues ---    0.00807   0.01027   0.01110   0.01247   0.01447
     Eigenvalues ---    0.01471   0.01607   0.01614   0.01639   0.01642
     Eigenvalues ---    0.01647   0.01697   0.01717   0.01737   0.01760
     Eigenvalues ---    0.01887   0.01898   0.02003   0.02026   0.02039
     Eigenvalues ---    0.02066   0.02081   0.02082   0.02088   0.02094
     Eigenvalues ---    0.02112   0.02115   0.02119   0.02121   0.02123
     Eigenvalues ---    0.02134   0.02143   0.02145   0.02147   0.02156
     Eigenvalues ---    0.02159   0.02161   0.02191   0.02304   0.04064
     Eigenvalues ---    0.04310   0.04317   0.04335   0.05386   0.05390
     Eigenvalues ---    0.05428   0.05528   0.05530   0.05579   0.06083
     Eigenvalues ---    0.08115   0.08866   0.09277   0.11505   0.12533
     Eigenvalues ---    0.12812   0.15912   0.15979   0.15985   0.15990
     Eigenvalues ---    0.15993   0.15997   0.15999   0.16000   0.16000
     Eigenvalues ---    0.16000   0.16000   0.16000   0.16000   0.16000
     Eigenvalues ---    0.16000   0.16000   0.16000   0.16000   0.16000
     Eigenvalues ---    0.16000   0.16098   0.19109   0.21726   0.21955
     Eigenvalues ---    0.21969   0.22003   0.22420   0.22454   0.22536
     Eigenvalues ---    0.22963   0.23616   0.23865   0.24183   0.24553
     Eigenvalues ---    0.24725   0.24933   0.24971   0.24987   0.24990
     Eigenvalues ---    0.24994   0.24996   0.24999   0.25000   0.26447
     Eigenvalues ---    0.28054   0.28076   0.28382   0.28723   0.28994
     Eigenvalues ---    0.31240   0.32165   0.33129   0.33787   0.34027
     Eigenvalues ---    0.34090   0.34100   0.34104   0.34106   0.34132
     Eigenvalues ---    0.34276   0.34288   0.34562   0.34628   0.35031
     Eigenvalues ---    0.35047   0.35071   0.35085   0.35151   0.35158
     Eigenvalues ---    0.35174   0.35186   0.35196   0.35247   0.35284
     Eigenvalues ---    0.35409   0.35584   0.36047   0.36220   0.37895
     Eigenvalues ---    0.38000   0.38355   0.40188   0.40817   0.41555
     Eigenvalues ---    0.41633   0.41735   0.42143   0.42357   0.42585
     Eigenvalues ---    0.43028   0.44342   0.44500   0.44635   0.44862
     Eigenvalues ---    0.44949   0.45199   0.45751   0.45822   0.45967
     Eigenvalues ---    0.46133   0.46733   0.46984   0.47195   0.47332
     Eigenvalues ---    0.48662   0.54466   0.56866
 RFO step:  Lambda=-1.49813170D-03 EMin= 2.29999834D-03
 Quartic linear search produced a step of  0.10016.
 Iteration  1 RMS(Cart)=  0.04644366 RMS(Int)=  0.00037300
 Iteration  2 RMS(Cart)=  0.00217072 RMS(Int)=  0.00001873
 Iteration  3 RMS(Cart)=  0.00000164 RMS(Int)=  0.00001873
 Iteration  4 RMS(Cart)=  0.00000000 RMS(Int)=  0.00001873
 ITry= 1 IFail=0 DXMaxC= 2.54D-01 DCOld= 1.00D+10 DXMaxT= 5.05D-01 DXLimC= 3.00D+00 Rises=F
 Variable       Old X    -DE/DX   Delta X   Delta X   Delta X     New X
                                 (Linear)    (Quad)   (Total)
    R1        2.68776   0.00334   0.00247   0.00993   0.01241   2.70017
    R2        2.61238  -0.00045  -0.00204  -0.00199  -0.00403   2.60835
    R3        2.04617  -0.00140  -0.00008  -0.00433  -0.00441   2.04175
    R4        2.68464   0.00347   0.00176   0.00981   0.01158   2.69623
    R5        2.75602  -0.00127  -0.00404  -0.00611  -0.01016   2.74586
    R6        2.60236  -0.00107  -0.00173  -0.00349  -0.00522   2.59714
    R7        2.05236  -0.00064  -0.00019  -0.00209  -0.00228   2.05008
    R8        2.68972   0.00038   0.00275   0.00224   0.00498   2.69469
    R9        2.88521   0.00058  -0.00044   0.00104   0.00061   2.88582
   R10        2.65737   0.00071   0.00191   0.00244   0.00435   2.66172
   R11        2.73519  -0.00234  -0.00362  -0.00806  -0.01168   2.72351
   R12        2.05188  -0.00017  -0.00023  -0.00063  -0.00086   2.05101
   R13        2.88570   0.00015  -0.00035  -0.00047  -0.00082   2.88488
   R14        2.92317  -0.00039   0.00029  -0.00135  -0.00107   2.92210
   R15        2.92255  -0.00029   0.00026  -0.00099  -0.00073   2.92183
   R16        2.61983   0.00115  -0.00075   0.00216   0.00141   2.62124
   R17        2.68301  -0.00046   0.00189   0.00007   0.00195   2.68496
   R18        2.64992  -0.00085   0.00041  -0.00184  -0.00143   2.64849
   R19        2.05298  -0.00007  -0.00024  -0.00034  -0.00058   2.05240
   R20        2.65782  -0.00018   0.00141   0.00038   0.00180   2.65962
   R21        2.05207   0.00016  -0.00016   0.00042   0.00026   2.05233
   R22        2.62459   0.00011  -0.00143  -0.00043  -0.00186   2.62274
   R23        2.05135  -0.00003  -0.00024  -0.00023  -0.00047   2.05088
   R24        2.65403   0.00095   0.00146   0.00306   0.00452   2.65854
   R25        2.05281  -0.00021  -0.00015  -0.00071  -0.00086   2.05194
   R26        2.06904   0.00008  -0.00025   0.00011  -0.00014   2.06890
   R27        2.07029  -0.00001  -0.00013  -0.00011  -0.00024   2.07005
   R28        2.06856  -0.00018   0.00001  -0.00055  -0.00054   2.06802
   R29        2.07041   0.00001  -0.00014  -0.00005  -0.00019   2.07022
   R30        2.06902   0.00008  -0.00025   0.00012  -0.00013   2.06889
   R31        2.06876  -0.00020   0.00001  -0.00063  -0.00062   2.06814
   R32        2.72744   0.00344   0.00058   0.01015   0.01075   2.73819
   R33        2.64048   0.00478   0.00291   0.01210   0.01502   2.65549
   R34        2.74087   0.00228  -0.00176   0.00667   0.00493   2.74580
   R35        2.52320  -0.00059  -0.00057  -0.00128  -0.00184   2.52136
   R36        2.65759  -0.00463  -0.00279  -0.01387  -0.01667   2.64092
   R37        2.05111  -0.00077  -0.00010  -0.00241  -0.00252   2.04860
   R38        2.72841   0.00163   0.00080   0.00503   0.00582   2.73423
   R39        2.52374  -0.00052  -0.00055  -0.00124  -0.00178   2.52195
   R40        2.63915   0.00368   0.00287   0.00940   0.01226   2.65141
   R41        2.05041  -0.00060  -0.00018  -0.00195  -0.00213   2.04828
   R42        2.76367  -0.00124  -0.00336  -0.00567  -0.00904   2.75464
   R43        3.10388  -0.00018   0.00012  -0.00057  -0.00046   3.10343
   R44        3.10182  -0.00139  -0.00009  -0.00378  -0.00389   3.09793
   R45        2.67183   0.00177   0.00151   0.00534   0.00685   2.67869
   R46        2.67128   0.00237   0.00135   0.00670   0.00805   2.67933
   R47        2.62020   0.00013  -0.00110  -0.00025  -0.00135   2.61885
   R48        2.04718  -0.00102  -0.00004  -0.00312  -0.00316   2.04402
   R49        2.61800  -0.00050  -0.00121  -0.00182  -0.00303   2.61497
   R50        2.05247  -0.00061  -0.00007  -0.00193  -0.00200   2.05047
   R51        2.65843  -0.00024   0.00105  -0.00019   0.00086   2.65928
   R52        2.05366  -0.00008  -0.00026  -0.00037  -0.00063   2.05303
   R53        2.66123  -0.00016   0.00132   0.00011   0.00143   2.66266
   R54        2.05368  -0.00006  -0.00023  -0.00032  -0.00055   2.05313
   R55        2.84485   0.00001  -0.00119  -0.00057  -0.00176   2.84309
   R56        2.06997  -0.00017  -0.00011  -0.00060  -0.00071   2.06927
   R57        2.07497  -0.00023  -0.00020  -0.00083  -0.00103   2.07394
   R58        2.91889   0.00086   0.00107   0.00382   0.00489   2.92377
   R59        2.08756   0.00008  -0.00007   0.00023   0.00016   2.08772
   R60        2.07286  -0.00010   0.00000  -0.00033  -0.00032   2.07254
   R61        2.76089  -0.00067  -0.00107  -0.00257  -0.00364   2.75725
   R62        1.92720  -0.00059  -0.00000  -0.00145  -0.00145   1.92574
   R63        1.92474  -0.00044  -0.00006  -0.00110  -0.00116   1.92358
    A1        2.11074   0.00127  -0.00061   0.00630   0.00568   2.11642
    A2        2.08668  -0.00111   0.00055  -0.00625  -0.00571   2.08097
    A3        2.08570  -0.00017   0.00005  -0.00014  -0.00010   2.08560
    A4        2.08546  -0.00386   0.00153  -0.01552  -0.01398   2.07148
    A5        2.11070   0.00320  -0.00131   0.01291   0.01158   2.12229
    A6        2.08680   0.00066  -0.00022   0.00248   0.00225   2.08904
    A7        2.09014   0.00202  -0.00089   0.00889   0.00797   2.09811
    A8        2.09108  -0.00092   0.00082  -0.00381  -0.00302   2.08807
    A9        2.10108  -0.00111   0.00002  -0.00554  -0.00555   2.09554
   A10        2.09513   0.00073  -0.00063   0.00253   0.00189   2.09702
   A11        2.24657   0.00102   0.00002   0.00653   0.00656   2.25313
   A12        1.94145  -0.00175   0.00061  -0.00906  -0.00844   1.93301
   A13        2.10828  -0.00134   0.00134  -0.00672  -0.00541   2.10287
   A14        1.89407   0.00109  -0.00013   0.00521   0.00508   1.89915
   A15        2.28083   0.00025  -0.00120   0.00152   0.00033   2.28116
   A16        2.07643   0.00117  -0.00075   0.00448   0.00371   2.08014
   A17        2.09106   0.00021   0.00014   0.00302   0.00317   2.09423
   A18        2.11569  -0.00138   0.00061  -0.00750  -0.00689   2.10880
   A19        1.75217   0.00097  -0.00128   0.00715   0.00587   1.75804
   A20        1.94561  -0.00036   0.00017  -0.00155  -0.00138   1.94423
   A21        1.94549  -0.00026   0.00007   0.00003   0.00009   1.94558
   A22        1.94590  -0.00035   0.00027  -0.00210  -0.00183   1.94406
   A23        1.94572  -0.00035   0.00014  -0.00146  -0.00132   1.94440
   A24        1.92374   0.00036   0.00050  -0.00148  -0.00098   1.92276
   A25        2.24610   0.00079  -0.00026   0.00478   0.00452   2.25063
   A26        1.94629  -0.00106   0.00099  -0.00635  -0.00536   1.94092
   A27        2.09080   0.00028  -0.00072   0.00156   0.00084   2.09163
   A28        2.07383   0.00027  -0.00064   0.00043  -0.00020   2.07363
   A29        2.11306   0.00034   0.00034   0.00300   0.00334   2.11640
   A30        2.09629  -0.00061   0.00030  -0.00344  -0.00314   2.09315
   A31        2.11753  -0.00022   0.00136  -0.00069   0.00067   2.11820
   A32        2.08244   0.00030  -0.00071   0.00163   0.00093   2.08337
   A33        2.08321  -0.00008  -0.00065  -0.00094  -0.00160   2.08162
   A34        2.10130   0.00014  -0.00030   0.00047   0.00017   2.10147
   A35        2.09219  -0.00077   0.00028  -0.00490  -0.00462   2.08757
   A36        2.08969   0.00063   0.00002   0.00443   0.00445   2.09415
   A37        2.06586   0.00042  -0.00089   0.00156   0.00067   2.06654
   A38        2.10140   0.00031   0.00016   0.00260   0.00276   2.10416
   A39        2.11592  -0.00073   0.00073  -0.00416  -0.00343   2.11249
   A40        1.89071   0.00075  -0.00019   0.00301   0.00281   1.89352
   A41        2.27543   0.00012  -0.00100   0.00033  -0.00066   2.27477
   A42        2.11705  -0.00088   0.00119  -0.00334  -0.00215   2.11490
   A43        1.92675  -0.00009  -0.00047  -0.00098  -0.00145   1.92530
   A44        1.93137  -0.00013  -0.00009  -0.00094  -0.00103   1.93034
   A45        1.94577  -0.00012   0.00067  -0.00036   0.00030   1.94607
   A46        1.88012   0.00008  -0.00022   0.00013  -0.00010   1.88001
   A47        1.88819   0.00012  -0.00004   0.00079   0.00075   1.88893
   A48        1.88968   0.00017   0.00014   0.00147   0.00161   1.89129
   A49        1.93092  -0.00007  -0.00009  -0.00057  -0.00066   1.93026
   A50        1.92716  -0.00005  -0.00048  -0.00072  -0.00121   1.92595
   A51        1.94615  -0.00015   0.00067  -0.00047   0.00020   1.94636
   A52        1.87927   0.00002  -0.00024  -0.00037  -0.00061   1.87866
   A53        1.89050   0.00015   0.00017   0.00139   0.00156   1.89206
   A54        1.88784   0.00011  -0.00004   0.00080   0.00077   1.88861
   A55        2.14235   0.00548  -0.00074   0.02325   0.02249   2.16484
   A56        2.12040  -0.00179  -0.00045  -0.00813  -0.00859   2.11181
   A57        2.02044  -0.00370   0.00120  -0.01512  -0.01391   2.00653
   A58        2.11063   0.00079  -0.00051   0.00376   0.00318   2.11381
   A59        2.19492   0.00022   0.00034  -0.00030  -0.00007   2.19485
   A60        1.97715  -0.00102   0.00015  -0.00412  -0.00402   1.97313
   A61        2.15134   0.00250  -0.00073   0.01048   0.00969   2.16103
   A62        2.08000  -0.00150   0.00083  -0.00708  -0.00631   2.07369
   A63        2.05069  -0.00101  -0.00015  -0.00421  -0.00442   2.04627
   A64        2.11379   0.00126  -0.00023   0.00570   0.00543   2.11921
   A65        1.97488   0.00028  -0.00009   0.00151   0.00140   1.97628
   A66        2.19410  -0.00155   0.00031  -0.00757  -0.00730   2.18679
   A67        2.15096   0.00189  -0.00072   0.00704   0.00626   2.15722
   A68        2.05235  -0.00047  -0.00001  -0.00075  -0.00080   2.05155
   A69        2.07903  -0.00143   0.00070  -0.00690  -0.00623   2.07280
   A70        2.01917  -0.00275   0.00100  -0.01202  -0.01104   2.00813
   A71        2.14351   0.00324  -0.00047   0.01412   0.01365   2.15716
   A72        2.12050  -0.00049  -0.00052  -0.00211  -0.00263   2.11787
   A73        1.86867   0.00026   0.00039   0.00184   0.00226   1.87093
   A74        1.87033  -0.00018   0.00058  -0.00051   0.00005   1.87038
   A75        1.73365   0.00066  -0.00104   0.00146   0.00038   1.73403
   A76        2.12414   0.00199  -0.00075   0.00800   0.00725   2.13139
   A77        2.09165   0.00060  -0.00052   0.00212   0.00160   2.09325
   A78        2.06705  -0.00259   0.00127  -0.01013  -0.00885   2.05820
   A79        2.10050   0.00086  -0.00073   0.00401   0.00328   2.10378
   A80        2.09430  -0.00068   0.00066  -0.00358  -0.00293   2.09137
   A81        2.08821  -0.00019   0.00005  -0.00056  -0.00053   2.08768
   A82        2.10577   0.00120  -0.00089   0.00542   0.00451   2.11028
   A83        2.09425  -0.00051   0.00085  -0.00206  -0.00123   2.09302
   A84        2.08252  -0.00069  -0.00000  -0.00368  -0.00371   2.07881
   A85        2.11730   0.00075  -0.00039   0.00279   0.00239   2.11969
   A86        2.07927   0.00019   0.00002   0.00231   0.00233   2.08160
   A87        2.08658  -0.00094   0.00037  -0.00512  -0.00475   2.08183
   A88        2.11245   0.00053  -0.00021   0.00166   0.00144   2.11389
   A89        2.08356   0.00038  -0.00005   0.00345   0.00340   2.08696
   A90        2.08717  -0.00091   0.00026  -0.00510  -0.00485   2.08233
   A91        2.06309  -0.00075   0.00093  -0.00381  -0.00289   2.06019
   A92        2.11417   0.00064  -0.00030   0.00315   0.00285   2.11702
   A93        2.10549   0.00010  -0.00061   0.00066   0.00005   2.10555
   A94        1.92601   0.00028  -0.00065   0.00350   0.00284   1.92886
   A95        1.91563   0.00005   0.00010   0.00126   0.00136   1.91699
   A96        1.96466   0.00028  -0.00025   0.00082   0.00057   1.96523
   A97        1.86874   0.00023   0.00053   0.00281   0.00333   1.87207
   A98        1.88389  -0.00052  -0.00008  -0.00477  -0.00486   1.87903
   A99        1.90212  -0.00034   0.00041  -0.00367  -0.00327   1.89885
   A100       1.90362  -0.00037   0.00040  -0.00337  -0.00296   1.90066
   A101       1.90313  -0.00029   0.00026  -0.00366  -0.00341   1.89972
   A102       1.91068   0.00010  -0.00130  -0.00012  -0.00142   1.90925
   A103       1.86105   0.00007   0.00029   0.00024   0.00051   1.86156
   A104       2.00179   0.00033   0.00054   0.00464   0.00517   2.00696
   A105       1.88105   0.00014  -0.00013   0.00194   0.00180   1.88285
   A106       1.92349   0.00024   0.00119   0.00313   0.00430   1.92779
   A107       1.92264   0.00040   0.00077   0.00402   0.00476   1.92740
   A108       1.85776  -0.00014   0.00099   0.00147   0.00242   1.86018
    D1       -0.01218   0.00014  -0.00007   0.00750   0.00740  -0.00478
    D2        3.10670   0.00002   0.00034   0.00030   0.00063   3.10734
    D3       -3.14158   0.00030   0.00081   0.01552   0.01629  -3.12530
    D4       -0.02270   0.00018   0.00123   0.00831   0.00952  -0.01318
    D5        0.01832   0.00001   0.00122  -0.00014   0.00104   0.01936
    D6       -3.12308   0.00011   0.00110   0.00508   0.00617  -3.11690
    D7       -3.13546  -0.00016   0.00033  -0.00819  -0.00791   3.13982
    D8        0.00634  -0.00006   0.00021  -0.00297  -0.00278   0.00356
    D9       -0.00496  -0.00019  -0.00138  -0.01104  -0.01240  -0.01736
   D10       -3.10158   0.00004   0.00001   0.00084   0.00090  -3.10068
   D11       -3.12416  -0.00011  -0.00177  -0.00408  -0.00590  -3.13006
   D12        0.06241   0.00012  -0.00038   0.00780   0.00740   0.06982
   D13        0.52167  -0.00031  -0.01301  -0.03004  -0.04301   0.47866
   D14       -2.61998  -0.00042  -0.01209  -0.03669  -0.04878  -2.66876
   D15       -2.64265  -0.00049  -0.01257  -0.03748  -0.05005  -2.69270
   D16        0.49889  -0.00060  -0.01165  -0.04413  -0.05582   0.44307
   D17        0.01522   0.00013   0.00163   0.00732   0.00897   0.02419
   D18       -3.11706   0.00012   0.00139   0.00665   0.00806  -3.10900
   D19        3.11158  -0.00010   0.00024  -0.00458  -0.00432   3.10726
   D20       -0.02070  -0.00011   0.00001  -0.00525  -0.00523  -0.02594
   D21       -0.00903   0.00000  -0.00046   0.00009  -0.00035  -0.00938
   D22        3.13619  -0.00002  -0.00087  -0.00228  -0.00315   3.13304
   D23        3.12477   0.00003  -0.00026   0.00072   0.00047   3.12524
   D24       -0.01319  -0.00000  -0.00068  -0.00165  -0.00233  -0.01552
   D25       -3.13754   0.00001   0.00077   0.00253   0.00329  -3.13425
   D26        1.08282   0.00005   0.00108   0.00171   0.00278   1.08561
   D27       -1.07497   0.00003   0.00026   0.00475   0.00501  -1.06997
   D28        0.01270  -0.00001   0.00056   0.00186   0.00241   0.01511
   D29       -2.05012   0.00003   0.00087   0.00104   0.00190  -2.04822
   D30        2.07527   0.00001   0.00005   0.00408   0.00413   2.07939
   D31       -0.00790  -0.00006  -0.00098  -0.00365  -0.00464  -0.01254
   D32        3.13349  -0.00017  -0.00086  -0.00894  -0.00981   3.12368
   D33        3.12916  -0.00003  -0.00045  -0.00068  -0.00114   3.12802
   D34       -0.01264  -0.00013  -0.00032  -0.00598  -0.00631  -0.01895
   D35        0.00762   0.00002   0.00049   0.00071   0.00120   0.00882
   D36       -3.13451   0.00001   0.00042   0.00122   0.00164  -3.13287
   D37       -3.12986  -0.00001   0.00000  -0.00195  -0.00197  -3.13183
   D38        0.01119  -0.00002  -0.00007  -0.00144  -0.00153   0.00966
   D39        3.13346   0.00001  -0.00037  -0.00088  -0.00126   3.13220
   D40       -0.00794   0.00000  -0.00025  -0.00149  -0.00174  -0.00969
   D41       -1.08711  -0.00002  -0.00076   0.00035  -0.00042  -1.08753
   D42        2.05467  -0.00003  -0.00064  -0.00026  -0.00091   2.05376
   D43        1.07106  -0.00007   0.00019  -0.00420  -0.00401   1.06705
   D44       -2.07034  -0.00008   0.00031  -0.00481  -0.00450  -2.07484
   D45        3.07032   0.00037  -0.00053   0.00043  -0.00010   3.07022
   D46       -1.13310   0.00033  -0.00117  -0.00063  -0.00180  -1.13490
   D47        0.97112   0.00037  -0.00060   0.00033  -0.00026   0.97085
   D48        1.12780  -0.00040   0.00078  -0.00618  -0.00540   1.12239
   D49       -3.07562  -0.00044   0.00014  -0.00725  -0.00711  -3.08273
   D50       -0.97140  -0.00040   0.00071  -0.00628  -0.00557  -0.97698
   D51       -1.04278   0.00004   0.00004  -0.00171  -0.00168  -1.04446
   D52        1.03698  -0.00000  -0.00060  -0.00278  -0.00338   1.03360
   D53        3.14120   0.00004  -0.00003  -0.00181  -0.00184   3.13935
   D54        1.13542  -0.00036   0.00131   0.00074   0.00205   1.13746
   D55       -3.06908  -0.00041   0.00064  -0.00054   0.00010  -3.06899
   D56       -0.96978  -0.00040   0.00071  -0.00033   0.00039  -0.96940
   D57        3.07777   0.00047  -0.00014   0.00863   0.00850   3.08627
   D58       -1.12673   0.00042  -0.00080   0.00735   0.00655  -1.12018
   D59        0.97257   0.00043  -0.00073   0.00757   0.00684   0.97940
   D60       -1.03473   0.00003   0.00068   0.00380   0.00448  -1.03026
   D61        1.04395  -0.00003   0.00002   0.00251   0.00253   1.04648
   D62       -3.13993  -0.00002   0.00009   0.00273   0.00282  -3.13712
   D63        3.14001   0.00001   0.00000  -0.00008  -0.00008   3.13993
   D64        0.00014  -0.00000   0.00011  -0.00039  -0.00029  -0.00015
   D65       -0.00178   0.00002  -0.00013   0.00057   0.00044  -0.00134
   D66        3.14153   0.00001  -0.00002   0.00026   0.00024  -3.14142
   D67        0.00074  -0.00001  -0.00013   0.00058   0.00044   0.00118
   D68       -3.14037  -0.00001  -0.00007   0.00012   0.00005  -3.14032
   D69       -3.14068  -0.00002  -0.00002   0.00003   0.00000  -3.14068
   D70        0.00139  -0.00002   0.00005  -0.00043  -0.00039   0.00100
   D71        0.00109  -0.00001   0.00011  -0.00027  -0.00015   0.00093
   D72       -3.13996  -0.00001   0.00014  -0.00028  -0.00014  -3.14010
   D73        3.14098   0.00000   0.00001   0.00005   0.00006   3.14104
   D74       -0.00006   0.00000   0.00003   0.00004   0.00007   0.00001
   D75        0.00007  -0.00001  -0.00000  -0.00021  -0.00021  -0.00014
   D76        3.14152  -0.00000  -0.00003  -0.00029  -0.00032   3.14120
   D77        3.14111  -0.00001  -0.00003  -0.00020  -0.00023   3.14089
   D78       -0.00062  -0.00000  -0.00006  -0.00028  -0.00034  -0.00096
   D79       -0.00049   0.00001  -0.00008   0.00036   0.00028  -0.00022
   D80        3.14122  -0.00000  -0.00006  -0.00053  -0.00059   3.14063
   D81        3.14124   0.00001  -0.00006   0.00044   0.00039  -3.14156
   D82       -0.00024  -0.00000  -0.00003  -0.00044  -0.00048  -0.00071
   D83       -3.14122   0.00001   0.00015  -0.00061  -0.00046   3.14150
   D84       -0.00022  -0.00000   0.00006  -0.00005   0.00002  -0.00020
   D85        0.00026   0.00002   0.00012   0.00028   0.00040   0.00066
   D86        3.14125   0.00001   0.00004   0.00085   0.00089  -3.14105
   D87       -3.13740   0.00013   0.00143   0.00762   0.00898  -3.12842
   D88        0.03981   0.00056   0.00228   0.03181   0.03409   0.07389
   D89        0.00425   0.00024   0.00056   0.01391   0.01443   0.01868
   D90       -3.10173   0.00066   0.00142   0.03811   0.03954  -3.06219
   D91        3.13226  -0.00018  -0.00191  -0.01035  -0.01233   3.11992
   D92        0.04359   0.00016  -0.00050   0.00854   0.00798   0.05157
   D93       -0.00939  -0.00028  -0.00106  -0.01656  -0.01761  -0.02700
   D94       -3.09806   0.00006   0.00035   0.00233   0.00271  -3.09535
   D95        0.00401   0.00001   0.00041   0.00143   0.00180   0.00581
   D96       -3.10813   0.00025   0.00100   0.01453   0.01556  -3.09257
   D97        3.11414  -0.00034  -0.00034  -0.01989  -0.02028   3.09386
   D98        0.00200  -0.00010   0.00025  -0.00680  -0.00653  -0.00453
   D99        3.11553  -0.00049  -0.00036  -0.02433  -0.02468   3.09085
   D100       0.00719  -0.00012   0.00045  -0.00188  -0.00144   0.00575
   D101       0.00635   0.00006   0.00059   0.00328   0.00386   0.01021
   D102      -3.09042   0.00038   0.00132   0.01957   0.02093  -3.06949
   D103       3.09584  -0.00029  -0.00078  -0.01540  -0.01622   3.07962
   D104      -0.00092   0.00002  -0.00005   0.00088   0.00084  -0.00008
   D105      -0.00720  -0.00024  -0.00090  -0.01456  -0.01542  -0.02262
   D106       3.13890  -0.00019  -0.00120  -0.01134  -0.01250   3.12640
   D107       3.10104  -0.00047  -0.00157  -0.02918  -0.03072   3.07032
   D108      -0.03605  -0.00042  -0.00187  -0.02596  -0.02780  -0.06385
   D109      -0.01012   0.00027  -0.00081   0.01180   0.01098   0.00085
   D110      -3.12066   0.00046  -0.00019   0.02533   0.02510  -3.09556
   D111       0.00234   0.00022   0.00043   0.01265   0.01310   0.01544
   D112       3.13949   0.00018   0.00073   0.00953   0.01030  -3.13340
   D113       3.09845  -0.00008  -0.00032  -0.00371  -0.00402   3.09443
   D114      -0.04758  -0.00012  -0.00003  -0.00684  -0.00682  -0.05440
   D115      -0.55511   0.00045   0.00948   0.04116   0.05063  -0.50448
   D116       2.61484   0.00050   0.00932   0.04175   0.05105   2.66589
   D117       2.59124   0.00051   0.00916   0.04458   0.05375   2.64499
   D118      -0.52199   0.00056   0.00899   0.04517   0.05417  -0.46782
   D119      -0.01173   0.00024  -0.00083   0.00779   0.00698  -0.00475
   D120       0.01286  -0.00030   0.00097  -0.01161  -0.01064   0.00222
   D121      -3.10199  -0.00003  -0.00004  -0.00124  -0.00128  -3.10327
   D122       0.01946  -0.00018  -0.00126  -0.00864  -0.00989   0.00957
   D123       0.01163  -0.00003   0.00009  -0.00163  -0.00154   0.01009
   D124       3.13308  -0.00018  -0.00112  -0.00903  -0.01015   3.12293
   D125       3.11985   0.00011   0.00147   0.00457   0.00605   3.12590
   D126      -0.06082  -0.00009   0.00013  -0.00527  -0.00515  -0.06597
   D127       0.00570   0.00009   0.00135   0.00485   0.00620   0.01190
   D128       3.10821  -0.00011   0.00000  -0.00499  -0.00500   3.10321
   D129      -0.01698  -0.00003  -0.00098  -0.00126  -0.00223  -0.01921
   D130       3.11577  -0.00009  -0.00112  -0.00404  -0.00515   3.11062
   D131      -3.13850   0.00012   0.00023   0.00615   0.00639  -3.13211
   D132      -0.00575   0.00007   0.00009   0.00338   0.00347  -0.00228
   D133      -0.01803  -0.00010  -0.00192  -0.00530  -0.00722  -0.02525
   D134       3.12550  -0.00013  -0.00114  -0.00666  -0.00780   3.11770
   D135      -3.12080   0.00009  -0.00059   0.00444   0.00384  -3.11696
   D136       0.02273   0.00006   0.00018   0.00309   0.00326   0.02599
   D137       0.00480   0.00002   0.00045   0.00090   0.00136   0.00616
   D138      -3.10529   0.00002  -0.00018   0.00129   0.00111  -3.10418
   D139      -3.12792   0.00007   0.00059   0.00365   0.00425  -3.12367
   D140       0.04518   0.00007  -0.00004   0.00404   0.00400   0.04918
   D141       0.01275   0.00004   0.00100   0.00233   0.00333   0.01608
   D142       3.12300   0.00005   0.00164   0.00199   0.00363   3.12663
   D143      -3.13079   0.00007   0.00023   0.00370   0.00392  -3.12687
   D144      -0.02054   0.00008   0.00086   0.00336   0.00422  -0.01632
   D145      -2.62094  -0.00029  -0.00022  -0.00726  -0.00749  -2.62843
   D146      -0.56547   0.00019   0.00010  -0.00094  -0.00084  -0.56631
   D147       1.55637  -0.00001   0.00052  -0.00418  -0.00366   1.55271
   D148       0.55291  -0.00027  -0.00090  -0.00679  -0.00769   0.54522
   D149       2.60839   0.00021  -0.00058  -0.00047  -0.00105   2.60734
   D150      -1.55296   0.00000  -0.00016  -0.00371  -0.00387  -1.55683
   D151      -1.00292   0.00014  -0.00214  -0.01537  -0.01751  -1.02043
   D152       1.02309  -0.00014  -0.00143  -0.01897  -0.02040   1.00268
   D153       3.07707  -0.00008  -0.00220  -0.01882  -0.02102   3.05605
   D154      -3.13280  -0.00003  -0.00109  -0.01700  -0.01809   3.13229
   D155      -1.10680  -0.00031  -0.00039  -0.02060  -0.02098  -1.12778
   D156       0.94719  -0.00025  -0.00115  -0.02045  -0.02160   0.92559
   D157       1.12658   0.00016  -0.00189  -0.01581  -0.01770   1.10888
   D158      -3.13060  -0.00013  -0.00118  -0.01941  -0.02059   3.13199
   D159      -1.07661  -0.00007  -0.00195  -0.01926  -0.02121  -1.09782
   D160       1.19961   0.00015   0.00102   0.02488   0.02589   1.22550
   D161      -3.03881   0.00037   0.00338   0.03099   0.03438  -3.00443
   D162      -0.94639   0.00033   0.00112   0.02607   0.02717  -0.91922
   D163       1.09837   0.00055   0.00347   0.03217   0.03566   1.13404
   D164      -3.01581  -0.00006   0.00052   0.02155   0.02205  -2.99376
   D165      -0.97104   0.00016   0.00288   0.02765   0.03054  -0.94050
         Item               Value     Threshold  Converged?
 Maximum Force            0.005482     0.000450     NO 
 RMS     Force            0.000947     0.000300     NO 
 Maximum Displacement     0.254366     0.001800     NO 
 RMS     Displacement     0.047107     0.001200     NO 
 Predicted change in Energy=-8.303060D-04
 Lowest energy point so far.  Saving SCF results.
 GradGradGradGradGradGradGradGradGradGradGradGradGradGradGradGradGradGrad

 Leave Link  103 at Thu Mar 14 11:33:19 2024, MaxMem= 32212254720 cpu:               2.3 elap:               0.1
 (Enter /home/<user>/g16/l202.exe)
 Stoichiometry    C29H25N3S(1+,2)
 Framework group  C1[X(C29H25N3S)]
 Deg. of freedom   168
 Full point group                 C1      NOp   1
 RotChk:  IX=0 Diff= 8.22D-03
 Largest Abelian subgroup         C1      NOp   1
 Largest concise Abelian subgroup C1      NOp   1
                         Standard orientation:                         
 ---------------------------------------------------------------------
 Center     Atomic      Atomic             Coordinates (Angstroms)
 Number     Number       Type             X           Y           Z
 ---------------------------------------------------------------------
      1          6           0       -2.441169    1.615226   -0.488762
      2          6           0       -1.785345    0.380821   -0.192435
      3          6           0       -2.582977   -0.771922    0.073406
      4          6           0       -3.954304   -0.681514    0.062681
      5          6           0       -4.587946    0.558732   -0.243389
      6          6           0       -3.818091    1.703864   -0.526094
      7          1           0       -1.845679    2.490098   -0.706386
      8          1           0       -2.102047   -1.707781    0.337570
      9          1           0       -4.294474    2.646534   -0.775925
     10          6           0       -4.992972   -1.762523    0.353627
     11          6           0       -6.285799   -0.976635    0.149844
     12          6           0       -7.597954   -1.412688    0.260097
     13          6           0       -8.635062   -0.499512    0.026056
     14          6           0       -8.368796    0.839292   -0.316740
     15          6           0       -7.060511    1.288199   -0.431278
     16          6           0       -6.016606    0.374723   -0.196700
     17          1           0       -7.830075   -2.440387    0.523772
     18          1           0       -9.665813   -0.830863    0.111268
     19          1           0       -9.193872    1.522161   -0.492150
     20          1           0       -6.852213    2.320348   -0.696486
     21          6           0       -4.872974   -2.284305    1.804289
     22          1           0       -5.669908   -3.004420    2.016295
     23          1           0       -3.914851   -2.794205    1.952465
     24          1           0       -4.945804   -1.469330    2.531005
     25          6           0       -4.882927   -2.936895   -0.646053
     26          1           0       -3.926251   -3.456956   -0.525830
     27          1           0       -5.680965   -3.664833   -0.467582
     28          1           0       -4.960622   -2.591236   -1.681534
     29          6           0       -0.336585    0.269260   -0.192411
     30          6           0        0.561740    1.371930    0.084522
     31          6           0        0.294868   -0.956511   -0.463359
     32          6           0        2.003250    1.192446    0.051528
     33          6           0        1.681620   -1.124953   -0.503351
     34          1           0       -0.316766   -1.813461   -0.721718
     35          6           0        2.596848   -0.088520   -0.265114
     36          1           0        2.060138   -2.099505   -0.789394
     37          7           0        0.196647    2.601909    0.450679
     38          7           0        2.678646    2.293159    0.388158
     39         16           0        1.572702    3.456940    0.719787
     40          6           0        4.035045   -0.317214   -0.329515
     41          6           0        4.946498    0.709855   -0.681209
     42          6           0        4.558407   -1.608938   -0.069100
     43          6           0        6.303435    0.444902   -0.776405
     44          1           0        4.578855    1.702578   -0.903245
     45          6           0        5.918517   -1.852944   -0.142688
     46          1           0        3.894225   -2.410301    0.237559
     47          6           0        6.822196   -0.835271   -0.507432
     48          1           0        6.980187    1.240327   -1.075747
     49          1           0        6.298200   -2.845589    0.082945
     50          6           0        8.300740   -1.107409   -0.565441
     51          1           0        8.488504   -2.148829   -0.846924
     52          1           0        8.766205   -0.474043   -1.331378
     53          6           0        9.005750   -0.852592    0.788013
     54          1           0        8.837157    0.197448    1.087212
     55          1           0        8.534700   -1.477893    1.556097
     56          7           0       10.406762   -1.247212    0.686332
     57          1           0       10.916241   -0.600415    0.085859
     58          1           0       10.853936   -1.208912    1.599960
 ---------------------------------------------------------------------
 Rotational constants (GHZ):           0.3665146           0.0396239           0.0365525
 Leave Link  202 at Thu Mar 14 11:33:19 2024, MaxMem= 32212254720 cpu:               0.1 elap:               0.0
 (Enter /home/<user>/g16/l301.exe)
 Standard basis: 6-31G(d) (6D, 7F)
 Ernie: Thresh=  0.10000D-02 Tol=  0.10000D-05 Strict=F.
 There are   549 symmetry adapted cartesian basis functions of A   symmetry.
 There are   549 symmetry adapted basis functions of A   symmetry.
   549 basis functions,  1048 primitive gaussians,   549 cartesian basis functions
   118 alpha electrons      117 beta electrons
       nuclear repulsion energy      3081.0491046419 Hartrees.
 IExCor=  402 DFT=T Ex+Corr=B3LYP ExCW=0 ScaHFX=  0.200000
 ScaDFX=  0.800000  0.720000  1.000000  0.810000 ScalE2=  1.000000  1.000000
 IRadAn=      5 IRanWt=     -1 IRanGd=            0 ICorTp=0 IEmpDi=  4
 NAtoms=   58 NActive=   58 NUniq=   58 SFac= 1.00D+00 NAtFMM=   60 NAOKFM=F Big=F
 Integral buffers will be    131072 words long.
 Raffenetti 2 integral format.
 Two-electron integral symmetry is turned on.
 Leave Link  301 at Thu Mar 14 11:33:19 2024, MaxMem= 32212254720 cpu:               0.8 elap:               0.0
 (Enter /home/<user>/g16/l302.exe)
 NPDir=0 NMtPBC=     1 NCelOv=     1 NCel=       1 NClECP=     1 NCelD=      1
         NCelK=      1 NCelE2=     1 NClLst=     1 CellRange=     0.0.
 One-electron integrals computed using PRISM.
 One-electron integral symmetry used in STVInt
 NBasis=   549 RedAO= T EigKep=  2.69D-04  NBF=   549
 NBsUse=   549 1.00D-06 EigRej= -1.00D+00 NBFU=   549
 Precomputing XC quadrature grid using
 IXCGrd= 4 IRadAn=           5 IRanWt=          -1 IRanGd=           0 AccXCQ= 0.00D+00.
 Generated NRdTot=       0 NPtTot=           0 NUsed=           0 NTot=          32
 NSgBfM=   512   512   512   512   512 MxSgAt=    58 MxSgA2=    58.
 Leave Link  302 at Thu Mar 14 11:33:19 2024, MaxMem= 32212254720 cpu:              12.8 elap:               0.4
 (Enter /home/<user>/g16/l303.exe)
 DipDrv:  MaxL=1.
 Leave Link  303 at Thu Mar 14 11:33:19 2024, MaxMem= 32212254720 cpu:               1.4 elap:               0.1
 (Enter /home/<user>/g16/l401.exe)
 Initial guess from the checkpoint file:  "FBTP_H0opt.chk"
 B after Tr=    -0.000000   -0.000000   -0.000000
         Rot=    0.999999   -0.001077   -0.000109    0.000048 Ang=  -0.12 deg.
 Guess basis will be translated and rotated to current coordinates.
 JPrj=2 DoOrth=T DoCkMO=T.
 Initial guess <Sx>= 0.0000 <Sy>= 0.0000 <Sz>= 0.5000 <S**2>= 0.7614 S= 0.5057
 Generating alternative initial guess.
 ExpMin= 1.17D-01 ExpMax= 2.19D+04 ExpMxC= 3.30D+03 IAcc=3 IRadAn=         5 AccDes= 0.00D+00
 Harris functional with IExCor=  402 and IRadAn=       5 diagonalized for initial guess.
 HarFok:  IExCor=  402 AccDes= 0.00D+00 IRadAn=         5 IDoV= 1 UseB2=F ITyADJ=14
 ICtDFT=  3500011 ScaDFX=  1.000000  1.000000  1.000000  1.000000
 FoFCou: FMM=F IPFlag=           0 FMFlag=      100000 FMFlg1=           0
         NFxFlg=           0 DoJE=T BraDBF=F KetDBF=T FulRan=T
         wScrn=  0.000000 ICntrl=       500 IOpCl=  0 I1Cent=   200000004 NGrid=           0
         NMat0=    1 NMatS0=      1 NMatT0=    0 NMatD0=    1 NMtDS0=    0 NMtDT0=    0
 Petite list used in FoFCou.
 Harris En= -1682.30445899926    
 Leave Link  401 at Thu Mar 14 11:33:21 2024, MaxMem= 32212254720 cpu:              45.9 elap:               1.5
 (Enter /home/<user>/g16/l502.exe)
 Integral symmetry usage will be decided dynamically.
 UHF open shell SCF:
 Using DIIS extrapolation, IDIIS=  1040.
 NGot= 32212254720 LenX= 32211628124 LenY= 32211326174
 Requested convergence on RMS density matrix=1.00D-08 within 128 cycles.
 Requested convergence on MAX density matrix=1.00D-06.
 Requested convergence on             energy=1.00D-06.
 No special actions if energy rises.
 Fock matrices will be formed incrementally for  20 cycles.
 Integral accuracy reduced to 1.0D-05 until final iterations.

 Cycle   1  Pass 0  IDiag  1:
 FoFJK:  IHMeth= 1 ICntrl=       0 DoSepK=F KAlg= 0 I1Cent=           0 FoldK=F
 IRaf= 550000000 NMat=       1 IRICut=       1 DoRegI=T DoRafI=F ISym2E= 0 IDoP0=0 IntGTp=1.
 FoFCou: FMM=F IPFlag=           0 FMFlag=      100000 FMFlg1=           0
         NFxFlg=           0 DoJE=F BraDBF=F KetDBF=F FulRan=T
         wScrn=  0.000000 ICntrl=         0 IOpCl=  1 I1Cent=           0 NGrid=           0
         NMat0=    1 NMatS0=      1 NMatT0=    0 NMatD0=    1 NMtDS0=    0 NMtDT0=    0
 Symmetry not used in FoFCou.
 E= -1682.36177753754    
 DIIS: error= 1.44D-03 at cycle   1 NSaved=   1.
 NSaved= 1 IEnMin= 1 EnMin= -1682.36177753754     IErMin= 1 ErrMin= 1.44D-03
 ErrMax= 1.44D-03  0.00D+00 EMaxC= 1.00D-01 BMatC= 1.10D-02 BMatP= 1.10D-02
 IDIUse=3 WtCom= 9.86D-01 WtEn= 1.44D-02
 Coeff-Com:  0.100D+01
 Coeff-En:   0.100D+01
 Coeff:      0.100D+01
 Gap=     1.962 Goal=   None    Shift=    0.000
 Gap=     1.950 Goal=   None    Shift=    0.000
 GapD=    1.950 DampG=2.000 DampE=1.000 DampFc=2.0000 IDamp=-1.
 RMSDP=2.04D-04 MaxDP=9.44D-03              OVMax= 1.86D-02

 Cycle   2  Pass 0  IDiag  1:
 RMSU=  2.04D-04    CP:  1.00D+00
 E= -1682.36750514316     Delta-E=       -0.005727605615 Rises=F Damp=F
 DIIS: error= 3.07D-04 at cycle   2 NSaved=   2.
 NSaved= 2 IEnMin= 2 EnMin= -1682.36750514316     IErMin= 2 ErrMin= 3.07D-04
 ErrMax= 3.07D-04  0.00D+00 EMaxC= 1.00D-01 BMatC= 2.00D-04 BMatP= 1.10D-02
 IDIUse=3 WtCom= 9.97D-01 WtEn= 3.07D-03
 Coeff-Com: -0.636D-01 0.106D+01
 Coeff-En:   0.000D+00 0.100D+01
 Coeff:     -0.634D-01 0.106D+01
 Gap=     0.095 Goal=   None    Shift=    0.000
 Gap=     0.028 Goal=   None    Shift=    0.000
 RMSDP=4.37D-05 MaxDP=1.71D-03 DE=-5.73D-03 OVMax= 1.40D-02

 Cycle   3  Pass 0  IDiag  1:
 RMSU=  4.14D-05    CP:  1.00D+00  1.07D+00
 E= -1682.36747243774     Delta-E=        0.000032705412 Rises=F Damp=F
 DIIS: error= 3.35D-04 at cycle   3 NSaved=   3.
 NSaved= 3 IEnMin= 2 EnMin= -1682.36750514316     IErMin= 2 ErrMin= 3.07D-04
 ErrMax= 3.35D-04  0.00D+00 EMaxC= 1.00D-01 BMatC= 4.52D-04 BMatP= 2.00D-04
 IDIUse=3 WtCom= 3.53D-01 WtEn= 6.47D-01
 Coeff-Com: -0.520D-01 0.691D+00 0.361D+00
 Coeff-En:   0.000D+00 0.596D+00 0.404D+00
 Coeff:     -0.184D-01 0.630D+00 0.389D+00
 Gap=     0.095 Goal=   None    Shift=    0.000
 Gap=     0.028 Goal=   None    Shift=    0.000
 RMSDP=3.67D-05 MaxDP=2.06D-03 DE= 3.27D-05 OVMax= 1.71D-02

 Cycle   4  Pass 0  IDiag  1:
 RMSU=  1.95D-05    CP:  1.00D+00  1.08D+00  2.53D-01
 E= -1682.36757847234     Delta-E=       -0.000106034597 Rises=F Damp=F
 DIIS: error= 1.57D-04 at cycle   4 NSaved=   4.
 NSaved= 4 IEnMin= 4 EnMin= -1682.36757847234     IErMin= 4 ErrMin= 1.57D-04
 ErrMax= 1.57D-04  0.00D+00 EMaxC= 1.00D-01 BMatC= 9.98D-05 BMatP= 2.00D-04
 IDIUse=3 WtCom= 9.98D-01 WtEn= 1.57D-03
 Coeff-Com: -0.217D-01 0.241D+00 0.309D+00 0.472D+00
 Coeff-En:   0.000D+00 0.000D+00 0.238D+00 0.762D+00
 Coeff:     -0.217D-01 0.241D+00 0.309D+00 0.472D+00
 Gap=     0.094 Goal=   None    Shift=    0.000
 Gap=     0.028 Goal=   None    Shift=    0.000
 RMSDP=1.36D-05 MaxDP=7.85D-04 DE=-1.06D-04 OVMax= 5.03D-03

 Cycle   5  Pass 0  IDiag  1:
 RMSU=  7.00D-06    CP:  1.00D+00  1.08D+00  4.60D-01  5.96D-01
 E= -1682.36760718450     Delta-E=       -0.000028712160 Rises=F Damp=F
 DIIS: error= 3.63D-05 at cycle   5 NSaved=   5.
 NSaved= 5 IEnMin= 5 EnMin= -1682.36760718450     IErMin= 5 ErrMin= 3.63D-05
 ErrMax= 3.63D-05  0.00D+00 EMaxC= 1.00D-01 BMatC= 6.71D-06 BMatP= 9.98D-05
 IDIUse=1 WtCom= 1.00D+00 WtEn= 0.00D+00
 Coeff-Com: -0.593D-02 0.482D-01 0.149D+00 0.298D+00 0.510D+00
 Coeff:     -0.593D-02 0.482D-01 0.149D+00 0.298D+00 0.510D+00
 Gap=     0.094 Goal=   None    Shift=    0.000
 Gap=     0.028 Goal=   None    Shift=    0.000
 RMSDP=3.81D-06 MaxDP=2.12D-04 DE=-2.87D-05 OVMax= 1.03D-03

 Initial convergence to 1.0D-05 achieved.  Increase integral accuracy.
 Cycle   6  Pass 1  IDiag  1:
 E= -1682.36765812041     Delta-E=       -0.000050935905 Rises=F Damp=F
 DIIS: error= 8.79D-05 at cycle   1 NSaved=   1.
 NSaved= 1 IEnMin= 1 EnMin= -1682.36765812041     IErMin= 1 ErrMin= 8.79D-05
 ErrMax= 8.79D-05  0.00D+00 EMaxC= 1.00D-01 BMatC= 1.17D-05 BMatP= 1.17D-05
 IDIUse=1 WtCom= 1.00D+00 WtEn= 0.00D+00
 Coeff-Com:  0.100D+01
 Coeff:      0.100D+01
 Gap=     0.094 Goal=   None    Shift=    0.000
 Gap=     0.028 Goal=   None    Shift=    0.000
 RMSDP=3.81D-06 MaxDP=2.12D-04 DE=-5.09D-05 OVMax= 7.26D-04

 Cycle   7  Pass 1  IDiag  1:
 RMSU=  6.43D-05    CP:  1.00D+00
 E= -1682.36765949779     Delta-E=       -0.000001377388 Rises=F Damp=F
 DIIS: error= 4.52D-05 at cycle   2 NSaved=   2.
 NSaved= 2 IEnMin= 2 EnMin= -1682.36765949779     IErMin= 2 ErrMin= 4.52D-05
 ErrMax= 4.52D-05  0.00D+00 EMaxC= 1.00D-01 BMatC= 4.50D-06 BMatP= 1.17D-05
 IDIUse=1 WtCom= 1.00D+00 WtEn= 0.00D+00
 Coeff-Com:  0.319D+00 0.681D+00
 Coeff:      0.319D+00 0.681D+00
 Gap=     0.094 Goal=   None    Shift=    0.000
 Gap=     0.028 Goal=   None    Shift=    0.000
 RMSDP=5.67D-06 MaxDP=3.01D-04 DE=-1.38D-06 OVMax= 1.45D-03

 Cycle   8  Pass 1  IDiag  1:
 RMSU=  5.66D-06    CP:  1.00D+00  1.01D+00
 E= -1682.36765818652     Delta-E=        0.000001311277 Rises=F Damp=F
 DIIS: error= 6.22D-05 at cycle   3 NSaved=   3.
 NSaved= 3 IEnMin= 2 EnMin= -1682.36765949779     IErMin= 2 ErrMin= 4.52D-05
 ErrMax= 6.22D-05  0.00D+00 EMaxC= 1.00D-01 BMatC= 8.86D-06 BMatP= 4.50D-06
 IDIUse=1 WtCom= 1.00D+00 WtEn= 0.00D+00
 Coeff-Com:  0.783D-02 0.582D+00 0.410D+00
 Coeff:      0.783D-02 0.582D+00 0.410D+00
 Gap=     0.094 Goal=   None    Shift=    0.000
 Gap=     0.028 Goal=   None    Shift=    0.000
 RMSDP=3.63D-06 MaxDP=2.01D-04 DE= 1.31D-06 OVMax= 9.98D-04

 Cycle   9  Pass 1  IDiag  1:
 RMSU=  1.20D-06    CP:  1.00D+00  1.01D+00  3.98D-01
 E= -1682.36766084187     Delta-E=       -0.000002655355 Rises=F Damp=F
 DIIS: error= 9.47D-06 at cycle   4 NSaved=   4.
 NSaved= 4 IEnMin= 4 EnMin= -1682.36766084187     IErMin= 4 ErrMin= 9.47D-06
 ErrMax= 9.47D-06  0.00D+00 EMaxC= 1.00D-01 BMatC= 3.32D-07 BMatP= 4.50D-06
 IDIUse=1 WtCom= 1.00D+00 WtEn= 0.00D+00
 Coeff-Com: -0.510D-02 0.376D+00 0.277D+00 0.352D+00
 Coeff:     -0.510D-02 0.376D+00 0.277D+00 0.352D+00
 Gap=     0.094 Goal=   None    Shift=    0.000
 Gap=     0.028 Goal=   None    Shift=    0.000
 RMSDP=8.25D-07 MaxDP=4.56D-05 DE=-2.66D-06 OVMax= 4.19D-04

 Cycle  10  Pass 1  IDiag  1:
 RMSU=  5.49D-07    CP:  1.00D+00  1.01D+00  4.35D-01  5.19D-01
 E= -1682.36766094497     Delta-E=       -0.000000103099 Rises=F Damp=F
 DIIS: error= 2.67D-06 at cycle   5 NSaved=   5.
 NSaved= 5 IEnMin= 5 EnMin= -1682.36766094497     IErMin= 5 ErrMin= 2.67D-06
 ErrMax= 2.67D-06  0.00D+00 EMaxC= 1.00D-01 BMatC= 2.32D-08 BMatP= 3.32D-07
 IDIUse=1 WtCom= 1.00D+00 WtEn= 0.00D+00
 Coeff-Com: -0.333D-02 0.539D-01 0.358D-01 0.170D+00 0.743D+00
 Coeff:     -0.333D-02 0.539D-01 0.358D-01 0.170D+00 0.743D+00
 Gap=     0.094 Goal=   None    Shift=    0.000
 Gap=     0.028 Goal=   None    Shift=    0.000
 RMSDP=3.30D-07 MaxDP=2.72D-05 DE=-1.03D-07 OVMax= 7.82D-05

 Cycle  11  Pass 1  IDiag  1:
 RMSU=  2.42D-07    CP:  1.00D+00  1.01D+00  4.35D-01  6.86D-01  1.18D+00
 E= -1682.36766096206     Delta-E=       -0.000000017089 Rises=F Damp=F
 DIIS: error= 1.48D-06 at cycle   6 NSaved=   6.
 NSaved= 6 IEnMin= 6 EnMin= -1682.36766096206     IErMin= 6 ErrMin= 1.48D-06
 ErrMax= 1.48D-06  0.00D+00 EMaxC= 1.00D-01 BMatC= 9.50D-09 BMatP= 2.32D-08
 IDIUse=1 WtCom= 1.00D+00 WtEn= 0.00D+00
 Coeff-Com:  0.129D-02-0.222D+00-0.173D+00-0.941D-01 0.481D+00 0.101D+01
 Coeff:      0.129D-02-0.222D+00-0.173D+00-0.941D-01 0.481D+00 0.101D+01
 Gap=     0.094 Goal=   None    Shift=    0.000
 Gap=     0.028 Goal=   None    Shift=    0.000
 RMSDP=4.31D-07 MaxDP=3.62D-05 DE=-1.71D-08 OVMax= 1.64D-04

 Cycle  12  Pass 1  IDiag  1:
 RMSU=  1.79D-07    CP:  1.00D+00  1.01D+00  4.41D-01  8.38D-01  1.80D+00
                    CP:  1.28D+00
 E= -1682.36766097395     Delta-E=       -0.000000011890 Rises=F Damp=F
 DIIS: error= 1.58D-06 at cycle   7 NSaved=   7.
 NSaved= 7 IEnMin= 7 EnMin= -1682.36766097395     IErMin= 6 ErrMin= 1.48D-06
 ErrMax= 1.58D-06  0.00D+00 EMaxC= 1.00D-01 BMatC= 7.00D-09 BMatP= 9.50D-09
 IDIUse=1 WtCom= 1.00D+00 WtEn= 0.00D+00
 Coeff-Com:  0.219D-02-0.200D+00-0.155D+00-0.131D+00 0.133D+00 0.823D+00
 Coeff-Com:  0.528D+00
 Coeff:      0.219D-02-0.200D+00-0.155D+00-0.131D+00 0.133D+00 0.823D+00
 Coeff:      0.528D+00
 Gap=     0.094 Goal=   None    Shift=    0.000
 Gap=     0.028 Goal=   None    Shift=    0.000
 RMSDP=2.08D-07 MaxDP=1.73D-05 DE=-1.19D-08 OVMax= 5.13D-05

 Cycle  13  Pass 1  IDiag  1:
 RMSU=  8.65D-08    CP:  1.00D+00  1.01D+00  4.40D-01  9.31D-01  2.01D+00
                    CP:  1.61D+00  6.78D-01
 E= -1682.36766097751     Delta-E=       -0.000000003558 Rises=F Damp=F
 DIIS: error= 5.44D-07 at cycle   8 NSaved=   8.
 NSaved= 8 IEnMin= 8 EnMin= -1682.36766097751     IErMin= 8 ErrMin= 5.44D-07
 ErrMax= 5.44D-07  0.00D+00 EMaxC= 1.00D-01 BMatC= 7.64D-10 BMatP= 7.00D-09
 IDIUse=1 WtCom= 1.00D+00 WtEn= 0.00D+00
 Coeff-Com:  0.125D-02-0.104D+00-0.806D-01-0.745D-01 0.435D-01 0.414D+00
 Coeff-Com:  0.336D+00 0.465D+00
 Coeff:      0.125D-02-0.104D+00-0.806D-01-0.745D-01 0.435D-01 0.414D+00
 Coeff:      0.336D+00 0.465D+00
 Gap=     0.094 Goal=   None    Shift=    0.000
 Gap=     0.028 Goal=   None    Shift=    0.000
 RMSDP=4.71D-08 MaxDP=3.75D-06 DE=-3.56D-09 OVMax= 1.08D-05

 Cycle  14  Pass 1  IDiag  1:
 RMSU=  3.97D-08    CP:  1.00D+00  1.01D+00  4.40D-01  9.35D-01  2.04D+00
                    CP:  1.62D+00  7.78D-01  9.20D-01
 E= -1682.36766097777     Delta-E=       -0.000000000258 Rises=F Damp=F
 DIIS: error= 3.93D-07 at cycle   9 NSaved=   9.
 NSaved= 9 IEnMin= 9 EnMin= -1682.36766097777     IErMin= 9 ErrMin= 3.93D-07
 ErrMax= 3.93D-07  0.00D+00 EMaxC= 1.00D-01 BMatC= 2.78D-10 BMatP= 7.64D-10
 IDIUse=1 WtCom= 1.00D+00 WtEn= 0.00D+00
 Coeff-Com:  0.132D-03-0.464D-02-0.326D-02-0.101D-01-0.452D-02-0.754D-02
 Coeff-Com:  0.632D-01 0.359D+00 0.608D+00
 Coeff:      0.132D-03-0.464D-02-0.326D-02-0.101D-01-0.452D-02-0.754D-02
 Coeff:      0.632D-01 0.359D+00 0.608D+00
 Gap=     0.094 Goal=   None    Shift=    0.000
 Gap=     0.028 Goal=   None    Shift=    0.000
 RMSDP=3.24D-08 MaxDP=3.58D-06 DE=-2.58D-10 OVMax= 9.40D-06

 Cycle  15  Pass 1  IDiag  1:
 RMSU=  2.46D-08    CP:  1.00D+00  1.01D+00  4.40D-01  9.38D-01  2.04D+00
                    CP:  1.65D+00  8.10D-01  1.13D+00  8.61D-01
 E= -1682.36766097787     Delta-E=       -0.000000000102 Rises=F Damp=F
 DIIS: error= 2.34D-07 at cycle  10 NSaved=  10.
 NSaved=10 IEnMin=10 EnMin= -1682.36766097787     IErMin=10 ErrMin= 2.34D-07
 ErrMax= 2.34D-07  0.00D+00 EMaxC= 1.00D-01 BMatC= 1.30D-10 BMatP= 2.78D-10
 IDIUse=1 WtCom= 1.00D+00 WtEn= 0.00D+00
 Coeff-Com: -0.550D-03 0.514D-01 0.404D-01 0.292D-01-0.180D-01-0.233D+00
 Coeff-Com: -0.122D+00 0.601D-01 0.525D+00 0.668D+00
 Coeff:     -0.550D-03 0.514D-01 0.404D-01 0.292D-01-0.180D-01-0.233D+00
 Coeff:     -0.122D+00 0.601D-01 0.525D+00 0.668D+00
 Gap=     0.094 Goal=   None    Shift=    0.000
 Gap=     0.028 Goal=   None    Shift=    0.000
 RMSDP=2.60D-08 MaxDP=2.18D-06 DE=-1.02D-10 OVMax= 8.06D-06

 Cycle  16  Pass 1  IDiag  1:
 RMSU=  1.62D-08    CP:  1.00D+00  1.01D+00  4.40D-01  9.32D-01  2.04D+00
                    CP:  1.65D+00  8.52D-01  1.26D+00  1.18D+00  1.14D+00
 E= -1682.36766097792     Delta-E=       -0.000000000049 Rises=F Damp=F
 DIIS: error= 7.86D-08 at cycle  11 NSaved=  11.
 NSaved=11 IEnMin=11 EnMin= -1682.36766097792     IErMin=11 ErrMin= 7.86D-08
 ErrMax= 7.86D-08  0.00D+00 EMaxC= 1.00D-01 BMatC= 1.97D-11 BMatP= 1.30D-10
 IDIUse=1 WtCom= 1.00D+00 WtEn= 0.00D+00
 Coeff-Com: -0.367D-03 0.321D-01 0.253D-01 0.193D-01-0.844D-02-0.141D+00
 Coeff-Com: -0.883D-01-0.546D-01 0.169D+00 0.393D+00 0.654D+00
 Coeff:     -0.367D-03 0.321D-01 0.253D-01 0.193D-01-0.844D-02-0.141D+00
 Coeff:     -0.883D-01-0.546D-01 0.169D+00 0.393D+00 0.654D+00
 Gap=     0.094 Goal=   None    Shift=    0.000
 Gap=     0.028 Goal=   None    Shift=    0.000
 RMSDP=1.12D-08 MaxDP=9.79D-07 DE=-4.91D-11 OVMax= 2.70D-06

 Cycle  17  Pass 1  IDiag  1:
 RMSU=  6.33D-09    CP:  1.00D+00  1.01D+00  4.40D-01  9.31D-01  2.04D+00
                    CP:  1.66D+00  8.65D-01  1.32D+00  1.29D+00  1.37D+00
                    CP:  1.02D+00
 E= -1682.36766097798     Delta-E=       -0.000000000058 Rises=F Damp=F
 DIIS: error= 3.51D-08 at cycle  12 NSaved=  12.
 NSaved=12 IEnMin=12 EnMin= -1682.36766097798     IErMin=12 ErrMin= 3.51D-08
 ErrMax= 3.51D-08  0.00D+00 EMaxC= 1.00D-01 BMatC= 3.85D-12 BMatP= 1.97D-11
 IDIUse=1 WtCom= 1.00D+00 WtEn= 0.00D+00
 Coeff-Com: -0.267D-04 0.143D-02 0.116D-02 0.127D-02 0.104D-02-0.441D-02
 Coeff-Com: -0.909D-02-0.423D-01-0.588D-01 0.375D-02 0.310D+00 0.796D+00
 Coeff:     -0.267D-04 0.143D-02 0.116D-02 0.127D-02 0.104D-02-0.441D-02
 Coeff:     -0.909D-02-0.423D-01-0.588D-01 0.375D-02 0.310D+00 0.796D+00
 Gap=     0.094 Goal=   None    Shift=    0.000
 Gap=     0.028 Goal=   None    Shift=    0.000
 RMSDP=5.50D-09 MaxDP=5.28D-07 DE=-5.82D-11 OVMax= 1.14D-06

 SCF Done:  E(UB3LYP) =  -1682.36766098     A.U. after   17 cycles
            NFock= 17  Conv=0.55D-08     -V/T= 2.0082
 <Sx>= 0.0000 <Sy>= 0.0000 <Sz>= 0.5000 <S**2>= 0.7623 S= 0.5061
 <L.S>= 0.000000000000E+00
 KE= 1.668641960493D+03 PE=-1.005774241539D+04 EE= 3.625683689282D+03
 Annihilation of the first spin contaminant:
 S**2 before annihilation     0.7623,   after     0.7501
 Leave Link  502 at Thu Mar 14 11:34:04 2024, MaxMem= 32212254720 cpu:            1283.1 elap:              42.8
 (Enter /home/<user>/g16/l701.exe)
 ... and contract with generalized density number  0.
 Compute integral first derivatives.
 Leave Link  701 at Thu Mar 14 11:34:04 2024, MaxMem= 32212254720 cpu:               5.2 elap:               0.2
 (Enter /home/<user>/g16/l702.exe)
 L702 exits ... SP integral derivatives will be done elsewhere.
 Leave Link  702 at Thu Mar 14 11:34:04 2024, MaxMem= 32212254720 cpu:               0.7 elap:               0.0
 (Enter /home/<user>/g16/l703.exe)
 Integral derivatives from FoFJK, PRISM(SPDF).
 Compute integral first derivatives, UseDBF=F ICtDFT=           0.
 Calling FoFJK, ICntrl=      2127 FMM=F ISym2X=0 I1Cent= 0 IOpClX= 1 NMat=1 NMatS=1 NMatT=0.
 FoFJK:  IHMeth= 1 ICntrl=    2127 DoSepK=F KAlg= 0 I1Cent=           0 FoldK=F
 IRaf=         0 NMat=       1 IRICut=       1 DoRegI=T DoRafI=F ISym2E= 0 IDoP0=0 IntGTp=1.
 FoFCou: FMM=F IPFlag=           0 FMFlag=      100000 FMFlg1=         800
         NFxFlg=           0 DoJE=F BraDBF=F KetDBF=F FulRan=T
         wScrn=  0.000000 ICntrl=      2127 IOpCl=  1 I1Cent=           0 NGrid=           0
         NMat0=    1 NMatS0=      1 NMatT0=    0 NMatD0=    1 NMtDS0=    0 NMtDT0=    0
 Symmetry not used in FoFCou.
 Leave Link  703 at Thu Mar 14 11:34:11 2024, MaxMem= 32212254720 cpu:             199.9 elap:               6.7
 (Enter /home/<user>/g16/l716.exe)
 Dipole        =-9.97399026D-01-1.66993385D-01-1.19988678D-01
 ***** Axes restored to original set *****
 -------------------------------------------------------------------
 Center     Atomic                   Forces (Hartrees/Bohr)
 Number     Number              X              Y              Z
 -------------------------------------------------------------------
      1        6          -0.000206335   -0.001307983    0.000956331
      2        6           0.002662025    0.000177124   -0.001165607
      3        6          -0.001233894    0.000928707    0.000025940
      4        6           0.000645977    0.001002079   -0.000237958
      5        6           0.000480763   -0.000111243   -0.000184684
      6        6           0.000255332   -0.001025515    0.000375732
      7        1           0.000866584    0.000479194    0.000135256
      8        1          -0.000280414   -0.000088536    0.000236658
      9        1          -0.000180361    0.000146628    0.000030755
     10        6          -0.000183476    0.000551177   -0.000527086
     11        6           0.000076863    0.000946506   -0.000250486
     12        6          -0.000568451    0.000613677   -0.000155940
     13        6           0.000200518    0.000136336   -0.000032601
     14        6          -0.000141668   -0.000713739    0.000197959
     15        6           0.000258300   -0.000725506    0.000235594
     16        6          -0.000837233   -0.000586483    0.000246683
     17        1          -0.000059905   -0.000140496    0.000034292
     18        1          -0.000075488    0.000033056   -0.000017555
     19        1          -0.000218108   -0.000035296    0.000008285
     20        1           0.000208196    0.000096034   -0.000012851
     21        6          -0.000005563   -0.000085204    0.000063379
     22        1          -0.000096070   -0.000081470    0.000103044
     23        1           0.000072796   -0.000018130    0.000044849
     24        1           0.000004701    0.000030896   -0.000060638
     25        6          -0.000024801   -0.000102150    0.000116355
     26        1           0.000075535   -0.000050014   -0.000028108
     27        1          -0.000082422   -0.000125580   -0.000028973
     28        1           0.000009984    0.000064068    0.000036601
     29        6          -0.003279446    0.001449870    0.000888087
     30        6          -0.000092703   -0.000930050   -0.000173594
     31        6           0.002174233   -0.000136658   -0.000300714
     32        6          -0.000002837   -0.001424409   -0.001098750
     33        6          -0.001752408    0.000279942    0.000129816
     34        1           0.000087685    0.000104237    0.000027165
     35        6           0.002863087    0.000537018    0.000419350
     36        1          -0.000001930   -0.000013743    0.000069877
     37        7          -0.000659729   -0.000014413    0.000005966
     38        7          -0.000299636    0.000081555    0.000807570
     39       16          -0.000192652    0.000106247   -0.000745297
     40        6          -0.001961690    0.000542342   -0.000721490
     41        6           0.000469941   -0.000947145    0.000413412
     42        6           0.001016714    0.000373566   -0.000010368
     43        6          -0.000231162   -0.000564160    0.000287182
     44        1          -0.000215420    0.000158741    0.000078239
     45        6          -0.000302650    0.000349815   -0.000254786
     46        1           0.000243260   -0.000036739    0.000141931
     47        6           0.000344687    0.000118645   -0.000090159
     48        1           0.000146126    0.000131252    0.000000530
     49        1           0.000098885   -0.000131166   -0.000060291
     50        6          -0.000769765   -0.000220408   -0.000411904
     51        1           0.000168135    0.000043864    0.000156815
     52        1           0.000047044    0.000095501   -0.000000203
     53        6           0.000636747   -0.000551231    0.000413710
     54        1           0.000033509    0.000080483   -0.000257994
     55        1          -0.000038107    0.000227492    0.000097552
     56        7          -0.000036211    0.000527891   -0.000220034
     57        1           0.000015482    0.000034722    0.000319744
     58        1          -0.000132575   -0.000281197   -0.000056587
 -------------------------------------------------------------------
 Cartesian Forces:  Max     0.003279446 RMS     0.000632399
 Leave Link  716 at Thu Mar 14 11:34:11 2024, MaxMem= 32212254720 cpu:               0.7 elap:               0.0
 (Enter /home/<user>/g16/l103.exe)

 GradGradGradGradGradGradGradGradGradGradGradGradGradGradGradGradGradGrad
 Berny optimization.
 Using GEDIIS/GDIIS optimizer.
 FormGI is forming the generalized inverse of G from B-inverse, IUseBI=4.
 Internal  Forces:  Max     0.003311643 RMS     0.000455264
 Search for a local minimum.
 Step number   3 out of a maximum of  346
 All quantities printed in internal units (Hartrees-Bohrs-Radians)
 RMS Force = .45526D-03 SwitMx=.10000D-02 MixMth= 2
 Mixed Optimization -- En-DIIS/RFO-DIIS
 Swapping is turned off.
 Update second derivatives using D2CorX and points    1    2    3
 DE= -8.50D-04 DEPred=-8.30D-04 R= 1.02D+00
 TightC=F SS=  1.41D+00  RLast= 2.14D-01 DXNew= 8.4853D-01 6.4104D-01
 Trust test= 1.02D+00 RLast= 2.14D-01 DXMaxT set to 6.41D-01
 ITU=  1  1  0
     Eigenvalues ---    0.00230   0.00230   0.00252   0.00610   0.00737
     Eigenvalues ---    0.00756   0.00921   0.01037   0.01247   0.01448
     Eigenvalues ---    0.01470   0.01593   0.01606   0.01635   0.01637
     Eigenvalues ---    0.01676   0.01711   0.01728   0.01737   0.01795
     Eigenvalues ---    0.01887   0.01912   0.02017   0.02032   0.02040
     Eigenvalues ---    0.02076   0.02083   0.02088   0.02092   0.02094
     Eigenvalues ---    0.02112   0.02116   0.02119   0.02121   0.02126
     Eigenvalues ---    0.02134   0.02143   0.02145   0.02149   0.02159
     Eigenvalues ---    0.02161   0.02174   0.02193   0.02432   0.04072
     Eigenvalues ---    0.04240   0.04346   0.04347   0.05386   0.05391
     Eigenvalues ---    0.05443   0.05543   0.05545   0.05601   0.06043
     Eigenvalues ---    0.08093   0.08830   0.09241   0.11553   0.12521
     Eigenvalues ---    0.12805   0.15578   0.15960   0.15976   0.15981
     Eigenvalues ---    0.15992   0.15994   0.15999   0.16000   0.16000
     Eigenvalues ---    0.16000   0.16000   0.16000   0.16000   0.16000
     Eigenvalues ---    0.16000   0.16000   0.16000   0.16000   0.16000
     Eigenvalues ---    0.16030   0.16076   0.18953   0.20405   0.21907
     Eigenvalues ---    0.21971   0.22003   0.22092   0.22453   0.22467
     Eigenvalues ---    0.22741   0.22966   0.23709   0.24121   0.24543
     Eigenvalues ---    0.24747   0.24923   0.24975   0.24986   0.24987
     Eigenvalues ---    0.24989   0.24998   0.24999   0.25206   0.28025
     Eigenvalues ---    0.28063   0.28318   0.28590   0.28995   0.30022
     Eigenvalues ---    0.31238   0.32872   0.33130   0.33787   0.34028
     Eigenvalues ---    0.34091   0.34100   0.34104   0.34111   0.34132
     Eigenvalues ---    0.34276   0.34288   0.34567   0.34910   0.35040
     Eigenvalues ---    0.35059   0.35082   0.35101   0.35153   0.35166
     Eigenvalues ---    0.35183   0.35196   0.35213   0.35247   0.35286
     Eigenvalues ---    0.35422   0.35595   0.36104   0.36391   0.37949
     Eigenvalues ---    0.38345   0.39887   0.40672   0.41131   0.41604
     Eigenvalues ---    0.41638   0.41846   0.42248   0.42381   0.42790
     Eigenvalues ---    0.43679   0.44336   0.44495   0.44618   0.44907
     Eigenvalues ---    0.44966   0.45365   0.45698   0.45828   0.45999
     Eigenvalues ---    0.46154   0.46939   0.46984   0.47213   0.47381
     Eigenvalues ---    0.48655   0.54462   0.56903
 En-DIIS/RFO-DIIS/Sim-DIIS IScMMF=       -3 using points:     3    2
 RFO step:  Lambda=-5.56618514D-04.
 NNeg= 0 NGDIIS= 2 SimSw=  2.50D-03 Rises=F DC= -8.50D-04 SmlDif=  1.00D-05
 NRisDI= 0 DoIntr=F SqrtH=F CThrHd= 10.0 CDAdj=  3.0
 RMS Error=  0.1041026498D-01 NUsed= 2 OKEnD=T EnDIS=F
 InvSVX:  RCond= 9.72D-03 Info=           0 Equed=N FErr=  3.99D-15 BErr=  6.66D-17
 DidBck=F Rises=F RFO-DIIS coefs:    1.65799   -0.65799
 Iteration  1 RMS(Cart)=  0.05206674 RMS(Int)=  0.00052912
 Iteration  2 RMS(Cart)=  0.00153474 RMS(Int)=  0.00002505
 Iteration  3 RMS(Cart)=  0.00000109 RMS(Int)=  0.00002505
 Iteration  4 RMS(Cart)=  0.00000000 RMS(Int)=  0.00002505
 ITry= 1 IFail=0 DXMaxC= 3.00D-01 DCOld= 1.00D+10 DXMaxT= 6.41D-01 DXLimC= 3.00D+00 Rises=F
 Variable       Old X    -DE/DX   Delta X   Delta X   Delta X     New X
                                 (Linear)    (Quad)   (Total)
    R1        2.70017  -0.00121   0.00817  -0.00627   0.00191   2.70209
    R2        2.60835   0.00020  -0.00265   0.00112  -0.00153   2.60682
    R3        2.04175   0.00083  -0.00290   0.00394   0.00104   2.04279
    R4        2.69623   0.00033   0.00762  -0.00242   0.00521   2.70144
    R5        2.74586  -0.00162  -0.00668  -0.00295  -0.00964   2.73623
    R6        2.59714  -0.00002  -0.00343   0.00116  -0.00228   2.59486
    R7        2.05008   0.00002  -0.00150   0.00074  -0.00076   2.04931
    R8        2.69469  -0.00098   0.00328  -0.00311   0.00015   2.69484
    R9        2.88582   0.00036   0.00040   0.00073   0.00114   2.88695
   R10        2.66172  -0.00062   0.00286  -0.00234   0.00051   2.66223
   R11        2.72351   0.00087  -0.00769   0.00563  -0.00206   2.72144
   R12        2.05101   0.00020  -0.00057   0.00082   0.00025   2.05126
   R13        2.88488   0.00011  -0.00054   0.00029  -0.00025   2.88463
   R14        2.92210   0.00019  -0.00070   0.00116   0.00046   2.92256
   R15        2.92183   0.00011  -0.00048   0.00073   0.00025   2.92207
   R16        2.62124   0.00045   0.00093   0.00029   0.00122   2.62246
   R17        2.68496  -0.00109   0.00128  -0.00275  -0.00147   2.68349
   R18        2.64849  -0.00055  -0.00094  -0.00069  -0.00163   2.64686
   R19        2.05240   0.00015  -0.00038   0.00059   0.00021   2.05260
   R20        2.65962  -0.00076   0.00118  -0.00188  -0.00070   2.65892
   R21        2.05233   0.00006   0.00017   0.00005   0.00022   2.05255
   R22        2.62274   0.00041  -0.00122   0.00115  -0.00007   2.62267
   R23        2.05088   0.00014  -0.00031   0.00052   0.00021   2.05109
   R24        2.65854  -0.00047   0.00297  -0.00216   0.00081   2.65936
   R25        2.05194   0.00013  -0.00057   0.00065   0.00008   2.05202
   R26        2.06890   0.00015  -0.00009   0.00043   0.00034   2.06924
   R27        2.07005   0.00008  -0.00016   0.00029   0.00013   2.07018
   R28        2.06802  -0.00002  -0.00036   0.00013  -0.00022   2.06780
   R29        2.07022   0.00009  -0.00013   0.00029   0.00017   2.07038
   R30        2.06889   0.00014  -0.00008   0.00040   0.00032   2.06921
   R31        2.06814  -0.00002  -0.00041   0.00015  -0.00026   2.06788
   R32        2.73819  -0.00163   0.00707  -0.00790  -0.00082   2.73737
   R33        2.65549   0.00099   0.00988  -0.00185   0.00803   2.66353
   R34        2.74580   0.00046   0.00325  -0.00091   0.00235   2.74815
   R35        2.52136  -0.00000  -0.00121   0.00039  -0.00080   2.52056
   R36        2.64092  -0.00007  -0.01097   0.00452  -0.00645   2.63447
   R37        2.04860  -0.00014  -0.00165   0.00037  -0.00128   2.04731
   R38        2.73423  -0.00039   0.00383  -0.00271   0.00111   2.73534
   R39        2.52195   0.00022  -0.00117   0.00088  -0.00030   2.52165
   R40        2.65141   0.00094   0.00807  -0.00098   0.00708   2.65849
   R41        2.04828  -0.00000  -0.00140   0.00063  -0.00077   2.04751
   R42        2.75464  -0.00045  -0.00595   0.00054  -0.00540   2.74923
   R43        3.10343  -0.00030  -0.00030  -0.00058  -0.00088   3.10254
   R44        3.09793   0.00011  -0.00256   0.00155  -0.00103   3.09690
   R45        2.67869  -0.00037   0.00451  -0.00268   0.00184   2.68052
   R46        2.67933   0.00039   0.00530  -0.00124   0.00406   2.68339
   R47        2.61885   0.00006  -0.00089   0.00022  -0.00067   2.61818
   R48        2.04402   0.00020  -0.00208   0.00163  -0.00045   2.04357
   R49        2.61497  -0.00006  -0.00199   0.00052  -0.00147   2.61350
   R50        2.05047  -0.00008  -0.00132   0.00040  -0.00092   2.04955
   R51        2.65928  -0.00052   0.00056  -0.00124  -0.00068   2.65860
   R52        2.05303   0.00019  -0.00041   0.00070   0.00029   2.05332
   R53        2.66266  -0.00037   0.00094  -0.00095  -0.00002   2.66264
   R54        2.05313   0.00014  -0.00036   0.00054   0.00018   2.05331
   R55        2.84309  -0.00007  -0.00116  -0.00002  -0.00118   2.84191
   R56        2.06927  -0.00005  -0.00047   0.00005  -0.00042   2.06885
   R57        2.07394   0.00007  -0.00068   0.00051  -0.00017   2.07378
   R58        2.92377   0.00048   0.00322   0.00054   0.00376   2.92753
   R59        2.08772   0.00001   0.00010  -0.00004   0.00006   2.08779
   R60        2.07254  -0.00004  -0.00021  -0.00001  -0.00023   2.07231
   R61        2.75725  -0.00023  -0.00240   0.00019  -0.00220   2.75505
   R62        1.92574  -0.00017  -0.00096   0.00007  -0.00088   1.92486
   R63        1.92358  -0.00013  -0.00076   0.00005  -0.00071   1.92287
    A1        2.11642   0.00057   0.00374   0.00051   0.00426   2.12068
    A2        2.08097  -0.00078  -0.00376  -0.00257  -0.00634   2.07464
    A3        2.08560   0.00022  -0.00007   0.00220   0.00212   2.08772
    A4        2.07148  -0.00101  -0.00920   0.00082  -0.00843   2.06305
    A5        2.12229  -0.00203   0.00762  -0.01277  -0.00522   2.11706
    A6        2.08904   0.00305   0.00148   0.01259   0.01399   2.10303
    A7        2.09811   0.00036   0.00525  -0.00114   0.00410   2.10221
    A8        2.08807   0.00015  -0.00199   0.00267   0.00067   2.08873
    A9        2.09554  -0.00050  -0.00365  -0.00116  -0.00483   2.09071
   A10        2.09702   0.00042   0.00124   0.00119   0.00241   2.09943
   A11        2.25313  -0.00010   0.00432  -0.00218   0.00215   2.25528
   A12        1.93301  -0.00033  -0.00556   0.00097  -0.00457   1.92843
   A13        2.10287  -0.00072  -0.00356  -0.00121  -0.00480   2.09807
   A14        1.89915   0.00017   0.00334  -0.00079   0.00256   1.90171
   A15        2.28116   0.00055   0.00022   0.00199   0.00222   2.28338
   A16        2.08014   0.00038   0.00244   0.00011   0.00253   2.08267
   A17        2.09423  -0.00009   0.00209  -0.00106   0.00103   2.09526
   A18        2.10880  -0.00030  -0.00453   0.00097  -0.00357   2.10524
   A19        1.75804   0.00024   0.00386  -0.00036   0.00350   1.76154
   A20        1.94423  -0.00009  -0.00091  -0.00011  -0.00101   1.94322
   A21        1.94558  -0.00003   0.00006   0.00055   0.00061   1.94619
   A22        1.94406  -0.00011  -0.00121  -0.00029  -0.00149   1.94257
   A23        1.94440  -0.00004  -0.00087   0.00067  -0.00021   1.94419
   A24        1.92276   0.00004  -0.00065  -0.00043  -0.00108   1.92168
   A25        2.25063  -0.00002   0.00298  -0.00117   0.00181   2.25244
   A26        1.94092  -0.00014  -0.00353   0.00083  -0.00270   1.93822
   A27        2.09163   0.00017   0.00055   0.00034   0.00089   2.09252
   A28        2.07363   0.00020  -0.00013   0.00072   0.00059   2.07422
   A29        2.11640  -0.00007   0.00220  -0.00123   0.00097   2.11738
   A30        2.09315  -0.00013  -0.00206   0.00050  -0.00156   2.09159
   A31        2.11820  -0.00031   0.00044  -0.00122  -0.00078   2.11743
   A32        2.08337   0.00021   0.00061   0.00059   0.00120   2.08457
   A33        2.08162   0.00009  -0.00105   0.00062  -0.00043   2.08119
   A34        2.10147   0.00001   0.00011  -0.00001   0.00010   2.10157
   A35        2.08757  -0.00018  -0.00304   0.00037  -0.00267   2.08489
   A36        2.09415   0.00017   0.00293  -0.00035   0.00258   2.09672
   A37        2.06654   0.00028   0.00044   0.00082   0.00126   2.06780
   A38        2.10416   0.00005   0.00182  -0.00022   0.00159   2.10576
   A39        2.11249  -0.00033  -0.00226  -0.00060  -0.00286   2.10963
   A40        1.89352   0.00006   0.00185  -0.00062   0.00122   1.89474
   A41        2.27477   0.00029  -0.00043   0.00127   0.00084   2.27562
   A42        2.11490  -0.00034  -0.00141  -0.00065  -0.00206   2.11283
   A43        1.92530   0.00012  -0.00095   0.00131   0.00036   1.92566
   A44        1.93034   0.00004  -0.00068   0.00066  -0.00002   1.93032
   A45        1.94607  -0.00013   0.00020  -0.00102  -0.00082   1.94525
   A46        1.88001  -0.00004  -0.00007   0.00016   0.00009   1.88010
   A47        1.88893  -0.00001   0.00049  -0.00040   0.00010   1.88903
   A48        1.89129   0.00001   0.00106  -0.00074   0.00032   1.89161
   A49        1.93026   0.00005  -0.00043   0.00057   0.00013   1.93039
   A50        1.92595   0.00012  -0.00080   0.00121   0.00042   1.92637
   A51        1.94636  -0.00014   0.00013  -0.00100  -0.00086   1.94549
   A52        1.87866  -0.00005  -0.00040   0.00022  -0.00019   1.87847
   A53        1.89206   0.00001   0.00103  -0.00072   0.00030   1.89236
   A54        1.88861   0.00000   0.00050  -0.00029   0.00022   1.88883
   A55        2.16484  -0.00210   0.01480  -0.01647  -0.00175   2.16309
   A56        2.11181   0.00331  -0.00565   0.01718   0.01144   2.12325
   A57        2.00653  -0.00121  -0.00915  -0.00060  -0.00977   1.99675
   A58        2.11381   0.00094   0.00209   0.00273   0.00479   2.11860
   A59        2.19485  -0.00147  -0.00005  -0.00566  -0.00580   2.18905
   A60        1.97313   0.00055  -0.00264   0.00403   0.00133   1.97446
   A61        2.16103   0.00047   0.00638  -0.00104   0.00531   2.16634
   A62        2.07369  -0.00022  -0.00415   0.00136  -0.00283   2.07086
   A63        2.04627  -0.00025  -0.00291   0.00025  -0.00271   2.04356
   A64        2.11921   0.00076   0.00357   0.00116   0.00473   2.12394
   A65        1.97628  -0.00079   0.00092  -0.00377  -0.00289   1.97340
   A66        2.18679   0.00003  -0.00481   0.00273  -0.00210   2.18469
   A67        2.15722   0.00061   0.00412   0.00094   0.00502   2.16225
   A68        2.05155  -0.00031  -0.00052  -0.00138  -0.00193   2.04962
   A69        2.07280  -0.00030  -0.00410   0.00064  -0.00349   2.06931
   A70        2.00813  -0.00156  -0.00726  -0.00267  -0.00996   1.99817
   A71        2.15716   0.00026   0.00898  -0.00352   0.00544   2.16260
   A72        2.11787   0.00130  -0.00173   0.00628   0.00453   2.12240
   A73        1.87093  -0.00020   0.00149  -0.00187  -0.00038   1.87055
   A74        1.87038   0.00038   0.00003   0.00189   0.00187   1.87225
   A75        1.73403   0.00007   0.00025  -0.00031  -0.00011   1.73392
   A76        2.13139  -0.00020   0.00477  -0.00339   0.00136   2.13275
   A77        2.09325   0.00128   0.00105   0.00495   0.00598   2.09923
   A78        2.05820  -0.00107  -0.00582  -0.00134  -0.00716   2.05104
   A79        2.10378   0.00061   0.00216   0.00150   0.00366   2.10744
   A80        2.09137  -0.00048  -0.00193  -0.00135  -0.00329   2.08808
   A81        2.08768  -0.00013  -0.00035  -0.00001  -0.00037   2.08731
   A82        2.11028   0.00049   0.00297   0.00064   0.00360   2.11388
   A83        2.09302  -0.00001  -0.00081   0.00108   0.00026   2.09328
   A84        2.07881  -0.00047  -0.00244  -0.00150  -0.00395   2.07486
   A85        2.11969   0.00024   0.00158  -0.00000   0.00157   2.12126
   A86        2.08160  -0.00009   0.00153  -0.00100   0.00054   2.08214
   A87        2.08183  -0.00015  -0.00312   0.00101  -0.00211   2.07972
   A88        2.11389   0.00022   0.00095   0.00043   0.00137   2.11526
   A89        2.08696  -0.00004   0.00224  -0.00118   0.00107   2.08803
   A90        2.08233  -0.00017  -0.00319   0.00075  -0.00243   2.07990
   A91        2.06019  -0.00048  -0.00190  -0.00106  -0.00298   2.05721
   A92        2.11702   0.00022   0.00187   0.00001   0.00189   2.11890
   A93        2.10555   0.00025   0.00004   0.00096   0.00100   2.10655
   A94        1.92886   0.00014   0.00187   0.00068   0.00255   1.93140
   A95        1.91699  -0.00001   0.00090  -0.00047   0.00042   1.91742
   A96        1.96523   0.00004   0.00038  -0.00015   0.00023   1.96547
   A97        1.87207   0.00005   0.00219  -0.00042   0.00176   1.87383
   A98        1.87903  -0.00017  -0.00320   0.00017  -0.00303   1.87600
   A99        1.89885  -0.00006  -0.00215   0.00018  -0.00197   1.89688
   A100       1.90066  -0.00018  -0.00195  -0.00061  -0.00256   1.89809
   A101       1.89972  -0.00010  -0.00224   0.00131  -0.00094   1.89878
   A102       1.90925   0.00039  -0.00094   0.00215   0.00121   1.91046
   A103       1.86156   0.00005   0.00034  -0.00044  -0.00012   1.86145
   A104       2.00696  -0.00015   0.00340  -0.00293   0.00047   2.00743
   A105       1.88285  -0.00002   0.00119   0.00068   0.00186   1.88470
   A106       1.92779   0.00008   0.00283  -0.00042   0.00239   1.93018
   A107       1.92740  -0.00001   0.00314  -0.00135   0.00177   1.92918
   A108       1.86018  -0.00002   0.00159  -0.00045   0.00112   1.86130
    D1       -0.00478  -0.00021   0.00487  -0.01523  -0.01034  -0.01512
    D2        3.10734   0.00021   0.00042   0.01013   0.01041   3.11775
    D3       -3.12530  -0.00034   0.01072  -0.02331  -0.01255  -3.13785
    D4       -0.01318   0.00008   0.00627   0.00205   0.00820  -0.00498
    D5        0.01936   0.00001   0.00069   0.00077   0.00143   0.02079
    D6       -3.11690  -0.00003   0.00406  -0.00268   0.00139  -3.11552
    D7        3.13982   0.00012  -0.00520   0.00882   0.00356  -3.13980
    D8        0.00356   0.00009  -0.00183   0.00536   0.00352   0.00708
    D9       -0.01736   0.00031  -0.00816   0.02126   0.01309  -0.00427
   D10       -3.10068   0.00025   0.00059   0.01385   0.01446  -3.08621
   D11       -3.13006  -0.00002  -0.00388  -0.00317  -0.00716  -3.13721
   D12        0.06982  -0.00008   0.00487  -0.01058  -0.00579   0.06403
   D13        0.47866  -0.00086  -0.02830  -0.06147  -0.08984   0.38882
   D14       -2.66876  -0.00050  -0.03210  -0.03643  -0.06853  -2.73729
   D15       -2.69270  -0.00050  -0.03293  -0.03606  -0.06899  -2.76169
   D16        0.44307  -0.00014  -0.03673  -0.01102  -0.04768   0.39538
   D17        0.02419  -0.00018   0.00590  -0.01286  -0.00697   0.01722
   D18       -3.10900  -0.00017   0.00530  -0.01050  -0.00520  -3.11420
   D19        3.10726  -0.00010  -0.00284  -0.00528  -0.00816   3.09910
   D20       -0.02594  -0.00008  -0.00344  -0.00292  -0.00639  -0.03232
   D21       -0.00938  -0.00002  -0.00023  -0.00197  -0.00219  -0.01157
   D22        3.13304   0.00007  -0.00207   0.00463   0.00257   3.13560
   D23        3.12524  -0.00004   0.00031  -0.00395  -0.00363   3.12161
   D24       -0.01552   0.00006  -0.00153   0.00266   0.00112  -0.01440
   D25       -3.13425  -0.00005   0.00216  -0.00372  -0.00156  -3.13581
   D26        1.08561  -0.00001   0.00183  -0.00314  -0.00132   1.08429
   D27       -1.06997   0.00002   0.00330  -0.00291   0.00038  -1.06958
   D28        0.01511  -0.00004   0.00158  -0.00154   0.00005   0.01516
   D29       -2.04822   0.00000   0.00125  -0.00096   0.00029  -2.04792
   D30        2.07939   0.00004   0.00272  -0.00073   0.00199   2.08139
   D31       -0.01254   0.00012  -0.00305   0.00806   0.00502  -0.00752
   D32        3.12368   0.00016  -0.00646   0.01154   0.00508   3.12876
   D33        3.12802   0.00000  -0.00075  -0.00019  -0.00092   3.12710
   D34       -0.01895   0.00004  -0.00415   0.00329  -0.00086  -0.01981
   D35        0.00882  -0.00004   0.00079  -0.00267  -0.00188   0.00695
   D36       -3.13287  -0.00005   0.00108  -0.00291  -0.00183  -3.13470
   D37       -3.13183   0.00006  -0.00130   0.00484   0.00356  -3.12828
   D38        0.00966   0.00006  -0.00101   0.00460   0.00360   0.01326
   D39        3.13220   0.00003  -0.00083   0.00119   0.00036   3.13256
   D40       -0.00969   0.00001  -0.00115  -0.00010  -0.00125  -0.01094
   D41       -1.08753   0.00001  -0.00028   0.00075   0.00047  -1.08706
   D42        2.05376  -0.00001  -0.00060  -0.00055  -0.00115   2.05261
   D43        1.06705  -0.00005  -0.00264   0.00047  -0.00217   1.06488
   D44       -2.07484  -0.00007  -0.00296  -0.00083  -0.00379  -2.07863
   D45        3.07022   0.00006  -0.00006  -0.00086  -0.00092   3.06930
   D46       -1.13490   0.00011  -0.00119   0.00059  -0.00060  -1.13549
   D47        0.97085   0.00007  -0.00017  -0.00057  -0.00075   0.97011
   D48        1.12239  -0.00011  -0.00356  -0.00019  -0.00374   1.11865
   D49       -3.08273  -0.00006  -0.00468   0.00126  -0.00342  -3.08615
   D50       -0.97698  -0.00010  -0.00367   0.00009  -0.00357  -0.98055
   D51       -1.04446  -0.00002  -0.00110  -0.00053  -0.00164  -1.04610
   D52        1.03360   0.00004  -0.00223   0.00091  -0.00131   1.03229
   D53        3.13935  -0.00000  -0.00121  -0.00025  -0.00146   3.13789
   D54        1.13746  -0.00015   0.00135  -0.00182  -0.00047   1.13699
   D55       -3.06899  -0.00010   0.00006  -0.00042  -0.00036  -3.06934
   D56       -0.96940  -0.00011   0.00025  -0.00063  -0.00037  -0.96977
   D57        3.08627   0.00010   0.00559  -0.00156   0.00403   3.09030
   D58       -1.12018   0.00015   0.00431  -0.00016   0.00415  -1.11603
   D59        0.97940   0.00014   0.00450  -0.00036   0.00414   0.98354
   D60       -1.03026  -0.00004   0.00295  -0.00176   0.00118  -1.02908
   D61        1.04648   0.00001   0.00166  -0.00036   0.00130   1.04778
   D62       -3.13712   0.00000   0.00185  -0.00057   0.00128  -3.13584
   D63        3.13993  -0.00002  -0.00005  -0.00142  -0.00148   3.13846
   D64       -0.00015  -0.00002  -0.00019  -0.00135  -0.00154  -0.00169
   D65       -0.00134   0.00000   0.00029  -0.00003   0.00026  -0.00108
   D66       -3.14142   0.00000   0.00016   0.00004   0.00020  -3.14122
   D67        0.00118   0.00002   0.00029   0.00169   0.00198   0.00315
   D68       -3.14032   0.00003   0.00003   0.00190   0.00193  -3.13839
   D69       -3.14068   0.00000   0.00000   0.00053   0.00053  -3.14015
   D70        0.00100   0.00001  -0.00026   0.00074   0.00049   0.00149
   D71        0.00093  -0.00001  -0.00010  -0.00048  -0.00059   0.00035
   D72       -3.14010  -0.00001  -0.00009  -0.00025  -0.00034  -3.14044
   D73        3.14104  -0.00001   0.00004  -0.00055  -0.00052   3.14052
   D74        0.00001  -0.00000   0.00005  -0.00032  -0.00027  -0.00027
   D75       -0.00014   0.00000  -0.00014   0.00030   0.00015   0.00001
   D76        3.14120   0.00001  -0.00021   0.00040   0.00019   3.14139
   D77        3.14089  -0.00000  -0.00015   0.00006  -0.00009   3.14080
   D78       -0.00096   0.00000  -0.00022   0.00016  -0.00006  -0.00101
   D79       -0.00022   0.00001   0.00018   0.00040   0.00059   0.00037
   D80        3.14063   0.00001  -0.00039   0.00034  -0.00005   3.14058
   D81       -3.14156   0.00001   0.00025   0.00030   0.00055  -3.14101
   D82       -0.00071   0.00000  -0.00031   0.00023  -0.00008  -0.00079
   D83        3.14150  -0.00001  -0.00031  -0.00066  -0.00096   3.14054
   D84       -0.00020  -0.00002   0.00001  -0.00092  -0.00091  -0.00111
   D85        0.00066  -0.00000   0.00026  -0.00059  -0.00033   0.00033
   D86       -3.14105  -0.00001   0.00058  -0.00086  -0.00027  -3.14132
   D87       -3.12842   0.00023   0.00591   0.01101   0.01677  -3.11165
   D88        0.07389  -0.00008   0.02243  -0.01313   0.00922   0.08311
   D89        0.01868  -0.00012   0.00950  -0.01272  -0.00321   0.01547
   D90       -3.06219  -0.00043   0.02602  -0.03687  -0.01076  -3.07296
   D91        3.11992  -0.00014  -0.00812  -0.00534  -0.01354   3.10638
   D92        0.05157  -0.00020   0.00525  -0.01492  -0.00973   0.04184
   D93       -0.02700   0.00019  -0.01159   0.01750   0.00589  -0.02111
   D94       -3.09535   0.00013   0.00178   0.00791   0.00970  -3.08565
   D95        0.00581  -0.00001   0.00119  -0.00191  -0.00076   0.00505
   D96       -3.09257   0.00001   0.01024  -0.00502   0.00523  -3.08734
   D97        3.09386   0.00019  -0.01335   0.01907   0.00567   3.09953
   D98       -0.00453   0.00021  -0.00429   0.01596   0.01167   0.00715
   D99        3.09085   0.00039  -0.01624   0.02379   0.00751   3.09835
   D100       0.00575   0.00008  -0.00095   0.00134   0.00036   0.00611
   D101       0.01021  -0.00010   0.00254  -0.00715  -0.00464   0.00557
   D102      -3.06949  -0.00008   0.01377  -0.01108   0.00272  -3.06677
   D103       3.07962  -0.00004  -0.01068   0.00234  -0.00840   3.07122
   D104      -0.00008  -0.00002   0.00055  -0.00159  -0.00105  -0.00113
   D105      -0.02262   0.00010  -0.01015   0.01244   0.00231  -0.02031
   D106       3.12640  -0.00010  -0.00823  -0.00220  -0.01039   3.11601
   D107       3.07032   0.00006  -0.02021   0.01577  -0.00443   3.06589
   D108      -0.06385  -0.00014  -0.01829   0.00113  -0.01713  -0.08097
   D109       0.00085  -0.00039   0.00722  -0.02466  -0.01743  -0.01658
   D110      -3.09556  -0.00039   0.01652  -0.02785  -0.01139  -3.10695
   D111       0.01544  -0.00005   0.00862  -0.00842   0.00023   0.01567
   D112      -3.13340   0.00014   0.00678   0.00582   0.01261  -3.12078
   D113       3.09443  -0.00007  -0.00265  -0.00451  -0.00714   3.08729
   D114      -0.05440   0.00012  -0.00449   0.00972   0.00524  -0.04917
   D115      -0.50448   0.00036   0.03332   0.01694   0.05030  -0.45418
   D116       2.66589   0.00023   0.03359   0.00780   0.04141   2.70730
   D117       2.64499   0.00016   0.03536   0.00145   0.03680   2.68178
   D118      -0.46782   0.00003   0.03564  -0.00769   0.02790  -0.43992
   D119      -0.00475  -0.00028   0.00459  -0.01398  -0.00937  -0.01412
   D120       0.00222   0.00040  -0.00700   0.02289   0.01592   0.01813
   D121      -3.10327  -0.00010  -0.00084  -0.00427  -0.00509  -3.10836
   D122       0.00957  -0.00002  -0.00651   0.00160  -0.00489   0.00468
   D123       0.01009   0.00007  -0.00101   0.00479   0.00377   0.01387
   D124       3.12293   0.00014  -0.00668   0.01066   0.00397   3.12690
   D125       3.12590  -0.00003   0.00398  -0.00182   0.00216   3.12807
   D126      -0.06597   0.00001  -0.00339   0.00342   0.00003  -0.06594
   D127       0.01190  -0.00016   0.00408  -0.01054  -0.00645   0.00545
   D128       3.10321  -0.00013  -0.00329  -0.00529  -0.00859   3.09462
   D129      -0.01921   0.00003  -0.00147   0.00225   0.00078  -0.01843
   D130       3.11062   0.00004  -0.00339   0.00354   0.00015   3.11077
   D131      -3.13211  -0.00003   0.00421  -0.00358   0.00063  -3.13148
   D132      -0.00228  -0.00003   0.00228  -0.00229  -0.00000  -0.00228
   D133      -0.02525   0.00015  -0.00475   0.00931   0.00456  -0.02069
   D134       3.11770   0.00009  -0.00513   0.00685   0.00171   3.11941
   D135      -3.11696   0.00010   0.00253   0.00403   0.00656  -3.11041
   D136       0.02599   0.00004   0.00214   0.00157   0.00371   0.02969
   D137       0.00616  -0.00006   0.00090  -0.00372  -0.00282   0.00334
   D138      -3.10418  -0.00002   0.00073  -0.00042   0.00031  -3.10387
   D139      -3.12367  -0.00006   0.00280  -0.00501  -0.00221  -3.12587
   D140       0.04918  -0.00003   0.00263  -0.00170   0.00093   0.05010
   D141       0.01608  -0.00004   0.00219  -0.00208   0.00010   0.01618
   D142       3.12663  -0.00008   0.00239  -0.00538  -0.00299   3.12364
   D143      -3.12687   0.00001   0.00258   0.00037   0.00294  -3.12393
   D144      -0.01632  -0.00003   0.00278  -0.00293  -0.00015  -0.01647
   D145      -2.62843  -0.00013  -0.00493  -0.00476  -0.00969  -2.63812
   D146      -0.56631   0.00001  -0.00055  -0.00515  -0.00570  -0.57201
   D147       1.55271  -0.00005  -0.00241  -0.00535  -0.00776   1.54495
   D148       0.54522  -0.00008  -0.00506  -0.00133  -0.00640   0.53882
   D149       2.60734   0.00006  -0.00069  -0.00172  -0.00241   2.60493
   D150      -1.55683   0.00001  -0.00255  -0.00193  -0.00447  -1.56130
   D151      -1.02043   0.00004  -0.01152   0.00232  -0.00921  -1.02963
   D152       1.00268  -0.00005  -0.01343   0.00218  -0.01125   0.99144
   D153       3.05605   0.00009  -0.01383   0.00497  -0.00886   3.04719
   D154       3.13229  -0.00005  -0.01190   0.00144  -0.01046   3.12183
   D155      -1.12778  -0.00014  -0.01381   0.00130  -0.01250  -1.14028
   D156       0.92559   0.00000  -0.01421   0.00409  -0.01012   0.91547
   D157       1.10888   0.00002  -0.01165   0.00175  -0.00990   1.09898
   D158       3.13199  -0.00008  -0.01355   0.00161  -0.01194   3.12005
   D159      -1.09782   0.00007  -0.01396   0.00440  -0.00956  -1.10738
   D160       1.22550   0.00012   0.01704   0.01139   0.02841   1.25391
   D161      -3.00443   0.00013   0.02262   0.00974   0.03237  -2.97206
   D162      -0.91922   0.00016   0.01788   0.01263   0.03050  -0.88871
   D163       1.13404   0.00018   0.02347   0.01098   0.03446   1.16850
   D164      -2.99376   0.00020   0.01451   0.01454   0.02903  -2.96473
   D165      -0.94050   0.00022   0.02009   0.01289   0.03299  -0.90751
         Item               Value     Threshold  Converged?
 Maximum Force            0.003312     0.000450     NO 
 RMS     Force            0.000455     0.000300     NO 
 Maximum Displacement     0.299969     0.001800     NO 
 RMS     Displacement     0.051469     0.001200     NO 
 Predicted change in Energy=-2.889632D-04
 Lowest energy point so far.  Saving SCF results.
 GradGradGradGradGradGradGradGradGradGradGradGradGradGradGradGradGradGrad

 Leave Link  103 at Thu Mar 14 11:34:11 2024, MaxMem= 32212254720 cpu:               2.2 elap:               0.1
 (Enter /home/<user>/g16/l202.exe)
 Stoichiometry    C29H25N3S(1+,2)
 Framework group  C1[X(C29H25N3S)]
 Deg. of freedom   168
 Full point group                 C1      NOp   1
 RotChk:  IX=0 Diff= 2.22D-02
 Largest Abelian subgroup         C1      NOp   1
 Largest concise Abelian subgroup C1      NOp   1
                         Standard orientation:                         
 ---------------------------------------------------------------------
 Center     Atomic      Atomic             Coordinates (Angstroms)
 Number     Number       Type             X           Y           Z
 ---------------------------------------------------------------------
      1          6           0       -2.424957    1.596515   -0.404346
      2          6           0       -1.780566    0.344548   -0.155544
      3          6           0       -2.600716   -0.803713    0.073453
      4          6           0       -3.969493   -0.695467    0.057845
      5          6           0       -4.588600    0.561345   -0.208141
      6          6           0       -3.799639    1.704578   -0.443194
      7          1           0       -1.815076    2.471105   -0.582374
      8          1           0       -2.138169   -1.754227    0.315538
      9          1           0       -4.263750    2.662030   -0.658038
     10          6           0       -5.026334   -1.770266    0.306427
     11          6           0       -6.308829   -0.962743    0.124052
     12          6           0       -7.627880   -1.384571    0.213544
     13          6           0       -8.651367   -0.450745    0.007920
     14          6           0       -8.365232    0.895277   -0.285540
     15          6           0       -7.050468    1.329949   -0.378289
     16          6           0       -6.018682    0.395248   -0.172939
     17          1           0       -7.876167   -2.417528    0.439739
     18          1           0       -9.687204   -0.770211    0.076745
     19          1           0       -9.182030    1.593274   -0.439521
     20          1           0       -6.825194    2.367629   -0.605485
     21          6           0       -4.921374   -2.341896    1.739623
     22          1           0       -5.730406   -3.056241    1.924522
     23          1           0       -3.971804   -2.871163    1.874895
     24          1           0       -4.985249   -1.549985    2.492045
     25          6           0       -4.927256   -2.913284   -0.730262
     26          1           0       -3.979092   -3.451325   -0.621469
     27          1           0       -5.737090   -3.634911   -0.580593
     28          1           0       -4.993249   -2.532331   -1.753960
     29          6           0       -0.337154    0.230525   -0.144682
     30          6           0        0.560271    1.343858    0.086465
     31          6           0        0.309483   -0.999166   -0.382056
     32          6           0        2.004013    1.173374    0.048802
     33          6           0        1.693696   -1.159620   -0.423634
     34          1           0       -0.295017   -1.867401   -0.615479
     35          6           0        2.611108   -0.111445   -0.226655
     36          1           0        2.075028   -2.139575   -0.684861
     37          7           0        0.187321    2.584238    0.404968
     38          7           0        2.670327    2.289870    0.348954
     39         16           0        1.557781    3.460546    0.627255
     40          6           0        4.047204   -0.330158   -0.306217
     41          6           0        4.951239    0.705484   -0.655829
     42          6           0        4.590361   -1.617692   -0.054015
     43          6           0        6.309726    0.454372   -0.760802
     44          1           0        4.573246    1.696104   -0.868524
     45          6           0        5.951192   -1.848751   -0.140343
     46          1           0        3.940323   -2.427563    0.258812
     47          6           0        6.844113   -0.821754   -0.505411
     48          1           0        6.977597    1.258169   -1.058273
     49          1           0        6.343024   -2.838440    0.077842
     50          6           0        8.324170   -1.079511   -0.573489
     51          1           0        8.522747   -2.118797   -0.854569
     52          1           0        8.779037   -0.440140   -1.340676
     53          6           0        9.037051   -0.818145    0.776865
     54          1           0        8.866940    0.233214    1.070654
     55          1           0        8.569179   -1.439996    1.549507
     56          7           0       10.437350   -1.209782    0.670676
     57          1           0       10.950465   -0.550660    0.087751
     58          1           0       10.881942   -1.196916    1.585856
 ---------------------------------------------------------------------
 Rotational constants (GHZ):           0.3704251           0.0394642           0.0363764
 Leave Link  202 at Thu Mar 14 11:34:11 2024, MaxMem= 32212254720 cpu:               0.1 elap:               0.0
 (Enter /home/<user>/g16/l301.exe)
 Standard basis: 6-31G(d) (6D, 7F)
 Ernie: Thresh=  0.10000D-02 Tol=  0.10000D-05 Strict=F.
 There are   549 symmetry adapted cartesian basis functions of A   symmetry.
 There are   549 symmetry adapted basis functions of A   symmetry.
   549 basis functions,  1048 primitive gaussians,   549 cartesian basis functions
   118 alpha electrons      117 beta electrons
       nuclear repulsion energy      3079.9872968980 Hartrees.
 IExCor=  402 DFT=T Ex+Corr=B3LYP ExCW=0 ScaHFX=  0.200000
 ScaDFX=  0.800000  0.720000  1.000000  0.810000 ScalE2=  1.000000  1.000000
 IRadAn=      5 IRanWt=     -1 IRanGd=            0 ICorTp=0 IEmpDi=  4
 NAtoms=   58 NActive=   58 NUniq=   58 SFac= 1.00D+00 NAtFMM=   60 NAOKFM=F Big=F
 Integral buffers will be    131072 words long.
 Raffenetti 2 integral format.
 Two-electron integral symmetry is turned on.
 Leave Link  301 at Thu Mar 14 11:34:11 2024, MaxMem= 32212254720 cpu:               0.8 elap:               0.0
 (Enter /home/<user>/g16/l302.exe)
 NPDir=0 NMtPBC=     1 NCelOv=     1 NCel=       1 NClECP=     1 NCelD=      1
         NCelK=      1 NCelE2=     1 NClLst=     1 CellRange=     0.0.
 One-electron integrals computed using PRISM.
 One-electron integral symmetry used in STVInt
 NBasis=   549 RedAO= T EigKep=  2.66D-04  NBF=   549
 NBsUse=   549 1.00D-06 EigRej= -1.00D+00 NBFU=   549
 Precomputing XC quadrature grid using
 IXCGrd= 4 IRadAn=           5 IRanWt=          -1 IRanGd=           0 AccXCQ= 0.00D+00.
 Generated NRdTot=       0 NPtTot=           0 NUsed=           0 NTot=          32
 NSgBfM=   512   512   512   512   512 MxSgAt=    58 MxSgA2=    58.
 Leave Link  302 at Thu Mar 14 11:34:12 2024, MaxMem= 32212254720 cpu:              14.3 elap:               0.5
 (Enter /home/<user>/g16/l303.exe)
 DipDrv:  MaxL=1.
 Leave Link  303 at Thu Mar 14 11:34:12 2024, MaxMem= 32212254720 cpu:               1.4 elap:               0.1
 (Enter /home/<user>/g16/l401.exe)
 Initial guess from the checkpoint file:  "FBTP_H0opt.chk"
 B after Tr=     0.000000    0.000000    0.000000
         Rot=    0.999999   -0.001223    0.000158    0.000130 Ang=  -0.14 deg.
 Guess basis will be translated and rotated to current coordinates.
 JPrj=2 DoOrth=T DoCkMO=T.
 Initial guess <Sx>= 0.0000 <Sy>= 0.0000 <Sz>= 0.5000 <S**2>= 0.7623 S= 0.5061
 Generating alternative initial guess.
 ExpMin= 1.17D-01 ExpMax= 2.19D+04 ExpMxC= 3.30D+03 IAcc=3 IRadAn=         5 AccDes= 0.00D+00
 Harris functional with IExCor=  402 and IRadAn=       5 diagonalized for initial guess.
 HarFok:  IExCor=  402 AccDes= 0.00D+00 IRadAn=         5 IDoV= 1 UseB2=F ITyADJ=14
 ICtDFT=  3500011 ScaDFX=  1.000000  1.000000  1.000000  1.000000
 FoFCou: FMM=F IPFlag=           0 FMFlag=      100000 FMFlg1=           0
         NFxFlg=           0 DoJE=T BraDBF=F KetDBF=T FulRan=T
         wScrn=  0.000000 ICntrl=       500 IOpCl=  0 I1Cent=   200000004 NGrid=           0
         NMat0=    1 NMatS0=      1 NMatT0=    0 NMatD0=    1 NMtDS0=    0 NMtDT0=    0
 Petite list used in FoFCou.
 Harris En= -1682.30436305676    
 Leave Link  401 at Thu Mar 14 11:34:13 2024, MaxMem= 32212254720 cpu:              46.7 elap:               1.6
 (Enter /home/<user>/g16/l502.exe)
 Integral symmetry usage will be decided dynamically.
 UHF open shell SCF:
 Using DIIS extrapolation, IDIIS=  1040.
 NGot= 32212254720 LenX= 32211628124 LenY= 32211326174
 Requested convergence on RMS density matrix=1.00D-08 within 128 cycles.
 Requested convergence on MAX density matrix=1.00D-06.
 Requested convergence on             energy=1.00D-06.
 No special actions if energy rises.
 Fock matrices will be formed incrementally for  20 cycles.
 Integral accuracy reduced to 1.0D-05 until final iterations.

 Cycle   1  Pass 0  IDiag  1:
 FoFJK:  IHMeth= 1 ICntrl=       0 DoSepK=F KAlg= 0 I1Cent=           0 FoldK=F
 IRaf= 550000000 NMat=       1 IRICut=       1 DoRegI=T DoRafI=F ISym2E= 0 IDoP0=0 IntGTp=1.
 FoFCou: FMM=F IPFlag=           0 FMFlag=      100000 FMFlg1=           0
         NFxFlg=           0 DoJE=F BraDBF=F KetDBF=F FulRan=T
         wScrn=  0.000000 ICntrl=         0 IOpCl=  1 I1Cent=           0 NGrid=           0
         NMat0=    1 NMatS0=      1 NMatT0=    0 NMatD0=    1 NMtDS0=    0 NMtDT0=    0
 Symmetry not used in FoFCou.
 E= -1682.35727978579    
 DIIS: error= 1.76D-03 at cycle   1 NSaved=   1.
 NSaved= 1 IEnMin= 1 EnMin= -1682.35727978579     IErMin= 1 ErrMin= 1.76D-03
 ErrMax= 1.76D-03  0.00D+00 EMaxC= 1.00D-01 BMatC= 1.86D-02 BMatP= 1.86D-02
 IDIUse=3 WtCom= 9.82D-01 WtEn= 1.76D-02
 Coeff-Com:  0.100D+01
 Coeff-En:   0.100D+01
 Coeff:      0.100D+01
 Gap=     1.961 Goal=   None    Shift=    0.000
 Gap=     1.949 Goal=   None    Shift=    0.000
 GapD=    1.949 DampG=2.000 DampE=1.000 DampFc=2.0000 IDamp=-1.
 RMSDP=2.63D-04 MaxDP=1.29D-02              OVMax= 2.45D-02

 Cycle   2  Pass 0  IDiag  1:
 RMSU=  2.63D-04    CP:  1.00D+00
 E= -1682.36752109444     Delta-E=       -0.010241308646 Rises=F Damp=F
 DIIS: error= 3.70D-04 at cycle   2 NSaved=   2.
 NSaved= 2 IEnMin= 2 EnMin= -1682.36752109444     IErMin= 2 ErrMin= 3.70D-04
 ErrMax= 3.70D-04  0.00D+00 EMaxC= 1.00D-01 BMatC= 3.95D-04 BMatP= 1.86D-02
 IDIUse=3 WtCom= 9.96D-01 WtEn= 3.70D-03
 Coeff-Com: -0.687D-01 0.107D+01
 Coeff-En:   0.000D+00 0.100D+01
 Coeff:     -0.685D-01 0.107D+01
 Gap=     0.094 Goal=   None    Shift=    0.000
 Gap=     0.030 Goal=   None    Shift=    0.000
 RMSDP=5.32D-05 MaxDP=3.90D-03 DE=-1.02D-02 OVMax= 6.84D-03

 Cycle   3  Pass 0  IDiag  1:
 RMSU=  5.14D-05    CP:  1.00D+00  1.05D+00
 E= -1682.36757662006     Delta-E=       -0.000055525617 Rises=F Damp=F
 DIIS: error= 4.09D-04 at cycle   3 NSaved=   3.
 NSaved= 3 IEnMin= 3 EnMin= -1682.36757662006     IErMin= 2 ErrMin= 3.70D-04
 ErrMax= 4.09D-04  0.00D+00 EMaxC= 1.00D-01 BMatC= 5.03D-04 BMatP= 3.95D-04
 IDIUse=3 WtCom= 3.31D-01 WtEn= 6.69D-01
 Coeff-Com: -0.494D-01 0.611D+00 0.438D+00
 Coeff-En:   0.000D+00 0.342D+00 0.658D+00
 Coeff:     -0.164D-01 0.431D+00 0.586D+00
 Gap=     0.093 Goal=   None    Shift=    0.000
 Gap=     0.030 Goal=   None    Shift=    0.000
 RMSDP=4.78D-05 MaxDP=3.90D-03 DE=-5.55D-05 OVMax= 1.34D-02

 Cycle   4  Pass 0  IDiag  1:
 RMSU=  2.96D-05    CP:  1.00D+00  1.08D+00  2.85D-01
 E= -1682.36757450254     Delta-E=        0.000002117518 Rises=F Damp=F
 DIIS: error= 4.16D-04 at cycle   4 NSaved=   4.
 NSaved= 4 IEnMin= 3 EnMin= -1682.36757662006     IErMin= 2 ErrMin= 3.70D-04
 ErrMax= 4.16D-04  0.00D+00 EMaxC= 1.00D-01 BMatC= 5.13D-04 BMatP= 3.95D-04
 IDIUse=3 WtCom= 3.29D-01 WtEn= 6.71D-01
 Coeff-Com: -0.260D-01 0.291D+00 0.439D+00 0.296D+00
 Coeff-En:   0.000D+00 0.000D+00 0.503D+00 0.497D+00
 Coeff:     -0.854D-02 0.957D-01 0.482D+00 0.431D+00
 Gap=     0.093 Goal=   None    Shift=    0.000
 Gap=     0.030 Goal=   None    Shift=    0.000
 RMSDP=2.97D-05 MaxDP=2.57D-03 DE= 2.12D-06 OVMax= 8.78D-03

 Cycle   5  Pass 0  IDiag  1:
 RMSU=  1.32D-05    CP:  1.00D+00  1.08D+00  5.50D-01  2.29D-01
 E= -1682.36769357040     Delta-E=       -0.000119067859 Rises=F Damp=F
 DIIS: error= 1.38D-04 at cycle   5 NSaved=   5.
 NSaved= 5 IEnMin= 5 EnMin= -1682.36769357040     IErMin= 5 ErrMin= 1.38D-04
 ErrMax= 1.38D-04  0.00D+00 EMaxC= 1.00D-01 BMatC= 6.35D-05 BMatP= 3.95D-04
 IDIUse=3 WtCom= 9.99D-01 WtEn= 1.38D-03
 Coeff-Com: -0.783D-02 0.725D-01 0.284D+00 0.294D+00 0.357D+00
 Coeff-En:   0.000D+00 0.000D+00 0.000D+00 0.121D+00 0.879D+00
 Coeff:     -0.782D-02 0.724D-01 0.284D+00 0.294D+00 0.358D+00
 Gap=     0.093 Goal=   None    Shift=    0.000
 Gap=     0.030 Goal=   None    Shift=    0.000
 RMSDP=9.53D-06 MaxDP=7.05D-04 DE=-1.19D-04 OVMax= 2.05D-03

 Initial convergence to 1.0D-05 achieved.  Increase integral accuracy.
 Cycle   6  Pass 1  IDiag  1:
 E= -1682.36776846735     Delta-E=       -0.000074896947 Rises=F Damp=F
 DIIS: error= 9.78D-05 at cycle   1 NSaved=   1.
 NSaved= 1 IEnMin= 1 EnMin= -1682.36776846735     IErMin= 1 ErrMin= 9.78D-05
 ErrMax= 9.78D-05  0.00D+00 EMaxC= 1.00D-01 BMatC= 1.33D-05 BMatP= 1.33D-05
 IDIUse=1 WtCom= 1.00D+00 WtEn= 0.00D+00
 Coeff-Com:  0.100D+01
 Coeff:      0.100D+01
 Gap=     0.093 Goal=   None    Shift=    0.000
 Gap=     0.030 Goal=   None    Shift=    0.000
 RMSDP=9.53D-06 MaxDP=7.05D-04 DE=-7.49D-05 OVMax= 6.54D-04

 Cycle   7  Pass 1  IDiag  1:
 RMSU=  6.89D-05    CP:  1.00D+00
 E= -1682.36776951259     Delta-E=       -0.000001045246 Rises=F Damp=F
 DIIS: error= 4.00D-05 at cycle   2 NSaved=   2.
 NSaved= 2 IEnMin= 2 EnMin= -1682.36776951259     IErMin= 2 ErrMin= 4.00D-05
 ErrMax= 4.00D-05  0.00D+00 EMaxC= 1.00D-01 BMatC= 7.47D-06 BMatP= 1.33D-05
 IDIUse=1 WtCom= 1.00D+00 WtEn= 0.00D+00
 Coeff-Com:  0.392D+00 0.608D+00
 Coeff:      0.392D+00 0.608D+00
 Gap=     0.093 Goal=   None    Shift=    0.000
 Gap=     0.030 Goal=   None    Shift=    0.000
 RMSDP=6.00D-06 MaxDP=4.85D-04 DE=-1.05D-06 OVMax= 1.03D-03

 Cycle   8  Pass 1  IDiag  1:
 RMSU=  6.00D-06    CP:  1.00D+00  1.00D+00
 E= -1682.36776897822     Delta-E=        0.000000534373 Rises=F Damp=F
 DIIS: error= 5.57D-05 at cycle   3 NSaved=   3.
 NSaved= 3 IEnMin= 2 EnMin= -1682.36776951259     IErMin= 2 ErrMin= 4.00D-05
 ErrMax= 5.57D-05  0.00D+00 EMaxC= 1.00D-01 BMatC= 9.44D-06 BMatP= 7.47D-06
 IDIUse=1 WtCom= 1.00D+00 WtEn= 0.00D+00
 Coeff-Com:  0.339D-01 0.519D+00 0.447D+00
 Coeff:      0.339D-01 0.519D+00 0.447D+00
 Gap=     0.093 Goal=   None    Shift=    0.000
 Gap=     0.030 Goal=   None    Shift=    0.000
 RMSDP=3.75D-06 MaxDP=3.18D-04 DE= 5.34D-07 OVMax= 7.92D-04

 Cycle   9  Pass 1  IDiag  1:
 RMSU=  1.62D-06    CP:  1.00D+00  1.01D+00  4.41D-01
 E= -1682.36777127339     Delta-E=       -0.000002295168 Rises=F Damp=F
 DIIS: error= 1.78D-05 at cycle   4 NSaved=   4.
 NSaved= 4 IEnMin= 4 EnMin= -1682.36777127339     IErMin= 4 ErrMin= 1.78D-05
 ErrMax= 1.78D-05  0.00D+00 EMaxC= 1.00D-01 BMatC= 1.00D-06 BMatP= 7.47D-06
 IDIUse=1 WtCom= 1.00D+00 WtEn= 0.00D+00
 Coeff-Com: -0.212D-02 0.341D+00 0.330D+00 0.331D+00
 Coeff:     -0.212D-02 0.341D+00 0.330D+00 0.331D+00
 Gap=     0.093 Goal=   None    Shift=    0.000
 Gap=     0.030 Goal=   None    Shift=    0.000
 RMSDP=1.10D-06 MaxDP=1.02D-04 DE=-2.30D-06 OVMax= 3.04D-04

 Cycle  10  Pass 1  IDiag  1:
 RMSU=  4.34D-07    CP:  1.00D+00  1.01D+00  4.84D-01  3.93D-01
 E= -1682.36777153415     Delta-E=       -0.000000260766 Rises=F Damp=F
 DIIS: error= 2.10D-06 at cycle   5 NSaved=   5.
 NSaved= 5 IEnMin= 5 EnMin= -1682.36777153415     IErMin= 5 ErrMin= 2.10D-06
 ErrMax= 2.10D-06  0.00D+00 EMaxC= 1.00D-01 BMatC= 1.72D-08 BMatP= 1.00D-06
 IDIUse=1 WtCom= 1.00D+00 WtEn= 0.00D+00
 Coeff-Com: -0.299D-02 0.152D+00 0.151D+00 0.174D+00 0.527D+00
 Coeff:     -0.299D-02 0.152D+00 0.151D+00 0.174D+00 0.527D+00
 Gap=     0.093 Goal=   None    Shift=    0.000
 Gap=     0.030 Goal=   None    Shift=    0.000
 RMSDP=2.16D-07 MaxDP=1.88D-05 DE=-2.61D-07 OVMax= 3.88D-05

 Cycle  11  Pass 1  IDiag  1:
 RMSU=  2.09D-07    CP:  1.00D+00  1.01D+00  4.83D-01  4.17D-01  9.15D-01
 E= -1682.36777154176     Delta-E=       -0.000000007603 Rises=F Damp=F
 DIIS: error= 1.33D-06 at cycle   6 NSaved=   6.
 NSaved= 6 IEnMin= 6 EnMin= -1682.36777154176     IErMin= 6 ErrMin= 1.33D-06
 ErrMax= 1.33D-06  0.00D+00 EMaxC= 1.00D-01 BMatC= 4.05D-09 BMatP= 1.72D-08
 IDIUse=1 WtCom= 1.00D+00 WtEn= 0.00D+00
 Coeff-Com: -0.442D-03-0.471D-01-0.432D-01-0.382D-01 0.178D+00 0.951D+00
 Coeff:     -0.442D-03-0.471D-01-0.432D-01-0.382D-01 0.178D+00 0.951D+00
 Gap=     0.093 Goal=   None    Shift=    0.000
 Gap=     0.030 Goal=   None    Shift=    0.000
 RMSDP=2.08D-07 MaxDP=1.59D-05 DE=-7.60D-09 OVMax= 6.38D-05

 Cycle  12  Pass 1  IDiag  1:
 RMSU=  1.30D-07    CP:  1.00D+00  1.01D+00  4.85D-01  4.39D-01  1.23D+00
                    CP:  1.37D+00
 E= -1682.36777154674     Delta-E=       -0.000000004989 Rises=F Damp=F
 DIIS: error= 9.50D-07 at cycle   7 NSaved=   7.
 NSaved= 7 IEnMin= 7 EnMin= -1682.36777154674     IErMin= 7 ErrMin= 9.50D-07
 ErrMax= 9.50D-07  0.00D+00 EMaxC= 1.00D-01 BMatC= 3.14D-09 BMatP= 4.05D-09
 IDIUse=1 WtCom= 1.00D+00 WtEn= 0.00D+00
 Coeff-Com:  0.202D-02-0.164D+00-0.159D+00-0.174D+00-0.263D+00 0.863D+00
 Coeff-Com:  0.896D+00
 Coeff:      0.202D-02-0.164D+00-0.159D+00-0.174D+00-0.263D+00 0.863D+00
 Coeff:      0.896D+00
 Gap=     0.093 Goal=   None    Shift=    0.000
 Gap=     0.030 Goal=   None    Shift=    0.000
 RMSDP=2.45D-07 MaxDP=1.78D-05 DE=-4.99D-09 OVMax= 6.51D-05

 Cycle  13  Pass 1  IDiag  1:
 RMSU=  7.83D-08    CP:  1.00D+00  1.01D+00  4.87D-01  4.73D-01  1.61D+00
                    CP:  2.11D+00  1.09D+00
 E= -1682.36777155017     Delta-E=       -0.000000003427 Rises=F Damp=F
 DIIS: error= 4.12D-07 at cycle   8 NSaved=   8.
 NSaved= 8 IEnMin= 8 EnMin= -1682.36777155017     IErMin= 8 ErrMin= 4.12D-07
 ErrMax= 4.12D-07  0.00D+00 EMaxC= 1.00D-01 BMatC= 4.85D-10 BMatP= 3.14D-09
 IDIUse=1 WtCom= 1.00D+00 WtEn= 0.00D+00
 Coeff-Com:  0.125D-02-0.945D-01-0.914D-01-0.101D+00-0.166D+00 0.442D+00
 Coeff-Com:  0.541D+00 0.469D+00
 Coeff:      0.125D-02-0.945D-01-0.914D-01-0.101D+00-0.166D+00 0.442D+00
 Coeff:      0.541D+00 0.469D+00
 Gap=     0.093 Goal=   None    Shift=    0.000
 Gap=     0.030 Goal=   None    Shift=    0.000
 RMSDP=4.18D-08 MaxDP=2.54D-06 DE=-3.43D-09 OVMax= 1.24D-05

 Cycle  14  Pass 1  IDiag  1:
 RMSU=  3.31D-08    CP:  1.00D+00  1.01D+00  4.87D-01  4.75D-01  1.64D+00
                    CP:  2.17D+00  1.18D+00  8.43D-01
 E= -1682.36777155037     Delta-E=       -0.000000000203 Rises=F Damp=F
 DIIS: error= 2.71D-07 at cycle   9 NSaved=   9.
 NSaved= 9 IEnMin= 9 EnMin= -1682.36777155037     IErMin= 9 ErrMin= 2.71D-07
 ErrMax= 2.71D-07  0.00D+00 EMaxC= 1.00D-01 BMatC= 1.39D-10 BMatP= 4.85D-10
 IDIUse=1 WtCom= 1.00D+00 WtEn= 0.00D+00
 Coeff-Com:  0.297D-03-0.191D-01-0.184D-01-0.213D-01-0.380D-01 0.487D-01
 Coeff-Com:  0.117D+00 0.332D+00 0.599D+00
 Coeff:      0.297D-03-0.191D-01-0.184D-01-0.213D-01-0.380D-01 0.487D-01
 Coeff:      0.117D+00 0.332D+00 0.599D+00
 Gap=     0.093 Goal=   None    Shift=    0.000
 Gap=     0.030 Goal=   None    Shift=    0.000
 RMSDP=2.58D-08 MaxDP=1.77D-06 DE=-2.03D-10 OVMax= 7.33D-06

 Cycle  15  Pass 1  IDiag  1:
 RMSU=  1.86D-08    CP:  1.00D+00  1.01D+00  4.87D-01  4.76D-01  1.66D+00
                    CP:  2.20D+00  1.21D+00  9.77D-01  7.50D-01
 E= -1682.36777155043     Delta-E=       -0.000000000056 Rises=F Damp=F
 DIIS: error= 1.28D-07 at cycle  10 NSaved=  10.
 NSaved=10 IEnMin=10 EnMin= -1682.36777155043     IErMin=10 ErrMin= 1.28D-07
 ErrMax= 1.28D-07  0.00D+00 EMaxC= 1.00D-01 BMatC= 4.98D-11 BMatP= 1.39D-10
 IDIUse=1 WtCom= 1.00D+00 WtEn= 0.00D+00
 Coeff-Com: -0.239D-03 0.205D-01 0.199D-01 0.211D-01 0.360D-01-0.121D+00
 Coeff-Com: -0.109D+00 0.463D-01 0.440D+00 0.647D+00
 Coeff:     -0.239D-03 0.205D-01 0.199D-01 0.211D-01 0.360D-01-0.121D+00
 Coeff:     -0.109D+00 0.463D-01 0.440D+00 0.647D+00
 Gap=     0.093 Goal=   None    Shift=    0.000
 Gap=     0.030 Goal=   None    Shift=    0.000
 RMSDP=1.45D-08 MaxDP=1.33D-06 DE=-5.64D-11 OVMax= 2.67D-06

 Cycle  16  Pass 1  IDiag  1:
 RMSU=  1.16D-08    CP:  1.00D+00  1.01D+00  4.87D-01  4.76D-01  1.67D+00
                    CP:  2.21D+00  1.23D+00  1.02D+00  9.55D-01  9.75D-01
 E= -1682.36777155044     Delta-E=       -0.000000000013 Rises=F Damp=F
 DIIS: error= 7.78D-08 at cycle  11 NSaved=  11.
 NSaved=11 IEnMin=11 EnMin= -1682.36777155044     IErMin=11 ErrMin= 7.78D-08
 ErrMax= 7.78D-08  0.00D+00 EMaxC= 1.00D-01 BMatC= 1.66D-11 BMatP= 4.98D-11
 IDIUse=1 WtCom= 1.00D+00 WtEn= 0.00D+00
 Coeff-Com: -0.276D-03 0.215D-01 0.209D-01 0.226D-01 0.394D-01-0.108D+00
 Coeff-Com: -0.119D+00-0.798D-01 0.157D+00 0.465D+00 0.581D+00
 Coeff:     -0.276D-03 0.215D-01 0.209D-01 0.226D-01 0.394D-01-0.108D+00
 Coeff:     -0.119D+00-0.798D-01 0.157D+00 0.465D+00 0.581D+00
 Gap=     0.093 Goal=   None    Shift=    0.000
 Gap=     0.030 Goal=   None    Shift=    0.000
 RMSDP=8.84D-09 MaxDP=8.60D-07 DE=-1.27D-11 OVMax= 2.73D-06

 SCF Done:  E(UB3LYP) =  -1682.36777155     A.U. after   16 cycles
            NFock= 16  Conv=0.88D-08     -V/T= 2.0082
 <Sx>= 0.0000 <Sy>= 0.0000 <Sz>= 0.5000 <S**2>= 0.7629 S= 0.5064
 <L.S>= 0.000000000000E+00
 KE= 1.668654568259D+03 PE=-1.005563810547D+04 EE= 3.624628468765D+03
 Annihilation of the first spin contaminant:
 S**2 before annihilation     0.7629,   after     0.7501
 Leave Link  502 at Thu Mar 14 11:34:53 2024, MaxMem= 32212254720 cpu:            1195.7 elap:              39.9
 (Enter /home/<user>/g16/l701.exe)
 ... and contract with generalized density number  0.
 Compute integral first derivatives.
 Leave Link  701 at Thu Mar 14 11:34:53 2024, MaxMem= 32212254720 cpu:               5.0 elap:               0.2
 (Enter /home/<user>/g16/l702.exe)
 L702 exits ... SP integral derivatives will be done elsewhere.
 Leave Link  702 at Thu Mar 14 11:34:53 2024, MaxMem= 32212254720 cpu:               0.7 elap:               0.0
 (Enter /home/<user>/g16/l703.exe)
 Integral derivatives from FoFJK, PRISM(SPDF).
 Compute integral first derivatives, UseDBF=F ICtDFT=           0.
 Calling FoFJK, ICntrl=      2127 FMM=F ISym2X=0 I1Cent= 0 IOpClX= 1 NMat=1 NMatS=1 NMatT=0.
 FoFJK:  IHMeth= 1 ICntrl=    2127 DoSepK=F KAlg= 0 I1Cent=           0 FoldK=F
 IRaf=         0 NMat=       1 IRICut=       1 DoRegI=T DoRafI=F ISym2E= 0 IDoP0=0 IntGTp=1.
 FoFCou: FMM=F IPFlag=           0 FMFlag=      100000 FMFlg1=         800
         NFxFlg=           0 DoJE=F BraDBF=F KetDBF=F FulRan=T
         wScrn=  0.000000 ICntrl=      2127 IOpCl=  1 I1Cent=           0 NGrid=           0
         NMat0=    1 NMatS0=      1 NMatT0=    0 NMatD0=    1 NMtDS0=    0 NMtDT0=    0
 Symmetry not used in FoFCou.
 Leave Link  703 at Thu Mar 14 11:35:00 2024, MaxMem= 32212254720 cpu:             198.6 elap:               6.6
 (Enter /home/<user>/g16/l716.exe)
 Dipole        =-8.95176542D-01-1.69644332D-01-7.92273759D-02
 ***** Axes restored to original set *****
 -------------------------------------------------------------------
 Center     Atomic                   Forces (Hartrees/Bohr)
 Number     Number              X              Y              Z
 -------------------------------------------------------------------
      1        6           0.000150585   -0.000855563   -0.000693407
      2        6          -0.001431534    0.000482088    0.000767227
      3        6           0.001044326    0.000637876    0.000059772
      4        6          -0.001141467    0.001151599   -0.000408838
      5        6           0.002219553    0.000403839   -0.000050700
      6        6          -0.000991713   -0.000937972    0.000180095
      7        1          -0.000685905   -0.000123200   -0.000117390
      8        1           0.000058483   -0.000500716   -0.000078294
      9        1           0.000147581    0.000292358    0.000070960
     10        6           0.000120736   -0.000799867   -0.000026470
     11        6           0.000642246    0.000863885   -0.000172094
     12        6          -0.000024588    0.000044337    0.000010290
     13        6           0.000090219    0.000343787   -0.000076467
     14        6          -0.000308444   -0.000496104    0.000142053
     15        6           0.000711979   -0.000398581    0.000066791
     16        6          -0.002169965   -0.000321666    0.000032309
     17        1           0.000166885   -0.000138060    0.000031882
     18        1           0.000042729   -0.000034264   -0.000003933
     19        1           0.000074680    0.000190330   -0.000047149
     20        1          -0.000061355    0.000154290   -0.000030631
     21        6          -0.000052255   -0.000166354    0.000013890
     22        1          -0.000000176   -0.000012003    0.000069414
     23        1           0.000039297    0.000007337    0.000066716
     24        1           0.000006388    0.000053314    0.000058889
     25        6           0.000001327   -0.000100640    0.000183625
     26        1           0.000034924    0.000009692   -0.000076452
     27        1          -0.000027094   -0.000016111   -0.000040369
     28        1           0.000020652    0.000008075   -0.000083661
     29        6           0.000700802   -0.001068776   -0.000902317
     30        6          -0.000391580   -0.000959209    0.000061685
     31        6          -0.001619590    0.001405061   -0.000137264
     32        6           0.000245256   -0.001061352    0.001120424
     33        6           0.001744257    0.000961070   -0.000144234
     34        1          -0.000154206   -0.000443392    0.000245951
     35        6          -0.001037131   -0.000350985   -0.000254581
     36        1          -0.000069150   -0.000386974    0.000183808
     37        7           0.001843396    0.000778903    0.000047292
     38        7          -0.000329235    0.000982620   -0.001024136
     39       16           0.000327641    0.000410964    0.000870759
     40        6           0.000808143   -0.000069368    0.000226884
     41        6          -0.000280100   -0.000601578   -0.000163518
     42        6          -0.000416131    0.000683145    0.000086065
     43        6           0.000295058   -0.000285457    0.000037614
     44        1           0.000076151    0.000212167   -0.000020771
     45        6           0.000244422    0.000189381   -0.000152958
     46        1          -0.000114639   -0.000297733    0.000036975
     47        6          -0.000086808    0.000026690    0.000104046
     48        1          -0.000101225    0.000244532    0.000006452
     49        1          -0.000205410   -0.000182551   -0.000028354
     50        6          -0.000177995    0.000041652    0.000051828
     51        1          -0.000055329   -0.000019236   -0.000052576
     52        1           0.000050978   -0.000045278   -0.000127358
     53        6          -0.000310856   -0.000169288    0.000061501
     54        1           0.000115943   -0.000004441   -0.000047727
     55        1           0.000103179    0.000107990    0.000090012
     56        7           0.000129349    0.000170457   -0.000199936
     57        1           0.000076499    0.000120086    0.000067346
     58        1          -0.000089781   -0.000130801    0.000109029
 -------------------------------------------------------------------
 Cartesian Forces:  Max     0.002219553 RMS     0.000539285
 Leave Link  716 at Thu Mar 14 11:35:00 2024, MaxMem= 32212254720 cpu:               0.7 elap:               0.0
 (Enter /home/<user>/g16/l103.exe)

 GradGradGradGradGradGradGradGradGradGradGradGradGradGradGradGradGradGrad
 Berny optimization.
 Using GEDIIS/GDIIS optimizer.
 FormGI is forming the generalized inverse of G from B-inverse, IUseBI=4.
 GSVD:  received Info=                   1 from GESDD.
 Internal  Forces:  Max     0.003986269 RMS     0.000489285
 Search for a local minimum.
 Step number   4 out of a maximum of  346
 All quantities printed in internal units (Hartrees-Bohrs-Radians)
 RMS Force = .48929D-03 SwitMx=.10000D-02 MixMth= 2
 Mixed Optimization -- En-DIIS/RFO-DIIS
 Swapping is turned off.
 Update second derivatives using D2CorX and points    2    3    4
 DE= -1.11D-04 DEPred=-2.89D-04 R= 3.83D-01
 Trust test= 3.83D-01 RLast= 1.99D-01 DXMaxT set to 6.41D-01
 ITU=  0  1  1  0
     Eigenvalues ---    0.00230   0.00230   0.00253   0.00597   0.00653
     Eigenvalues ---    0.00755   0.00970   0.01053   0.01248   0.01449
     Eigenvalues ---    0.01469   0.01604   0.01615   0.01634   0.01661
     Eigenvalues ---    0.01687   0.01708   0.01727   0.01737   0.01855
     Eigenvalues ---    0.01887   0.01910   0.02020   0.02034   0.02040
     Eigenvalues ---    0.02076   0.02083   0.02088   0.02094   0.02095
     Eigenvalues ---    0.02112   0.02116   0.02119   0.02126   0.02127
     Eigenvalues ---    0.02134   0.02144   0.02145   0.02149   0.02159
     Eigenvalues ---    0.02161   0.02177   0.02242   0.02518   0.04076
     Eigenvalues ---    0.04206   0.04345   0.04367   0.05391   0.05396
     Eigenvalues ---    0.05452   0.05541   0.05545   0.05602   0.06013
     Eigenvalues ---    0.08123   0.08850   0.09230   0.11581   0.12529
     Eigenvalues ---    0.12800   0.15454   0.15954   0.15976   0.15979
     Eigenvalues ---    0.15994   0.15996   0.15999   0.16000   0.16000
     Eigenvalues ---    0.16000   0.16000   0.16000   0.16000   0.16000
     Eigenvalues ---    0.16000   0.16000   0.16000   0.16000   0.16009
     Eigenvalues ---    0.16027   0.16275   0.19176   0.19234   0.21886
     Eigenvalues ---    0.21977   0.22005   0.22045   0.22451   0.22473
     Eigenvalues ---    0.22711   0.22963   0.23705   0.24139   0.24540
     Eigenvalues ---    0.24698   0.24927   0.24984   0.24986   0.24993
     Eigenvalues ---    0.24997   0.24999   0.25038   0.25724   0.28060
     Eigenvalues ---    0.28099   0.28411   0.28750   0.29000   0.31227
     Eigenvalues ---    0.32873   0.33128   0.33413   0.33787   0.34028
     Eigenvalues ---    0.34091   0.34100   0.34104   0.34118   0.34132
     Eigenvalues ---    0.34278   0.34292   0.34702   0.34967   0.35040
     Eigenvalues ---    0.35059   0.35094   0.35152   0.35163   0.35182
     Eigenvalues ---    0.35192   0.35202   0.35242   0.35286   0.35372
     Eigenvalues ---    0.35487   0.35713   0.36112   0.36711   0.37963
     Eigenvalues ---    0.38715   0.40148   0.40687   0.41485   0.41588
     Eigenvalues ---    0.41701   0.42139   0.42309   0.42508   0.43402
     Eigenvalues ---    0.43801   0.44375   0.44526   0.44895   0.44959
     Eigenvalues ---    0.45161   0.45494   0.45818   0.45988   0.46131
     Eigenvalues ---    0.46464   0.46982   0.47165   0.47298   0.47789
     Eigenvalues ---    0.49506   0.54461   0.57192
 En-DIIS/RFO-DIIS/Sim-DIIS IScMMF=       -3 using points:     4    3    2
 RFO step:  Lambda=-2.33331070D-04.
 NNeg= 0 NGDIIS= 3 SimSw=  2.50D-01 Rises=F DC= -1.11D-04 SmlDif=  1.00D-05
 NRisDI= 0 DoIntr=F SqrtH=F CThrHd= 10.0 CDAdj=  3.0
 RMS Error=  0.3174329402D-02 NUsed= 3 OKEnD=T EnDIS=F
 InvSVX:  RCond= 1.06D-03 Info=           0 Equed=N FErr=  7.50D-15 BErr=  6.49D-17
 DidBck=T Rises=F RFO-DIIS coefs:    0.73362    0.40458   -0.13820
 Iteration  1 RMS(Cart)=  0.02109921 RMS(Int)=  0.00004601
 Iteration  2 RMS(Cart)=  0.00017718 RMS(Int)=  0.00000490
 Iteration  3 RMS(Cart)=  0.00000001 RMS(Int)=  0.00000490
 ITry= 1 IFail=0 DXMaxC= 8.11D-02 DCOld= 1.00D+10 DXMaxT= 6.41D-01 DXLimC= 3.00D+00 Rises=F
 Variable       Old X    -DE/DX   Delta X   Delta X   Delta X     New X
                                 (Linear)    (Quad)   (Total)
    R1        2.70209  -0.00014   0.00121  -0.00252  -0.00131   2.70078
    R2        2.60682   0.00047  -0.00015   0.00103   0.00088   2.60770
    R3        2.04279  -0.00046  -0.00089   0.00073  -0.00016   2.04263
    R4        2.70144  -0.00077   0.00021  -0.00202  -0.00180   2.69964
    R5        2.73623   0.00130   0.00116   0.00124   0.00240   2.73863
    R6        2.59486  -0.00001  -0.00011   0.00046   0.00035   2.59521
    R7        2.04931   0.00044  -0.00011   0.00098   0.00087   2.05018
    R8        2.69484  -0.00085   0.00065  -0.00230  -0.00165   2.69319
    R9        2.88695  -0.00000  -0.00022   0.00035   0.00014   2.88709
   R10        2.66223  -0.00086   0.00046  -0.00189  -0.00143   2.66080
   R11        2.72144   0.00127  -0.00107   0.00390   0.00283   2.72428
   R12        2.05126   0.00017  -0.00019   0.00057   0.00038   2.05164
   R13        2.88463  -0.00008  -0.00005   0.00014   0.00009   2.88473
   R14        2.92256   0.00023  -0.00027   0.00087   0.00061   2.92317
   R15        2.92207   0.00009  -0.00017   0.00044   0.00027   2.92235
   R16        2.62246  -0.00016  -0.00013  -0.00011  -0.00024   2.62223
   R17        2.68349  -0.00044   0.00066  -0.00153  -0.00087   2.68262
   R18        2.64686   0.00004   0.00024  -0.00014   0.00010   2.64696
   R19        2.05260   0.00010  -0.00014   0.00037   0.00023   2.05283
   R20        2.65892  -0.00025   0.00043  -0.00096  -0.00053   2.65840
   R21        2.05255  -0.00003  -0.00002  -0.00004  -0.00006   2.05249
   R22        2.62267   0.00015  -0.00024   0.00059   0.00035   2.62302
   R23        2.05109   0.00007  -0.00012   0.00030   0.00018   2.05126
   R24        2.65936  -0.00061   0.00041  -0.00156  -0.00115   2.65821
   R25        2.05202   0.00014  -0.00014   0.00046   0.00032   2.05234
   R26        2.06924   0.00002  -0.00011   0.00018   0.00007   2.06931
   R27        2.07018   0.00004  -0.00007   0.00017   0.00010   2.07028
   R28        2.06780   0.00008  -0.00002   0.00018   0.00017   2.06796
   R29        2.07038   0.00002  -0.00007   0.00013   0.00006   2.07044
   R30        2.06921   0.00002  -0.00010   0.00017   0.00007   2.06928
   R31        2.06788   0.00008  -0.00002   0.00020   0.00018   2.06806
   R32        2.73737   0.00173   0.00170  -0.00041   0.00129   2.73867
   R33        2.66353  -0.00114  -0.00006  -0.00222  -0.00229   2.66124
   R34        2.74815   0.00060   0.00005   0.00068   0.00074   2.74890
   R35        2.52056   0.00091  -0.00004   0.00108   0.00104   2.52159
   R36        2.63447   0.00064  -0.00058   0.00260   0.00201   2.63648
   R37        2.04731   0.00040  -0.00001   0.00080   0.00080   2.04811
   R38        2.73534  -0.00040   0.00051  -0.00158  -0.00107   2.73427
   R39        2.52165   0.00077  -0.00017   0.00108   0.00091   2.52256
   R40        2.65849  -0.00135  -0.00019  -0.00218  -0.00238   2.65611
   R41        2.04751   0.00029  -0.00009   0.00071   0.00062   2.04814
   R42        2.74923   0.00006   0.00019   0.00045   0.00064   2.74987
   R43        3.10254   0.00007   0.00017  -0.00014   0.00003   3.10257
   R44        3.09690  -0.00048  -0.00026  -0.00007  -0.00033   3.09657
   R45        2.68052  -0.00035   0.00046  -0.00150  -0.00104   2.67949
   R46        2.68339  -0.00058   0.00003  -0.00132  -0.00129   2.68210
   R47        2.61818  -0.00002  -0.00001   0.00008   0.00007   2.61825
   R48        2.04357   0.00017  -0.00032   0.00088   0.00057   2.04413
   R49        2.61350  -0.00000  -0.00003   0.00023   0.00020   2.61370
   R50        2.04955   0.00030  -0.00003   0.00064   0.00061   2.05016
   R51        2.65860  -0.00014   0.00030  -0.00058  -0.00029   2.65832
   R52        2.05332   0.00011  -0.00016   0.00043   0.00026   2.05358
   R53        2.66264  -0.00003   0.00020  -0.00036  -0.00016   2.66248
   R54        2.05331   0.00008  -0.00012   0.00032   0.00020   2.05351
   R55        2.84191  -0.00017   0.00007  -0.00027  -0.00020   2.84171
   R56        2.06885   0.00002   0.00001   0.00006   0.00007   2.06892
   R57        2.07378   0.00009  -0.00010   0.00034   0.00024   2.07402
   R58        2.92753   0.00010  -0.00033   0.00028  -0.00005   2.92748
   R59        2.08779  -0.00003   0.00000  -0.00007  -0.00007   2.08772
   R60        2.07231  -0.00004   0.00002  -0.00005  -0.00004   2.07228
   R61        2.75505   0.00007   0.00008   0.00024   0.00033   2.75537
   R62        1.92486   0.00007   0.00003   0.00014   0.00018   1.92504
   R63        1.92287   0.00005   0.00003   0.00010   0.00013   1.92300
    A1        2.12068  -0.00001  -0.00035   0.00014  -0.00020   2.12047
    A2        2.07464   0.00053   0.00090   0.00102   0.00192   2.07656
    A3        2.08772  -0.00052  -0.00058  -0.00110  -0.00169   2.08603
    A4        2.06305  -0.00041   0.00031  -0.00030   0.00003   2.06308
    A5        2.11706   0.00335   0.00299   0.00261   0.00560   2.12267
    A6        2.10303  -0.00294  -0.00342  -0.00233  -0.00575   2.09729
    A7        2.10221   0.00032   0.00001   0.00022   0.00023   2.10244
    A8        2.08873  -0.00001  -0.00059   0.00118   0.00057   2.08931
    A9        2.09071  -0.00031   0.00052  -0.00109  -0.00058   2.09013
   A10        2.09943   0.00009  -0.00038   0.00032  -0.00006   2.09937
   A11        2.25528  -0.00062   0.00033  -0.00232  -0.00199   2.25329
   A12        1.92843   0.00053   0.00005   0.00200   0.00205   1.93048
   A13        2.09807  -0.00008   0.00053  -0.00046   0.00006   2.09814
   A14        1.90171  -0.00031   0.00002  -0.00112  -0.00110   1.90061
   A15        2.28338   0.00039  -0.00055   0.00158   0.00104   2.28443
   A16        2.08267   0.00008  -0.00016   0.00018   0.00002   2.08269
   A17        2.09526  -0.00029   0.00016  -0.00142  -0.00125   2.09401
   A18        2.10524   0.00021  -0.00000   0.00124   0.00123   2.10647
   A19        1.76154  -0.00031  -0.00012  -0.00154  -0.00166   1.75988
   A20        1.94322   0.00011   0.00008   0.00017   0.00025   1.94347
   A21        1.94619   0.00010  -0.00015   0.00041   0.00026   1.94645
   A22        1.94257   0.00008   0.00014   0.00004   0.00018   1.94275
   A23        1.94419   0.00014  -0.00013   0.00071   0.00059   1.94477
   A24        1.92168  -0.00013   0.00015   0.00011   0.00026   1.92194
   A25        2.25244  -0.00034   0.00014  -0.00148  -0.00133   2.25110
   A26        1.93822   0.00036  -0.00002   0.00158   0.00156   1.93978
   A27        2.09252  -0.00002  -0.00012  -0.00011  -0.00023   2.09230
   A28        2.07422  -0.00004  -0.00019   0.00026   0.00007   2.07429
   A29        2.11738  -0.00018   0.00020  -0.00117  -0.00097   2.11641
   A30        2.09159   0.00022  -0.00002   0.00092   0.00090   2.09249
   A31        2.11743  -0.00006   0.00030  -0.00045  -0.00015   2.11727
   A32        2.08457  -0.00002  -0.00019   0.00004  -0.00015   2.08442
   A33        2.08119   0.00007  -0.00011   0.00041   0.00031   2.08150
   A34        2.10157  -0.00005  -0.00000  -0.00010  -0.00010   2.10147
   A35        2.08489   0.00023   0.00007   0.00096   0.00104   2.08593
   A36        2.09672  -0.00018  -0.00007  -0.00086  -0.00093   2.09579
   A37        2.06780  -0.00004  -0.00024   0.00012  -0.00012   2.06768
   A38        2.10576  -0.00007  -0.00004  -0.00039  -0.00044   2.10532
   A39        2.10963   0.00012   0.00029   0.00027   0.00056   2.11019
   A40        1.89474  -0.00027   0.00006  -0.00088  -0.00082   1.89392
   A41        2.27562   0.00007  -0.00032   0.00060   0.00028   2.27590
   A42        2.11283   0.00021   0.00025   0.00028   0.00054   2.11337
   A43        1.92566   0.00009  -0.00030   0.00084   0.00054   1.92621
   A44        1.93032   0.00006  -0.00014   0.00046   0.00032   1.93064
   A45        1.94525  -0.00002   0.00026  -0.00048  -0.00022   1.94503
   A46        1.88010  -0.00005  -0.00004   0.00003  -0.00001   1.88009
   A47        1.88903  -0.00004   0.00008  -0.00030  -0.00023   1.88880
   A48        1.89161  -0.00005   0.00014  -0.00055  -0.00042   1.89119
   A49        1.93039   0.00005  -0.00013   0.00039   0.00027   1.93065
   A50        1.92637   0.00004  -0.00028   0.00066   0.00039   1.92676
   A51        1.94549  -0.00000   0.00026  -0.00045  -0.00019   1.94530
   A52        1.87847  -0.00001  -0.00004   0.00026   0.00022   1.87869
   A53        1.89236  -0.00006   0.00013  -0.00063  -0.00050   1.89187
   A54        1.88883  -0.00003   0.00005  -0.00025  -0.00020   1.88863
   A55        2.16309   0.00399   0.00357   0.00255   0.00613   2.16922
   A56        2.12325  -0.00335  -0.00424  -0.00138  -0.00561   2.11764
   A57        1.99675  -0.00064   0.00068  -0.00113  -0.00044   1.99631
   A58        2.11860  -0.00030  -0.00084   0.00032  -0.00052   2.11809
   A59        2.18905   0.00177   0.00153   0.00158   0.00311   2.19216
   A60        1.97446  -0.00148  -0.00091  -0.00171  -0.00262   1.97184
   A61        2.16634   0.00059  -0.00008   0.00071   0.00062   2.16696
   A62        2.07086  -0.00019  -0.00012   0.00046   0.00033   2.07119
   A63        2.04356  -0.00039   0.00011  -0.00066  -0.00057   2.04299
   A64        2.12394   0.00011  -0.00051   0.00068   0.00015   2.12410
   A65        1.97340   0.00016   0.00096  -0.00073   0.00022   1.97362
   A66        2.18469  -0.00027  -0.00045   0.00040  -0.00006   2.18463
   A67        2.16225   0.00014  -0.00047   0.00013  -0.00035   2.16190
   A68        2.04962  -0.00027   0.00040  -0.00103  -0.00064   2.04898
   A69        2.06931   0.00014   0.00007   0.00119   0.00125   2.07056
   A70        1.99817   0.00008   0.00113  -0.00070   0.00044   1.99861
   A71        2.16260   0.00050   0.00044  -0.00030   0.00014   2.16274
   A72        2.12240  -0.00059  -0.00157   0.00100  -0.00057   2.12183
   A73        1.87055   0.00140   0.00041   0.00255   0.00296   1.87352
   A74        1.87225   0.00066  -0.00049   0.00200   0.00151   1.87376
   A75        1.73392  -0.00074   0.00008  -0.00200  -0.00192   1.73200
   A76        2.13275   0.00044   0.00064  -0.00035   0.00029   2.13304
   A77        2.09923  -0.00061  -0.00137   0.00031  -0.00106   2.09817
   A78        2.05104   0.00017   0.00068   0.00004   0.00073   2.05178
   A79        2.10744   0.00001  -0.00052   0.00043  -0.00009   2.10735
   A80        2.08808   0.00014   0.00047   0.00013   0.00059   2.08867
   A81        2.08731  -0.00015   0.00002  -0.00047  -0.00045   2.08687
   A82        2.11388  -0.00004  -0.00034   0.00000  -0.00033   2.11354
   A83        2.09328   0.00011  -0.00024   0.00084   0.00059   2.09388
   A84        2.07486  -0.00008   0.00054  -0.00065  -0.00012   2.07474
   A85        2.12126  -0.00008  -0.00009  -0.00021  -0.00030   2.12097
   A86        2.08214  -0.00019   0.00018  -0.00112  -0.00094   2.08120
   A87        2.07972   0.00028  -0.00009   0.00133   0.00124   2.08096
   A88        2.11526  -0.00002  -0.00016   0.00009  -0.00007   2.11519
   A89        2.08803  -0.00024   0.00019  -0.00132  -0.00113   2.08690
   A90        2.07990   0.00026  -0.00002   0.00122   0.00120   2.08110
   A91        2.05721  -0.00003   0.00039  -0.00028   0.00011   2.05733
   A92        2.11890  -0.00010  -0.00011  -0.00032  -0.00042   2.11848
   A93        2.10655   0.00014  -0.00026   0.00058   0.00033   2.10687
   A94        1.93140  -0.00000  -0.00029   0.00006  -0.00023   1.93117
   A95        1.91742   0.00003   0.00008  -0.00020  -0.00013   1.91729
   A96        1.96547  -0.00013   0.00002  -0.00035  -0.00033   1.96513
   A97        1.87383  -0.00006  -0.00001  -0.00048  -0.00049   1.87334
   A98        1.87600   0.00011   0.00014   0.00062   0.00076   1.87675
   A99        1.89688   0.00006   0.00007   0.00036   0.00043   1.89732
   A100       1.89809   0.00002   0.00027  -0.00000   0.00027   1.89836
   A101       1.89878   0.00002  -0.00022   0.00105   0.00083   1.89961
   A102       1.91046   0.00017  -0.00052   0.00121   0.00069   1.91116
   A103       1.86145   0.00001   0.00010  -0.00024  -0.00015   1.86130
   A104       2.00743  -0.00018   0.00059  -0.00211  -0.00152   2.00591
   A105       1.88470  -0.00005  -0.00025   0.00021  -0.00003   1.88467
   A106       1.93018   0.00004  -0.00004  -0.00003  -0.00008   1.93011
   A107       1.92918  -0.00013   0.00019  -0.00097  -0.00079   1.92839
   A108       1.86130   0.00004   0.00004   0.00000   0.00003   1.86133
    D1       -0.01512   0.00023   0.00378   0.00160   0.00537  -0.00974
    D2        3.11775  -0.00016  -0.00269  -0.00169  -0.00436   3.11339
    D3       -3.13785   0.00021   0.00559  -0.00225   0.00333  -3.13452
    D4       -0.00498  -0.00019  -0.00087  -0.00554  -0.00640  -0.01138
    D5        0.02079  -0.00017  -0.00024  -0.00430  -0.00454   0.01625
    D6       -3.11552  -0.00014   0.00048  -0.00466  -0.00417  -3.11969
    D7       -3.13980  -0.00013  -0.00204  -0.00040  -0.00245   3.14093
    D8        0.00708  -0.00010  -0.00132  -0.00076  -0.00208   0.00499
    D9       -0.00427  -0.00013  -0.00520   0.00280  -0.00240  -0.00667
   D10       -3.08621  -0.00026  -0.00373  -0.00313  -0.00685  -3.09306
   D11       -3.13721   0.00023   0.00109   0.00603   0.00712  -3.13009
   D12        0.06403   0.00010   0.00256   0.00010   0.00268   0.06671
   D13        0.38882   0.00072   0.01799   0.00552   0.02352   0.41234
   D14       -2.73729   0.00034   0.01151   0.00235   0.01386  -2.72342
   D15       -2.76169   0.00033   0.01146   0.00216   0.01363  -2.74807
   D16        0.39538  -0.00004   0.00499  -0.00100   0.00397   0.39936
   D17        0.01722  -0.00001   0.00310  -0.00433  -0.00122   0.01600
   D18       -3.11420  -0.00002   0.00250  -0.00417  -0.00166  -3.11586
   D19        3.09910   0.00012   0.00158   0.00168   0.00327   3.10237
   D20       -0.03232   0.00012   0.00098   0.00184   0.00283  -0.02950
   D21       -0.01157   0.00008   0.00053   0.00159   0.00213  -0.00944
   D22        3.13560   0.00003  -0.00112   0.00234   0.00122   3.13683
   D23        3.12161   0.00008   0.00103   0.00144   0.00247   3.12409
   D24       -0.01440   0.00003  -0.00062   0.00219   0.00157  -0.01283
   D25       -3.13581  -0.00003   0.00087  -0.00219  -0.00132  -3.13713
   D26        1.08429   0.00000   0.00074  -0.00147  -0.00073   1.08356
   D27       -1.06958   0.00001   0.00059  -0.00203  -0.00144  -1.07102
   D28        0.01516  -0.00004   0.00032  -0.00204  -0.00172   0.01344
   D29       -2.04792  -0.00000   0.00018  -0.00131  -0.00113  -2.04906
   D30        2.08139   0.00001   0.00004  -0.00188  -0.00184   2.07954
   D31       -0.00752   0.00002  -0.00198   0.00275   0.00077  -0.00675
   D32        3.12876  -0.00002  -0.00271   0.00310   0.00039   3.12914
   D33        3.12710   0.00007   0.00009   0.00180   0.00189   3.12899
   D34       -0.01981   0.00004  -0.00064   0.00216   0.00151  -0.01829
   D35        0.00695  -0.00002   0.00067  -0.00136  -0.00069   0.00626
   D36       -3.13470  -0.00000   0.00071  -0.00131  -0.00060  -3.13530
   D37       -3.12828  -0.00007  -0.00122  -0.00049  -0.00172  -3.12999
   D38        0.01326  -0.00005  -0.00117  -0.00045  -0.00163   0.01163
   D39        3.13256   0.00002  -0.00027   0.00118   0.00091   3.13348
   D40       -0.01094   0.00003   0.00009   0.00122   0.00132  -0.00963
   D41       -1.08706   0.00001  -0.00018   0.00056   0.00037  -1.08669
   D42        2.05261   0.00002   0.00018   0.00060   0.00078   2.05339
   D43        1.06488   0.00000   0.00002   0.00124   0.00127   1.06615
   D44       -2.07863   0.00002   0.00039   0.00129   0.00167  -2.07695
   D45        3.06930  -0.00014   0.00023  -0.00033  -0.00010   3.06920
   D46       -1.13549  -0.00010  -0.00009   0.00052   0.00043  -1.13506
   D47        0.97011  -0.00013   0.00016  -0.00019  -0.00003   0.97008
   D48        1.11865   0.00013   0.00025   0.00142   0.00167   1.12032
   D49       -3.08615   0.00017  -0.00007   0.00228   0.00221  -3.08394
   D50       -0.98055   0.00013   0.00018   0.00156   0.00174  -0.97881
   D51       -1.04610  -0.00002   0.00020   0.00040   0.00060  -1.04550
   D52        1.03229   0.00002  -0.00012   0.00125   0.00114   1.03342
   D53        3.13789  -0.00002   0.00014   0.00054   0.00067   3.13856
   D54        1.13699   0.00008   0.00041  -0.00091  -0.00050   1.13649
   D55       -3.06934   0.00013   0.00011   0.00008   0.00019  -3.06915
   D56       -0.96977   0.00012   0.00015  -0.00007   0.00008  -0.96969
   D57        3.09030  -0.00015   0.00010  -0.00213  -0.00203   3.08827
   D58       -1.11603  -0.00010  -0.00020  -0.00114  -0.00134  -1.11738
   D59        0.98354  -0.00010  -0.00016  -0.00130  -0.00146   0.98208
   D60       -1.02908  -0.00004   0.00030  -0.00150  -0.00119  -1.03027
   D61        1.04778   0.00001   0.00000  -0.00051  -0.00050   1.04727
   D62       -3.13584   0.00001   0.00005  -0.00067  -0.00062  -3.13645
   D63        3.13846   0.00002   0.00038   0.00002   0.00040   3.13885
   D64       -0.00169   0.00001   0.00037  -0.00015   0.00022  -0.00147
   D65       -0.00108  -0.00000  -0.00001  -0.00003  -0.00004  -0.00111
   D66       -3.14122  -0.00001  -0.00002  -0.00019  -0.00021  -3.14144
   D67        0.00315  -0.00001  -0.00047   0.00000  -0.00046   0.00269
   D68       -3.13839  -0.00002  -0.00051  -0.00003  -0.00054  -3.13893
   D69       -3.14015   0.00000  -0.00014   0.00004  -0.00010  -3.14026
   D70        0.00149  -0.00001  -0.00018   0.00000  -0.00018   0.00130
   D71        0.00035   0.00001   0.00013  -0.00002   0.00012   0.00046
   D72       -3.14044  -0.00001   0.00007  -0.00021  -0.00014  -3.14058
   D73        3.14052   0.00001   0.00015   0.00014   0.00029   3.14080
   D74       -0.00027   0.00000   0.00008  -0.00005   0.00003  -0.00024
   D75        0.00001   0.00000  -0.00007   0.00010   0.00003   0.00004
   D76        3.14139  -0.00000  -0.00010   0.00010   0.00000   3.14139
   D77        3.14080   0.00001  -0.00001   0.00029   0.00028   3.14108
   D78       -0.00101   0.00001  -0.00003   0.00029   0.00026  -0.00075
   D79        0.00037  -0.00001  -0.00012  -0.00013  -0.00025   0.00012
   D80        3.14058   0.00000  -0.00007   0.00027   0.00020   3.14078
   D81       -3.14101  -0.00001  -0.00009  -0.00013  -0.00022  -3.14123
   D82       -0.00079   0.00001  -0.00004   0.00027   0.00023  -0.00056
   D83        3.14054   0.00000   0.00019   0.00003   0.00022   3.14077
   D84       -0.00111   0.00002   0.00024   0.00008   0.00032  -0.00079
   D85        0.00033  -0.00001   0.00014  -0.00037  -0.00023   0.00011
   D86       -3.14132   0.00000   0.00020  -0.00032  -0.00013  -3.14145
   D87       -3.11165  -0.00017  -0.00323  -0.00245  -0.00566  -3.11732
   D88        0.08311   0.00002   0.00226  -0.00717  -0.00491   0.07820
   D89        0.01547   0.00016   0.00285   0.00050   0.00334   0.01881
   D90       -3.07296   0.00034   0.00833  -0.00421   0.00410  -3.06886
   D91        3.10638   0.00022   0.00190   0.00380   0.00570   3.11208
   D92        0.04184   0.00003   0.00370  -0.00417  -0.00048   0.04136
   D93       -0.02111  -0.00016  -0.00400   0.00089  -0.00311  -0.02422
   D94       -3.08565  -0.00035  -0.00221  -0.00709  -0.00929  -3.09494
   D95        0.00505  -0.00003   0.00045  -0.00133  -0.00088   0.00417
   D96       -3.08734  -0.00024   0.00076  -0.00886  -0.00808  -3.09542
   D97        3.09953  -0.00011  -0.00431   0.00293  -0.00139   3.09814
   D98        0.00715  -0.00031  -0.00401  -0.00459  -0.00859  -0.00145
   D99        3.09835  -0.00021  -0.00541   0.00542   0.00004   3.09839
   D100       0.00611  -0.00007  -0.00030   0.00099   0.00070   0.00681
   D101       0.00557   0.00002   0.00177  -0.00154   0.00023   0.00581
   D102      -3.06677  -0.00013   0.00217  -0.00667  -0.00449  -3.07126
   D103       3.07122   0.00022  -0.00000   0.00636   0.00636   3.07758
   D104      -0.00113   0.00007   0.00040   0.00123   0.00163   0.00051
   D105      -0.02031  -0.00011  -0.00275   0.00073  -0.00201  -0.02232
   D106       3.11601   0.00001   0.00104   0.00021   0.00124   3.11725
   D107       3.06589   0.00013  -0.00307   0.00917   0.00610   3.07199
   D108      -0.08097   0.00026   0.00072   0.00864   0.00936  -0.07162
   D109      -0.01658   0.00051   0.00616   0.00570   0.01187  -0.00471
   D110      -3.10695   0.00029   0.00650  -0.00214   0.00437  -3.10258
   D111       0.01567   0.00013   0.00175   0.00065   0.00240   0.01807
   D112      -3.12078   0.00000  -0.00194   0.00117  -0.00077  -3.12155
   D113       3.08729   0.00027   0.00135   0.00575   0.00711   3.09440
   D114      -0.04917   0.00014  -0.00234   0.00627   0.00394  -0.04523
   D115      -0.45418  -0.00016  -0.00640   0.00078  -0.00563  -0.45981
   D116       2.70730  -0.00007  -0.00397   0.00056  -0.00342   2.70388
   D117       2.68178  -0.00003  -0.00237   0.00021  -0.00215   2.67963
   D118      -0.43992   0.00006   0.00005  -0.00000   0.00006  -0.43986
   D119      -0.01412   0.00033   0.00346   0.00207   0.00553  -0.00859
   D120       0.01813  -0.00051  -0.00571  -0.00464  -0.01036   0.00778
   D121      -3.10836   0.00004   0.00118  -0.00023   0.00094  -3.10742
   D122       0.00468   0.00010  -0.00006   0.00347   0.00340   0.00808
   D123       0.01387  -0.00006  -0.00122  -0.00002  -0.00124   0.01263
   D124       3.12690   0.00000  -0.00246   0.00368   0.00123   3.12813
   D125       3.12807  -0.00009   0.00026  -0.00334  -0.00308   3.12499
   D126      -0.06594  -0.00000  -0.00072   0.00098   0.00025  -0.06569
   D127       0.00545  -0.00001   0.00258  -0.00354  -0.00096   0.00448
   D128       3.09462   0.00008   0.00160   0.00078   0.00237   3.09699
   D129      -0.01843   0.00007  -0.00052   0.00250   0.00198  -0.01644
   D130       3.11077   0.00007  -0.00075   0.00299   0.00224   3.11301
   D131      -3.13148   0.00001   0.00072  -0.00121  -0.00049  -3.13197
   D132      -0.00228   0.00001   0.00048  -0.00072  -0.00024  -0.00252
   D133      -0.02069   0.00006  -0.00221   0.00469   0.00247  -0.01821
   D134       3.11941   0.00008  -0.00153   0.00440   0.00286   3.12227
   D135      -3.11041  -0.00003  -0.00122   0.00038  -0.00085  -3.11125
   D136       0.02969  -0.00002  -0.00054   0.00008  -0.00046   0.02924
   D137       0.00334  -0.00001   0.00094  -0.00144  -0.00050   0.00284
   D138      -3.10387  -0.00003   0.00007  -0.00110  -0.00103  -3.10491
   D139      -3.12587  -0.00001   0.00118  -0.00192  -0.00074  -3.12661
   D140       0.05010  -0.00003   0.00031  -0.00158  -0.00127   0.04883
   D141       0.01618  -0.00005   0.00043  -0.00215  -0.00172   0.01445
   D142       3.12364  -0.00004   0.00130  -0.00251  -0.00121   3.12243
   D143      -3.12393  -0.00007  -0.00024  -0.00186  -0.00211  -3.12604
   D144      -0.01647  -0.00005   0.00062  -0.00221  -0.00159  -0.01806
   D145      -2.63812   0.00002   0.00155  -0.00303  -0.00149  -2.63960
   D146      -0.57201  -0.00004   0.00140  -0.00371  -0.00231  -0.57432
   D147       1.54495  -0.00003   0.00156  -0.00363  -0.00207   1.54288
   D148       0.53882   0.00000   0.00064  -0.00267  -0.00203   0.53679
   D149       2.60493  -0.00005   0.00050  -0.00335  -0.00285   2.60208
   D150      -1.56130  -0.00005   0.00066  -0.00327  -0.00261  -1.56391
   D151      -1.02963  -0.00002   0.00003   0.00481   0.00484  -1.02480
   D152       0.99144   0.00002   0.00018   0.00508   0.00526   0.99670
   D153       3.04719   0.00007  -0.00054   0.00664   0.00609   3.05329
   D154       3.12183  -0.00001   0.00029   0.00453   0.00481   3.12664
   D155      -1.14028   0.00003   0.00043   0.00480   0.00523  -1.13505
   D156       0.91547   0.00008  -0.00029   0.00636   0.00607   0.92154
   D157       1.09898  -0.00002   0.00019   0.00457   0.00476   1.10374
   D158       3.12005   0.00001   0.00033   0.00485   0.00518   3.12523
   D159      -1.10738   0.00007  -0.00039   0.00640   0.00602  -1.10136
   D160       1.25391   0.00008  -0.00399   0.00982   0.00583   1.25974
   D161      -2.97206   0.00007  -0.00387   0.00920   0.00533  -2.96673
   D162      -0.88871   0.00004  -0.00437   0.01039   0.00602  -0.88269
   D163       1.16850   0.00003  -0.00425   0.00977   0.00553   1.17403
   D164      -2.96473   0.00017  -0.00469   0.01188   0.00719  -2.95754
   D165      -0.90751   0.00017  -0.00457   0.01126   0.00669  -0.90083
         Item               Value     Threshold  Converged?
 Maximum Force            0.003986     0.000450     NO 
 RMS     Force            0.000489     0.000300     NO 
 Maximum Displacement     0.081058     0.001800     NO 
 RMS     Displacement     0.021196     0.001200     NO 
 Predicted change in Energy=-1.153999D-04
 Lowest energy point so far.  Saving SCF results.
 GradGradGradGradGradGradGradGradGradGradGradGradGradGradGradGradGradGrad

 Leave Link  103 at Thu Mar 14 11:35:00 2024, MaxMem= 32212254720 cpu:               2.6 elap:               0.1
 (Enter /home/<user>/g16/l202.exe)
 Stoichiometry    C29H25N3S(1+,2)
 Framework group  C1[X(C29H25N3S)]
 Deg. of freedom   168
 Full point group                 C1      NOp   1
 RotChk:  IX=0 Diff= 3.52D-03
 Largest Abelian subgroup         C1      NOp   1
 Largest concise Abelian subgroup C1      NOp   1
                         Standard orientation:                         
 ---------------------------------------------------------------------
 Center     Atomic      Atomic             Coordinates (Angstroms)
 Number     Number       Type             X           Y           Z
 ---------------------------------------------------------------------
      1          6           0       -2.439055    1.613569   -0.420440
      2          6           0       -1.784965    0.370333   -0.157541
      3          6           0       -2.595290   -0.782092    0.079417
      4          6           0       -3.965107   -0.685769    0.060842
      5          6           0       -4.594122    0.563037   -0.214743
      6          6           0       -3.815064    1.710214   -0.458893
      7          1           0       -1.837975    2.492144   -0.608005
      8          1           0       -2.125355   -1.728319    0.326077
      9          1           0       -4.285971    2.662914   -0.680968
     10          6           0       -5.010895   -1.770095    0.315176
     11          6           0       -6.300309   -0.974819    0.127423
     12          6           0       -7.614983   -1.409100    0.219763
     13          6           0       -8.647805   -0.486954    0.007837
     14          6           0       -8.374998    0.859512   -0.294793
     15          6           0       -7.064358    1.306392   -0.390616
     16          6           0       -6.024078    0.383560   -0.178711
     17          1           0       -7.851990   -2.443299    0.452865
     18          1           0       -9.680310   -0.816483    0.078745
     19          1           0       -9.197970    1.549251   -0.453695
     20          1           0       -6.849640    2.344932   -0.624795
     21          6           0       -4.901313   -2.332325    1.752084
     22          1           0       -5.702949   -3.053962    1.941061
     23          1           0       -3.946289   -2.850632    1.891745
     24          1           0       -4.974090   -1.536495    2.499676
     25          6           0       -4.900060   -2.918036   -0.715079
     26          1           0       -3.946313   -3.445645   -0.603716
     27          1           0       -5.702522   -3.647158   -0.561794
     28          1           0       -4.969755   -2.543374   -1.740952
     29          6           0       -0.340078    0.258544   -0.150576
     30          6           0        0.563337    1.366246    0.088449
     31          6           0        0.300312   -0.972610   -0.390110
     32          6           0        2.006502    1.187610    0.051308
     33          6           0        1.684729   -1.140638   -0.430726
     34          1           0       -0.308418   -1.839146   -0.620796
     35          6           0        2.606448   -0.098651   -0.230037
     36          1           0        2.060430   -2.123647   -0.690000
     37          7           0        0.200401    2.608087    0.415021
     38          7           0        2.679480    2.301236    0.349386
     39         16           0        1.575349    3.475720    0.643657
     40          6           0        4.041711   -0.325545   -0.307865
     41          6           0        4.951997    0.704326   -0.656076
     42          6           0        4.575361   -1.616683   -0.057632
     43          6           0        6.308988    0.444767   -0.760348
     44          1           0        4.580987    1.698442   -0.866265
     45          6           0        5.934545   -1.857246   -0.145655
     46          1           0        3.919520   -2.423482    0.252126
     47          6           0        6.834476   -0.835428   -0.507705
     48          1           0        6.981627    1.245841   -1.054919
     49          1           0        6.318236   -2.851064    0.068717
     50          6           0        8.312732   -1.102596   -0.576295
     51          1           0        8.504347   -2.142999   -0.858231
     52          1           0        8.771317   -0.466041   -1.343793
     53          6           0        9.027233   -0.845912    0.774072
     54          1           0        8.859712    0.205022    1.070723
     55          1           0        8.559556   -1.468593    1.546136
     56          7           0       10.427353   -1.238383    0.666249
     57          1           0       10.941936   -0.574919    0.089410
     58          1           0       10.870331   -1.233036    1.582364
 ---------------------------------------------------------------------
 Rotational constants (GHZ):           0.3674844           0.0395157           0.0364024
 Leave Link  202 at Thu Mar 14 11:35:00 2024, MaxMem= 32212254720 cpu:               0.1 elap:               0.0
 (Enter /home/<user>/g16/l301.exe)
 Standard basis: 6-31G(d) (6D, 7F)
 Ernie: Thresh=  0.10000D-02 Tol=  0.10000D-05 Strict=F.
 There are   549 symmetry adapted cartesian basis functions of A   symmetry.
 There are   549 symmetry adapted basis functions of A   symmetry.
   549 basis functions,  1048 primitive gaussians,   549 cartesian basis functions
   118 alpha electrons      117 beta electrons
       nuclear repulsion energy      3079.6305825605 Hartrees.
 IExCor=  402 DFT=T Ex+Corr=B3LYP ExCW=0 ScaHFX=  0.200000
 ScaDFX=  0.800000  0.720000  1.000000  0.810000 ScalE2=  1.000000  1.000000
 IRadAn=      5 IRanWt=     -1 IRanGd=            0 ICorTp=0 IEmpDi=  4
 NAtoms=   58 NActive=   58 NUniq=   58 SFac= 1.00D+00 NAtFMM=   60 NAOKFM=F Big=F
 Integral buffers will be    131072 words long.
 Raffenetti 2 integral format.
 Two-electron integral symmetry is turned on.
 Leave Link  301 at Thu Mar 14 11:35:00 2024, MaxMem= 32212254720 cpu:               0.8 elap:               0.0
 (Enter /home/<user>/g16/l302.exe)
 NPDir=0 NMtPBC=     1 NCelOv=     1 NCel=       1 NClECP=     1 NCelD=      1
         NCelK=      1 NCelE2=     1 NClLst=     1 CellRange=     0.0.
 One-electron integrals computed using PRISM.
 One-electron integral symmetry used in STVInt
 NBasis=   549 RedAO= T EigKep=  2.65D-04  NBF=   549
 NBsUse=   549 1.00D-06 EigRej= -1.00D+00 NBFU=   549
 Precomputing XC quadrature grid using
 IXCGrd= 4 IRadAn=           5 IRanWt=          -1 IRanGd=           0 AccXCQ= 0.00D+00.
 Generated NRdTot=       0 NPtTot=           0 NUsed=           0 NTot=          32
 NSgBfM=   512   512   512   512   512 MxSgAt=    58 MxSgA2=    58.
 Leave Link  302 at Thu Mar 14 11:35:01 2024, MaxMem= 32212254720 cpu:              12.9 elap:               0.4
 (Enter /home/<user>/g16/l303.exe)
 DipDrv:  MaxL=1.
 Leave Link  303 at Thu Mar 14 11:35:01 2024, MaxMem= 32212254720 cpu:               1.4 elap:               0.1
 (Enter /home/<user>/g16/l401.exe)
 Initial guess from the checkpoint file:  "FBTP_H0opt.chk"
 B after Tr=    -0.000000   -0.000000    0.000000
         Rot=    1.000000    0.000229   -0.000099   -0.000000 Ang=   0.03 deg.
 Guess basis will be translated and rotated to current coordinates.
 JPrj=2 DoOrth=T DoCkMO=T.
 Initial guess <Sx>= 0.0000 <Sy>= 0.0000 <Sz>= 0.5000 <S**2>= 0.7629 S= 0.5064
 Generating alternative initial guess.
 ExpMin= 1.17D-01 ExpMax= 2.19D+04 ExpMxC= 3.30D+03 IAcc=3 IRadAn=         5 AccDes= 0.00D+00
 Harris functional with IExCor=  402 and IRadAn=       5 diagonalized for initial guess.
 HarFok:  IExCor=  402 AccDes= 0.00D+00 IRadAn=         5 IDoV= 1 UseB2=F ITyADJ=14
 ICtDFT=  3500011 ScaDFX=  1.000000  1.000000  1.000000  1.000000
 FoFCou: FMM=F IPFlag=           0 FMFlag=      100000 FMFlg1=           0
         NFxFlg=           0 DoJE=T BraDBF=F KetDBF=T FulRan=T
         wScrn=  0.000000 ICntrl=       500 IOpCl=  0 I1Cent=   200000004 NGrid=           0
         NMat0=    1 NMatS0=      1 NMatT0=    0 NMatD0=    1 NMtDS0=    0 NMtDT0=    0
 Petite list used in FoFCou.
 Harris En= -1682.30457504373    
 Leave Link  401 at Thu Mar 14 11:35:03 2024, MaxMem= 32212254720 cpu:              47.2 elap:               1.6
 (Enter /home/<user>/g16/l502.exe)
 Integral symmetry usage will be decided dynamically.
 UHF open shell SCF:
 Using DIIS extrapolation, IDIIS=  1040.
 NGot= 32212254720 LenX= 32211628124 LenY= 32211326174
 Requested convergence on RMS density matrix=1.00D-08 within 128 cycles.
 Requested convergence on MAX density matrix=1.00D-06.
 Requested convergence on             energy=1.00D-06.
 No special actions if energy rises.
 Fock matrices will be formed incrementally for  20 cycles.
 Integral accuracy reduced to 1.0D-05 until final iterations.

 Cycle   1  Pass 0  IDiag  1:
 FoFJK:  IHMeth= 1 ICntrl=       0 DoSepK=F KAlg= 0 I1Cent=           0 FoldK=F
 IRaf= 550000000 NMat=       1 IRICut=       1 DoRegI=T DoRafI=F ISym2E= 0 IDoP0=0 IntGTp=1.
 FoFCou: FMM=F IPFlag=           0 FMFlag=      100000 FMFlg1=           0
         NFxFlg=           0 DoJE=F BraDBF=F KetDBF=F FulRan=T
         wScrn=  0.000000 ICntrl=         0 IOpCl=  1 I1Cent=           0 NGrid=           0
         NMat0=    1 NMatS0=      1 NMatT0=    0 NMatD0=    1 NMtDS0=    0 NMtDT0=    0
 Symmetry not used in FoFCou.
 E= -1682.36687502003    
 DIIS: error= 8.83D-04 at cycle   1 NSaved=   1.
 NSaved= 1 IEnMin= 1 EnMin= -1682.36687502003     IErMin= 1 ErrMin= 8.83D-04
 ErrMax= 8.83D-04  0.00D+00 EMaxC= 1.00D-01 BMatC= 2.08D-03 BMatP= 2.08D-03
 IDIUse=3 WtCom= 9.91D-01 WtEn= 8.83D-03
 Coeff-Com:  0.100D+01
 Coeff-En:   0.100D+01
 Coeff:      0.100D+01
 Gap=     1.961 Goal=   None    Shift=    0.000
 Gap=     1.950 Goal=   None    Shift=    0.000
 RMSDP=1.01D-04 MaxDP=3.11D-03              OVMax= 4.62D-03

 Cycle   2  Pass 0  IDiag  1:
 RMSU=  1.01D-04    CP:  1.00D+00
 E= -1682.36779687019     Delta-E=       -0.000921850165 Rises=F Damp=F
 DIIS: error= 8.54D-05 at cycle   2 NSaved=   2.
 NSaved= 2 IEnMin= 2 EnMin= -1682.36779687019     IErMin= 2 ErrMin= 8.54D-05
 ErrMax= 8.54D-05  0.00D+00 EMaxC= 1.00D-01 BMatC= 4.04D-05 BMatP= 2.08D-03
 IDIUse=1 WtCom= 1.00D+00 WtEn= 0.00D+00
 Coeff-Com: -0.544D-01 0.105D+01
 Coeff:     -0.544D-01 0.105D+01
 Gap=     0.094 Goal=   None    Shift=    0.000
 Gap=     0.030 Goal=   None    Shift=    0.000
 RMSDP=1.91D-05 MaxDP=1.46D-03 DE=-9.22D-04 OVMax= 2.37D-03

 Cycle   3  Pass 0  IDiag  1:
 RMSU=  1.90D-05    CP:  1.00D+00  1.02D+00
 E= -1682.36778140740     Delta-E=        0.000015462794 Rises=F Damp=F
 DIIS: error= 2.01D-04 at cycle   3 NSaved=   3.
 NSaved= 3 IEnMin= 2 EnMin= -1682.36779687019     IErMin= 2 ErrMin= 8.54D-05
 ErrMax= 2.01D-04  0.00D+00 EMaxC= 1.00D-01 BMatC= 1.19D-04 BMatP= 4.04D-05
 IDIUse=3 WtCom= 4.14D-01 WtEn= 5.86D-01
 Coeff-Com: -0.492D-01 0.706D+00 0.343D+00
 Coeff-En:   0.000D+00 0.691D+00 0.309D+00
 Coeff:     -0.203D-01 0.698D+00 0.323D+00
 Gap=     0.094 Goal=   None    Shift=    0.000
 Gap=     0.030 Goal=   None    Shift=    0.000
 RMSDP=1.31D-05 MaxDP=1.24D-03 DE= 1.55D-05 OVMax= 1.87D-03

 Cycle   4  Pass 0  IDiag  1:
 RMSU=  6.32D-06    CP:  1.00D+00  1.04D+00  4.03D-01
 E= -1682.36780953518     Delta-E=       -0.000028127781 Rises=F Damp=F
 DIIS: error= 5.13D-05 at cycle   4 NSaved=   4.
 NSaved= 4 IEnMin= 4 EnMin= -1682.36780953518     IErMin= 4 ErrMin= 5.13D-05
 ErrMax= 5.13D-05  0.00D+00 EMaxC= 1.00D-01 BMatC= 8.15D-06 BMatP= 4.04D-05
 IDIUse=1 WtCom= 1.00D+00 WtEn= 0.00D+00
 Coeff-Com: -0.269D-01 0.343D+00 0.225D+00 0.459D+00
 Coeff:     -0.269D-01 0.343D+00 0.225D+00 0.459D+00
 Gap=     0.094 Goal=   None    Shift=    0.000
 Gap=     0.029 Goal=   None    Shift=    0.000
 RMSDP=3.93D-06 MaxDP=3.36D-04 DE=-2.81D-05 OVMax= 5.89D-04

 Initial convergence to 1.0D-05 achieved.  Increase integral accuracy.
 Cycle   5  Pass 1  IDiag  1:
 E= -1682.36787713785     Delta-E=       -0.000067602670 Rises=F Damp=F
 DIIS: error= 9.12D-05 at cycle   1 NSaved=   1.
 NSaved= 1 IEnMin= 1 EnMin= -1682.36787713785     IErMin= 1 ErrMin= 9.12D-05
 ErrMax= 9.12D-05  0.00D+00 EMaxC= 1.00D-01 BMatC= 1.23D-05 BMatP= 1.23D-05
 IDIUse=1 WtCom= 1.00D+00 WtEn= 0.00D+00
 Coeff-Com:  0.100D+01
 Coeff:      0.100D+01
 Gap=     0.094 Goal=   None    Shift=    0.000
 Gap=     0.030 Goal=   None    Shift=    0.000
 RMSDP=3.93D-06 MaxDP=3.36D-04 DE=-6.76D-05 OVMax= 1.06D-03

 Cycle   6  Pass 1  IDiag  1:
 RMSU=  6.68D-05    CP:  1.00D+00
 E= -1682.36787802162     Delta-E=       -0.000000883765 Rises=F Damp=F
 DIIS: error= 4.17D-05 at cycle   2 NSaved=   2.
 NSaved= 2 IEnMin= 2 EnMin= -1682.36787802162     IErMin= 2 ErrMin= 4.17D-05
 ErrMax= 4.17D-05  0.00D+00 EMaxC= 1.00D-01 BMatC= 6.51D-06 BMatP= 1.23D-05
 IDIUse=1 WtCom= 1.00D+00 WtEn= 0.00D+00
 Coeff-Com:  0.379D+00 0.621D+00
 Coeff:      0.379D+00 0.621D+00
 Gap=     0.094 Goal=   None    Shift=    0.000
 Gap=     0.029 Goal=   None    Shift=    0.000
 RMSDP=6.47D-06 MaxDP=5.45D-04 DE=-8.84D-07 OVMax= 1.69D-03

 Cycle   7  Pass 1  IDiag  1:
 RMSU=  6.47D-06    CP:  1.00D+00  1.00D+00
 E= -1682.36787662863     Delta-E=        0.000001392988 Rises=F Damp=F
 DIIS: error= 6.11D-05 at cycle   3 NSaved=   3.
 NSaved= 3 IEnMin= 2 EnMin= -1682.36787802162     IErMin= 2 ErrMin= 4.17D-05
 ErrMax= 6.11D-05  0.00D+00 EMaxC= 1.00D-01 BMatC= 1.17D-05 BMatP= 6.51D-06
 IDIUse=1 WtCom= 1.00D+00 WtEn= 0.00D+00
 Coeff-Com:  0.238D-01 0.564D+00 0.412D+00
 Coeff:      0.238D-01 0.564D+00 0.412D+00
 Gap=     0.094 Goal=   None    Shift=    0.000
 Gap=     0.029 Goal=   None    Shift=    0.000
 RMSDP=3.97D-06 MaxDP=3.19D-04 DE= 1.39D-06 OVMax= 9.91D-04

 Cycle   8  Pass 1  IDiag  1:
 RMSU=  1.26D-06    CP:  1.00D+00  1.01D+00  4.25D-01
 E= -1682.36787968379     Delta-E=       -0.000003055156 Rises=F Damp=F
 DIIS: error= 1.66D-05 at cycle   4 NSaved=   4.
 NSaved= 4 IEnMin= 4 EnMin= -1682.36787968379     IErMin= 4 ErrMin= 1.66D-05
 ErrMax= 1.66D-05  0.00D+00 EMaxC= 1.00D-01 BMatC= 6.19D-07 BMatP= 6.51D-06
 IDIUse=1 WtCom= 1.00D+00 WtEn= 0.00D+00
 Coeff-Com: -0.396D-02 0.365D+00 0.289D+00 0.350D+00
 Coeff:     -0.396D-02 0.365D+00 0.289D+00 0.350D+00
 Gap=     0.094 Goal=   None    Shift=    0.000
 Gap=     0.029 Goal=   None    Shift=    0.000
 RMSDP=8.09D-07 MaxDP=8.13D-05 DE=-3.06D-06 OVMax= 9.03D-05

 Cycle   9  Pass 1  IDiag  1:
 RMSU=  1.96D-07    CP:  1.00D+00  1.01D+00  4.41D-01  3.82D-01
 E= -1682.36787983811     Delta-E=       -0.000000154321 Rises=F Damp=F
 DIIS: error= 1.05D-06 at cycle   5 NSaved=   5.
 NSaved= 5 IEnMin= 5 EnMin= -1682.36787983811     IErMin= 5 ErrMin= 1.05D-06
 ErrMax= 1.05D-06  0.00D+00 EMaxC= 1.00D-01 BMatC= 3.86D-09 BMatP= 6.19D-07
 IDIUse=1 WtCom= 1.00D+00 WtEn= 0.00D+00
 Coeff-Com: -0.248D-02 0.202D+00 0.159D+00 0.197D+00 0.444D+00
 Coeff:     -0.248D-02 0.202D+00 0.159D+00 0.197D+00 0.444D+00
 Gap=     0.094 Goal=   None    Shift=    0.000
 Gap=     0.029 Goal=   None    Shift=    0.000
 RMSDP=9.22D-08 MaxDP=6.10D-06 DE=-1.54D-07 OVMax= 2.19D-05

 Cycle  10  Pass 1  IDiag  1:
 RMSU=  9.03D-08    CP:  1.00D+00  1.01D+00  4.42D-01  3.85D-01  9.19D-01
 E= -1682.36787983932     Delta-E=       -0.000000001218 Rises=F Damp=F
 DIIS: error= 6.42D-07 at cycle   6 NSaved=   6.
 NSaved= 6 IEnMin= 6 EnMin= -1682.36787983932     IErMin= 6 ErrMin= 6.42D-07
 ErrMax= 6.42D-07  0.00D+00 EMaxC= 1.00D-01 BMatC= 1.04D-09 BMatP= 3.86D-09
 IDIUse=1 WtCom= 1.00D+00 WtEn= 0.00D+00
 Coeff-Com:  0.150D-04-0.160D-01-0.145D-01-0.153D-01 0.268D+00 0.778D+00
 Coeff:      0.150D-04-0.160D-01-0.145D-01-0.153D-01 0.268D+00 0.778D+00
 Gap=     0.094 Goal=   None    Shift=    0.000
 Gap=     0.029 Goal=   None    Shift=    0.000
 RMSDP=8.08D-08 MaxDP=7.37D-06 DE=-1.22D-09 OVMax= 2.44D-05

 Cycle  11  Pass 1  IDiag  1:
 RMSU=  6.31D-08    CP:  1.00D+00  1.01D+00  4.42D-01  3.92D-01  1.17D+00
                    CP:  1.02D+00
 E= -1682.36787984023     Delta-E=       -0.000000000905 Rises=F Damp=F
 DIIS: error= 4.83D-07 at cycle   7 NSaved=   7.
 NSaved= 7 IEnMin= 7 EnMin= -1682.36787984023     IErMin= 7 ErrMin= 4.83D-07
 ErrMax= 4.83D-07  0.00D+00 EMaxC= 1.00D-01 BMatC= 6.76D-10 BMatP= 1.04D-09
 IDIUse=1 WtCom= 1.00D+00 WtEn= 0.00D+00
 Coeff-Com:  0.149D-02-0.134D+00-0.108D+00-0.131D+00-0.156D-01 0.692D+00
 Coeff-Com:  0.696D+00
 Coeff:      0.149D-02-0.134D+00-0.108D+00-0.131D+00-0.156D-01 0.692D+00
 Coeff:      0.696D+00
 Gap=     0.094 Goal=   None    Shift=    0.000
 Gap=     0.029 Goal=   None    Shift=    0.000
 RMSDP=7.82D-08 MaxDP=6.10D-06 DE=-9.05D-10 OVMax= 2.46D-05

 Cycle  12  Pass 1  IDiag  1:
 RMSU=  5.07D-08    CP:  1.00D+00  1.01D+00  4.41D-01  3.97D-01  1.37D+00
                    CP:  1.51D+00  1.13D+00
 E= -1682.36787984068     Delta-E=       -0.000000000454 Rises=F Damp=F
 DIIS: error= 2.70D-07 at cycle   8 NSaved=   8.
 NSaved= 8 IEnMin= 8 EnMin= -1682.36787984068     IErMin= 8 ErrMin= 2.70D-07
 ErrMax= 2.70D-07  0.00D+00 EMaxC= 1.00D-01 BMatC= 2.14D-10 BMatP= 6.76D-10
 IDIUse=1 WtCom= 1.00D+00 WtEn= 0.00D+00
 Coeff-Com:  0.107D-02-0.914D-01-0.734D-01-0.890D-01-0.993D-01 0.215D+00
 Coeff-Com:  0.505D+00 0.631D+00
 Coeff:      0.107D-02-0.914D-01-0.734D-01-0.890D-01-0.993D-01 0.215D+00
 Coeff:      0.505D+00 0.631D+00
 Gap=     0.094 Goal=   None    Shift=    0.000
 Gap=     0.029 Goal=   None    Shift=    0.000
 RMSDP=4.47D-08 MaxDP=4.00D-06 DE=-4.54D-10 OVMax= 1.66D-05

 Cycle  13  Pass 1  IDiag  1:
 RMSU=  2.25D-08    CP:  1.00D+00  1.01D+00  4.42D-01  4.00D-01  1.48D+00
                    CP:  1.67D+00  1.56D+00  9.39D-01
 E= -1682.36787984089     Delta-E=       -0.000000000203 Rises=F Damp=F
 DIIS: error= 1.52D-07 at cycle   9 NSaved=   9.
 NSaved= 9 IEnMin= 9 EnMin= -1682.36787984089     IErMin= 9 ErrMin= 1.52D-07
 ErrMax= 1.52D-07  0.00D+00 EMaxC= 1.00D-01 BMatC= 7.41D-11 BMatP= 2.14D-10
 IDIUse=1 WtCom= 1.00D+00 WtEn= 0.00D+00
 Coeff-Com:  0.311D-03-0.246D-01-0.196D-01-0.232D-01-0.652D-01-0.611D-01
 Coeff-Com:  0.145D+00 0.470D+00 0.578D+00
 Coeff:      0.311D-03-0.246D-01-0.196D-01-0.232D-01-0.652D-01-0.611D-01
 Coeff:      0.145D+00 0.470D+00 0.578D+00
 Gap=     0.094 Goal=   None    Shift=    0.000
 Gap=     0.029 Goal=   None    Shift=    0.000
 RMSDP=2.06D-08 MaxDP=1.65D-06 DE=-2.03D-10 OVMax= 7.02D-06

 Cycle  14  Pass 1  IDiag  1:
 RMSU=  1.12D-08    CP:  1.00D+00  1.01D+00  4.42D-01  4.01D-01  1.52D+00
                    CP:  1.74D+00  1.65D+00  1.15D+00  7.65D-01
 E= -1682.36787984090     Delta-E=       -0.000000000018 Rises=F Damp=F
 DIIS: error= 6.43D-08 at cycle  10 NSaved=  10.
 NSaved=10 IEnMin=10 EnMin= -1682.36787984090     IErMin=10 ErrMin= 6.43D-08
 ErrMax= 6.43D-08  0.00D+00 EMaxC= 1.00D-01 BMatC= 1.17D-11 BMatP= 7.41D-11
 IDIUse=1 WtCom= 1.00D+00 WtEn= 0.00D+00
 Coeff-Com: -0.881D-04 0.876D-02 0.706D-02 0.934D-02-0.119D-01-0.867D-01
 Coeff-Com: -0.430D-01 0.128D+00 0.345D+00 0.643D+00
 Coeff:     -0.881D-04 0.876D-02 0.706D-02 0.934D-02-0.119D-01-0.867D-01
 Coeff:     -0.430D-01 0.128D+00 0.345D+00 0.643D+00
 Gap=     0.094 Goal=   None    Shift=    0.000
 Gap=     0.029 Goal=   None    Shift=    0.000
 RMSDP=7.46D-09 MaxDP=8.00D-07 DE=-1.82D-11 OVMax= 1.64D-06

 SCF Done:  E(UB3LYP) =  -1682.36787984     A.U. after   14 cycles
            NFock= 14  Conv=0.75D-08     -V/T= 2.0082
 <Sx>= 0.0000 <Sy>= 0.0000 <Sz>= 0.5000 <S**2>= 0.7626 S= 0.5063
 <L.S>= 0.000000000000E+00
 KE= 1.668648051544D+03 PE=-1.005492118403D+04 EE= 3.624274670081D+03
 Annihilation of the first spin contaminant:
 S**2 before annihilation     0.7626,   after     0.7501
 Leave Link  502 at Thu Mar 14 11:35:38 2024, MaxMem= 32212254720 cpu:            1065.1 elap:              35.5
 (Enter /home/<user>/g16/l701.exe)
 ... and contract with generalized density number  0.
 Compute integral first derivatives.
 Leave Link  701 at Thu Mar 14 11:35:38 2024, MaxMem= 32212254720 cpu:               5.1 elap:               0.2
 (Enter /home/<user>/g16/l702.exe)
 L702 exits ... SP integral derivatives will be done elsewhere.
 Leave Link  702 at Thu Mar 14 11:35:38 2024, MaxMem= 32212254720 cpu:               0.7 elap:               0.0
 (Enter /home/<user>/g16/l703.exe)
 Integral derivatives from FoFJK, PRISM(SPDF).
 Compute integral first derivatives, UseDBF=F ICtDFT=           0.
 Calling FoFJK, ICntrl=      2127 FMM=F ISym2X=0 I1Cent= 0 IOpClX= 1 NMat=1 NMatS=1 NMatT=0.
 FoFJK:  IHMeth= 1 ICntrl=    2127 DoSepK=F KAlg= 0 I1Cent=           0 FoldK=F
 IRaf=         0 NMat=       1 IRICut=       1 DoRegI=T DoRafI=F ISym2E= 0 IDoP0=0 IntGTp=1.
 FoFCou: FMM=F IPFlag=           0 FMFlag=      100000 FMFlg1=         800
         NFxFlg=           0 DoJE=F BraDBF=F KetDBF=F FulRan=T
         wScrn=  0.000000 ICntrl=      2127 IOpCl=  1 I1Cent=           0 NGrid=           0
         NMat0=    1 NMatS0=      1 NMatT0=    0 NMatD0=    1 NMtDS0=    0 NMtDT0=    0
 Symmetry not used in FoFCou.
 Leave Link  703 at Thu Mar 14 11:35:45 2024, MaxMem= 32212254720 cpu:             200.7 elap:               6.7
 (Enter /home/<user>/g16/l716.exe)
 Dipole        =-8.89286044D-01-1.76207017D-01-7.47451315D-02
 ***** Axes restored to original set *****
 -------------------------------------------------------------------
 Center     Atomic                   Forces (Hartrees/Bohr)
 Number     Number              X              Y              Z
 -------------------------------------------------------------------
      1        6           0.000506685   -0.000402152    0.000087083
      2        6          -0.000566283    0.000229987   -0.000003036
      3        6           0.000389762    0.000068195    0.000049172
      4        6          -0.000505446    0.000460868   -0.000194518
      5        6           0.000888710    0.000159272    0.000035363
      6        6          -0.000484978   -0.000317506   -0.000004264
      7        1           0.000016472    0.000135577    0.000018199
      8        1          -0.000191340   -0.000056417    0.000071486
      9        1           0.000108750    0.000097802    0.000029017
     10        6           0.000049931   -0.000367840    0.000075348
     11        6           0.000300023    0.000361177   -0.000083755
     12        6          -0.000079074   -0.000037868    0.000007018
     13        6           0.000000966    0.000133710   -0.000035808
     14        6          -0.000194042   -0.000216609    0.000060792
     15        6           0.000395749   -0.000109046    0.000021911
     16        6          -0.000891444   -0.000151699   -0.000007613
     17        1           0.000070686   -0.000029294    0.000007352
     18        1           0.000009964   -0.000016686    0.000003528
     19        1           0.000050992    0.000069123   -0.000016189
     20        1          -0.000036518    0.000033491   -0.000006450
     21        6          -0.000025846   -0.000046324   -0.000027533
     22        1           0.000008662    0.000005758    0.000005954
     23        1           0.000008933    0.000003908    0.000014680
     24        1           0.000003410    0.000021026    0.000015387
     25        6          -0.000003984    0.000023800    0.000092788
     26        1           0.000007827    0.000011239   -0.000017222
     27        1           0.000000414    0.000016108   -0.000006144
     28        1           0.000007617    0.000002602   -0.000033899
     29        6           0.000374529   -0.000260022   -0.000030796
     30        6          -0.000136511    0.000083993    0.000207702
     31        6          -0.000428480    0.000407391   -0.000057782
     32        6           0.000184159    0.000024709   -0.000094912
     33        6           0.000588731    0.000269584   -0.000026393
     34        1           0.000173284   -0.000071403   -0.000036927
     35        6          -0.000312002   -0.000087061   -0.000109123
     36        1          -0.000137823   -0.000094570    0.000042135
     37        7          -0.000130042    0.000162922   -0.000071104
     38        7          -0.000025838    0.000151863    0.000191885
     39       16          -0.000188381   -0.000558315   -0.000189381
     40        6           0.000223775   -0.000043272    0.000101780
     41        6          -0.000051310   -0.000085541   -0.000077668
     42        6          -0.000149816    0.000151702   -0.000034889
     43        6           0.000122672   -0.000068753    0.000017179
     44        1           0.000070830   -0.000013512   -0.000007561
     45        6           0.000078621    0.000031883   -0.000015713
     46        1           0.000049484   -0.000086503    0.000029941
     47        6           0.000052767   -0.000057520    0.000040398
     48        1          -0.000062649    0.000071165    0.000002932
     49        1          -0.000080631   -0.000044935   -0.000007037
     50        6          -0.000148277   -0.000045749   -0.000036601
     51        1          -0.000010853    0.000004389   -0.000005771
     52        1           0.000046337   -0.000041852   -0.000007312
     53        6          -0.000057726   -0.000013306    0.000109010
     54        1           0.000013739   -0.000004101   -0.000074966
     55        1           0.000047348    0.000071645    0.000018535
     56        7           0.000075555    0.000186069   -0.000158884
     57        1           0.000032085    0.000033559    0.000097465
     58        1          -0.000060170   -0.000156658    0.000025212
 -------------------------------------------------------------------
 Cartesian Forces:  Max     0.000891444 RMS     0.000190819
 Leave Link  716 at Thu Mar 14 11:35:45 2024, MaxMem= 32212254720 cpu:               0.7 elap:               0.0
 (Enter /home/<user>/g16/l103.exe)

 GradGradGradGradGradGradGradGradGradGradGradGradGradGradGradGradGradGrad
 Berny optimization.
 Using GEDIIS/GDIIS optimizer.
 FormGI is forming the generalized inverse of G from B-inverse, IUseBI=4.
 Internal  Forces:  Max     0.000516054 RMS     0.000104781
 Search for a local minimum.
 Step number   5 out of a maximum of  346
 All quantities printed in internal units (Hartrees-Bohrs-Radians)
 RMS Force = .10478D-03 SwitMx=.10000D-02 MixMth= 2
 Mixed Optimization -- En-DIIS/RFO-DIIS
 Swapping is turned off.
 Update second derivatives using D2CorX and points    2    3    4    5
 DE= -1.08D-04 DEPred=-1.15D-04 R= 9.38D-01
 TightC=F SS=  1.41D+00  RLast= 5.59D-02 DXNew= 1.0781D+00 1.6780D-01
 Trust test= 9.38D-01 RLast= 5.59D-02 DXMaxT set to 6.41D-01
 ITU=  1  0  1  1  0
     Eigenvalues ---    0.00230   0.00230   0.00252   0.00584   0.00657
     Eigenvalues ---    0.00756   0.01019   0.01053   0.01248   0.01449
     Eigenvalues ---    0.01469   0.01605   0.01613   0.01634   0.01656
     Eigenvalues ---    0.01680   0.01709   0.01734   0.01737   0.01861
     Eigenvalues ---    0.01887   0.01928   0.02022   0.02033   0.02039
     Eigenvalues ---    0.02075   0.02082   0.02088   0.02093   0.02094
     Eigenvalues ---    0.02112   0.02116   0.02119   0.02125   0.02128
     Eigenvalues ---    0.02134   0.02143   0.02145   0.02149   0.02159
     Eigenvalues ---    0.02161   0.02165   0.02236   0.02545   0.04076
     Eigenvalues ---    0.04211   0.04342   0.04359   0.05391   0.05397
     Eigenvalues ---    0.05451   0.05537   0.05539   0.05596   0.06028
     Eigenvalues ---    0.08107   0.08856   0.09237   0.11565   0.12531
     Eigenvalues ---    0.12805   0.15450   0.15931   0.15962   0.15980
     Eigenvalues ---    0.15988   0.15996   0.15998   0.15999   0.16000
     Eigenvalues ---    0.16000   0.16000   0.16000   0.16000   0.16000
     Eigenvalues ---    0.16000   0.16000   0.16000   0.16000   0.16014
     Eigenvalues ---    0.16019   0.16063   0.19030   0.20855   0.21878
     Eigenvalues ---    0.21966   0.22004   0.22083   0.22459   0.22474
     Eigenvalues ---    0.22849   0.22967   0.23652   0.24143   0.24549
     Eigenvalues ---    0.24610   0.24896   0.24948   0.24985   0.24988
     Eigenvalues ---    0.24995   0.24998   0.25319   0.25930   0.28057
     Eigenvalues ---    0.28108   0.28346   0.28716   0.28998   0.31241
     Eigenvalues ---    0.32587   0.33130   0.33783   0.33947   0.34023
     Eigenvalues ---    0.34091   0.34100   0.34104   0.34117   0.34132
     Eigenvalues ---    0.34271   0.34287   0.34327   0.34836   0.35036
     Eigenvalues ---    0.35052   0.35086   0.35150   0.35157   0.35181
     Eigenvalues ---    0.35191   0.35193   0.35240   0.35280   0.35356
     Eigenvalues ---    0.35490   0.35848   0.36121   0.36821   0.37963
     Eigenvalues ---    0.38844   0.40114   0.40450   0.41493   0.41593
     Eigenvalues ---    0.41716   0.42064   0.42295   0.42475   0.43010
     Eigenvalues ---    0.44216   0.44412   0.44541   0.44742   0.44952
     Eigenvalues ---    0.45215   0.45666   0.45803   0.45959   0.46119
     Eigenvalues ---    0.46402   0.46970   0.47210   0.47270   0.48134
     Eigenvalues ---    0.54170   0.54540   0.59898
 En-DIIS/RFO-DIIS/Sim-DIIS IScMMF=       -3 using points:     5    4    3    2
 RFO step:  Lambda=-2.15217217D-05.
 NNeg= 0 NGDIIS= 4 SimSw=  2.50D-01 Rises=F DC= -1.08D-04 SmlDif=  1.00D-05
 NRisDI= 0 DoIntr=F SqrtH=F CThrHd= 10.0 CDAdj=  3.0
 RMS Error=  0.1967238878D-02 NUsed= 4 OKEnD=T EnDIS=F
 InvSVX:  RCond= 1.97D-04 Info=           0 Equed=N FErr=  5.31D-15 BErr=  6.15D-17
 DidBck=F Rises=F RFO-DIIS coefs:    1.43509   -0.37040   -0.04527   -0.01942
 Iteration  1 RMS(Cart)=  0.00418192 RMS(Int)=  0.00000677
 Iteration  2 RMS(Cart)=  0.00001738 RMS(Int)=  0.00000245
 Iteration  3 RMS(Cart)=  0.00000000 RMS(Int)=  0.00000245
 ITry= 1 IFail=0 DXMaxC= 2.68D-02 DCOld= 1.00D+10 DXMaxT= 6.41D-01 DXLimC= 3.00D+00 Rises=F
 Variable       Old X    -DE/DX   Delta X   Delta X   Delta X     New X
                                 (Linear)    (Quad)   (Total)
    R1        2.70078  -0.00039  -0.00020  -0.00068  -0.00089   2.69989
    R2        2.60770   0.00020   0.00021   0.00029   0.00050   2.60820
    R3        2.04263   0.00011  -0.00009   0.00028   0.00019   2.04282
    R4        2.69964  -0.00012  -0.00022  -0.00014  -0.00036   2.69927
    R5        2.73863   0.00016   0.00023   0.00053   0.00075   2.73939
    R6        2.59521   0.00012  -0.00010   0.00035   0.00025   2.59546
    R7        2.05018  -0.00002   0.00028  -0.00023   0.00005   2.05023
    R8        2.69319  -0.00028  -0.00061  -0.00023  -0.00085   2.69234
    R9        2.88709   0.00000   0.00014  -0.00002   0.00012   2.88721
   R10        2.66080  -0.00029  -0.00051  -0.00031  -0.00082   2.65998
   R11        2.72428   0.00052   0.00087   0.00075   0.00162   2.72590
   R12        2.05164   0.00003   0.00016  -0.00003   0.00013   2.05177
   R13        2.88473  -0.00002   0.00001   0.00000   0.00001   2.88474
   R14        2.92317   0.00001   0.00027  -0.00016   0.00011   2.92328
   R15        2.92235  -0.00006   0.00012  -0.00032  -0.00020   2.92215
   R16        2.62223   0.00003   0.00000   0.00006   0.00006   2.62229
   R17        2.68262  -0.00019  -0.00044  -0.00015  -0.00059   2.68203
   R18        2.64696   0.00003  -0.00009   0.00016   0.00007   2.64703
   R19        2.05283   0.00001   0.00010  -0.00004   0.00007   2.05290
   R20        2.65840  -0.00009  -0.00024  -0.00001  -0.00025   2.65815
   R21        2.05249  -0.00000  -0.00001  -0.00001  -0.00002   2.05248
   R22        2.62302   0.00014   0.00011   0.00022   0.00033   2.62335
   R23        2.05126   0.00001   0.00008  -0.00004   0.00004   2.05131
   R24        2.65821  -0.00027  -0.00036  -0.00037  -0.00073   2.65748
   R25        2.05234   0.00003   0.00013  -0.00002   0.00011   2.05245
   R26        2.06931  -0.00001   0.00005  -0.00007  -0.00002   2.06929
   R27        2.07028   0.00001   0.00005  -0.00001   0.00004   2.07032
   R28        2.06796   0.00003   0.00005   0.00004   0.00009   2.06805
   R29        2.07044  -0.00000   0.00003  -0.00003   0.00000   2.07045
   R30        2.06928  -0.00001   0.00005  -0.00008  -0.00003   2.06926
   R31        2.06806   0.00003   0.00005   0.00007   0.00011   2.06817
   R32        2.73867  -0.00025   0.00072  -0.00090  -0.00018   2.73848
   R33        2.66124  -0.00032  -0.00018  -0.00064  -0.00082   2.66042
   R34        2.74890   0.00024   0.00057   0.00042   0.00099   2.74989
   R35        2.52159  -0.00013   0.00036  -0.00045  -0.00009   2.52151
   R36        2.63648   0.00021   0.00013   0.00037   0.00050   2.63699
   R37        2.04811  -0.00003   0.00022  -0.00023  -0.00001   2.04810
   R38        2.73427   0.00010  -0.00028   0.00051   0.00022   2.73449
   R39        2.52256  -0.00007   0.00034  -0.00032   0.00003   2.52259
   R40        2.65611  -0.00028  -0.00034  -0.00044  -0.00078   2.65533
   R41        2.04814   0.00003   0.00018  -0.00003   0.00015   2.04829
   R42        2.74987   0.00021  -0.00025   0.00084   0.00059   2.75046
   R43        3.10257  -0.00032  -0.00005  -0.00072  -0.00077   3.10180
   R44        3.09657  -0.00014  -0.00029  -0.00019  -0.00047   3.09609
   R45        2.67949  -0.00002  -0.00020   0.00011  -0.00009   2.67940
   R46        2.68210  -0.00007  -0.00014  -0.00010  -0.00024   2.68186
   R47        2.61825   0.00004  -0.00004   0.00013   0.00009   2.61834
   R48        2.04413  -0.00003   0.00016  -0.00023  -0.00008   2.04406
   R49        2.61370   0.00002  -0.00007   0.00009   0.00002   2.61373
   R50        2.05016   0.00004   0.00017   0.00002   0.00019   2.05034
   R51        2.65832  -0.00000  -0.00015   0.00011  -0.00004   2.65828
   R52        2.05358   0.00001   0.00012  -0.00006   0.00007   2.05365
   R53        2.66248  -0.00001  -0.00004   0.00001  -0.00003   2.66245
   R54        2.05351   0.00001   0.00009  -0.00004   0.00005   2.05356
   R55        2.84171  -0.00007  -0.00020  -0.00006  -0.00026   2.84145
   R56        2.06892  -0.00000  -0.00001  -0.00001  -0.00001   2.06891
   R57        2.07402   0.00000   0.00007  -0.00005   0.00003   2.07404
   R58        2.92748   0.00006   0.00032  -0.00004   0.00028   2.92776
   R59        2.08772  -0.00002  -0.00002  -0.00006  -0.00008   2.08764
   R60        2.07228  -0.00004  -0.00004  -0.00011  -0.00015   2.07213
   R61        2.75537   0.00003  -0.00007   0.00016   0.00009   2.75546
   R62        1.92504  -0.00002  -0.00001  -0.00004  -0.00005   1.92499
   R63        1.92300  -0.00001  -0.00001  -0.00001  -0.00002   1.92298
    A1        2.12047   0.00002   0.00030  -0.00014   0.00016   2.12063
    A2        2.07656   0.00005   0.00031   0.00024   0.00055   2.07711
    A3        2.08603  -0.00007  -0.00060  -0.00010  -0.00070   2.08534
    A4        2.06308   0.00004  -0.00080   0.00072  -0.00009   2.06299
    A5        2.12267  -0.00039   0.00232  -0.00265  -0.00033   2.12233
    A6        2.09729   0.00035  -0.00155   0.00197   0.00042   2.09770
    A7        2.10244  -0.00010   0.00052  -0.00071  -0.00019   2.10225
    A8        2.08931   0.00026   0.00023   0.00129   0.00152   2.09083
    A9        2.09013  -0.00016  -0.00067  -0.00064  -0.00132   2.08881
   A10        2.09937   0.00007   0.00017   0.00010   0.00027   2.09964
   A11        2.25329  -0.00025  -0.00060  -0.00072  -0.00132   2.25198
   A12        1.93048   0.00018   0.00043   0.00061   0.00105   1.93153
   A13        2.09814   0.00000  -0.00039   0.00033  -0.00005   2.09809
   A14        1.90061  -0.00013  -0.00022  -0.00040  -0.00061   1.90000
   A15        2.28443   0.00012   0.00060   0.00006   0.00067   2.28510
   A16        2.08269  -0.00003   0.00024  -0.00032  -0.00008   2.08261
   A17        2.09401  -0.00013  -0.00042  -0.00053  -0.00094   2.09307
   A18        2.10647   0.00015   0.00017   0.00085   0.00103   2.10750
   A19        1.75988  -0.00009  -0.00038  -0.00049  -0.00087   1.75901
   A20        1.94347   0.00004   0.00002   0.00024   0.00026   1.94373
   A21        1.94645   0.00002   0.00016  -0.00018  -0.00002   1.94643
   A22        1.94275   0.00003  -0.00005   0.00020   0.00014   1.94290
   A23        1.94477   0.00004   0.00022   0.00003   0.00024   1.94502
   A24        1.92194  -0.00003   0.00002   0.00016   0.00018   1.92212
   A25        2.25110  -0.00013  -0.00037  -0.00038  -0.00076   2.25035
   A26        1.93978   0.00013   0.00040   0.00047   0.00087   1.94065
   A27        2.09230  -0.00000  -0.00003  -0.00009  -0.00011   2.09218
   A28        2.07429  -0.00001   0.00006  -0.00004   0.00002   2.07431
   A29        2.11641  -0.00007  -0.00029  -0.00029  -0.00059   2.11582
   A30        2.09249   0.00008   0.00023   0.00033   0.00056   2.09306
   A31        2.11727  -0.00005  -0.00010  -0.00005  -0.00015   2.11712
   A32        2.08442   0.00000   0.00003  -0.00009  -0.00006   2.08435
   A33        2.08150   0.00004   0.00007   0.00014   0.00021   2.08171
   A34        2.10147  -0.00001  -0.00004   0.00003  -0.00001   2.10146
   A35        2.08593   0.00009   0.00019   0.00045   0.00064   2.08657
   A36        2.09579  -0.00009  -0.00015  -0.00048  -0.00063   2.09515
   A37        2.06768  -0.00001   0.00004  -0.00014  -0.00010   2.06758
   A38        2.10532  -0.00004  -0.00003  -0.00021  -0.00025   2.10507
   A39        2.11019   0.00005  -0.00001   0.00036   0.00035   2.11054
   A40        1.89392  -0.00009  -0.00022  -0.00021  -0.00043   1.89348
   A41        2.27590   0.00001   0.00016  -0.00008   0.00009   2.27599
   A42        2.11337   0.00008   0.00006   0.00029   0.00035   2.11371
   A43        1.92621   0.00001   0.00023  -0.00008   0.00016   1.92636
   A44        1.93064   0.00001   0.00012  -0.00000   0.00012   1.93076
   A45        1.94503  -0.00001  -0.00014   0.00003  -0.00011   1.94492
   A46        1.88009  -0.00001  -0.00000   0.00001   0.00001   1.88010
   A47        1.88880  -0.00000  -0.00008   0.00005  -0.00003   1.88877
   A48        1.89119  -0.00001  -0.00013  -0.00001  -0.00014   1.89105
   A49        1.93065   0.00000   0.00011  -0.00005   0.00006   1.93072
   A50        1.92676  -0.00001   0.00017  -0.00013   0.00004   1.92680
   A51        1.94530   0.00001  -0.00013   0.00011  -0.00002   1.94528
   A52        1.87869   0.00001   0.00007   0.00010   0.00018   1.87887
   A53        1.89187  -0.00001  -0.00017  -0.00005  -0.00021   1.89165
   A54        1.88863  -0.00000  -0.00006   0.00001  -0.00005   1.88859
   A55        2.16922  -0.00046   0.00299  -0.00325  -0.00026   2.16896
   A56        2.11764   0.00047  -0.00187   0.00257   0.00070   2.11834
   A57        1.99631  -0.00001  -0.00109   0.00066  -0.00043   1.99588
   A58        2.11809   0.00007   0.00015   0.00017   0.00031   2.11840
   A59        2.19216  -0.00029   0.00098  -0.00164  -0.00066   2.19150
   A60        1.97184   0.00022  -0.00113   0.00156   0.00042   1.97226
   A61        2.16696   0.00001   0.00080  -0.00053   0.00027   2.16723
   A62        2.07119   0.00018  -0.00016   0.00134   0.00117   2.07236
   A63        2.04299  -0.00020  -0.00051  -0.00082  -0.00133   2.04166
   A64        2.12410  -0.00008   0.00048  -0.00066  -0.00018   2.12391
   A65        1.97362  -0.00011  -0.00006  -0.00022  -0.00030   1.97332
   A66        2.18463   0.00018  -0.00030   0.00072   0.00042   2.18504
   A67        2.16190   0.00011   0.00029   0.00022   0.00051   2.16241
   A68        2.04898  -0.00021  -0.00042  -0.00091  -0.00133   2.04765
   A69        2.07056   0.00011   0.00020   0.00072   0.00091   2.07147
   A70        1.99861  -0.00010  -0.00067   0.00021  -0.00046   1.99815
   A71        2.16274   0.00040   0.00068   0.00121   0.00189   2.16463
   A72        2.12183  -0.00030  -0.00000  -0.00142  -0.00143   2.12040
   A73        1.87352  -0.00030   0.00131  -0.00206  -0.00076   1.87276
   A74        1.87376  -0.00019   0.00078  -0.00124  -0.00047   1.87328
   A75        1.73200   0.00038  -0.00084   0.00195   0.00110   1.73311
   A76        2.13304   0.00025   0.00036   0.00088   0.00123   2.13427
   A77        2.09817  -0.00020  -0.00004  -0.00096  -0.00101   2.09716
   A78        2.05178  -0.00005  -0.00032   0.00004  -0.00028   2.05150
   A79        2.10735   0.00003   0.00026  -0.00010   0.00017   2.10752
   A80        2.08867   0.00005  -0.00001   0.00041   0.00040   2.08907
   A81        2.08687  -0.00008  -0.00023  -0.00033  -0.00056   2.08631
   A82        2.11354   0.00005   0.00018   0.00006   0.00023   2.11377
   A83        2.09388   0.00007   0.00025   0.00032   0.00057   2.09445
   A84        2.07474  -0.00012  -0.00038  -0.00041  -0.00079   2.07396
   A85        2.12097   0.00001   0.00002   0.00005   0.00007   2.12104
   A86        2.08120  -0.00010  -0.00033  -0.00041  -0.00074   2.08046
   A87        2.08096   0.00009   0.00031   0.00036   0.00067   2.08163
   A88        2.11519   0.00001   0.00008  -0.00003   0.00006   2.11525
   A89        2.08690  -0.00010  -0.00036  -0.00035  -0.00070   2.08620
   A90        2.08110   0.00008   0.00027   0.00037   0.00064   2.08174
   A91        2.05733  -0.00005  -0.00020  -0.00003  -0.00023   2.05710
   A92        2.11848  -0.00003  -0.00001  -0.00012  -0.00013   2.11835
   A93        2.10687   0.00008   0.00021   0.00017   0.00038   2.10725
   A94        1.93117   0.00001   0.00012   0.00000   0.00012   1.93130
   A95        1.91729   0.00005  -0.00000   0.00028   0.00028   1.91757
   A96        1.96513  -0.00005  -0.00012  -0.00013  -0.00025   1.96488
   A97        1.87334  -0.00002  -0.00003  -0.00021  -0.00025   1.87310
   A98        1.87675   0.00005   0.00004   0.00034   0.00038   1.87714
   A99        1.89732  -0.00002  -0.00000  -0.00029  -0.00029   1.89702
   A100       1.89836   0.00000  -0.00011   0.00017   0.00006   1.89843
   A101       1.89961  -0.00002   0.00023  -0.00021   0.00002   1.89963
   A102       1.91116   0.00005   0.00035  -0.00002   0.00033   1.91148
   A103       1.86130   0.00001  -0.00006   0.00005  -0.00002   1.86129
   A104       2.00591  -0.00004  -0.00053   0.00012  -0.00041   2.00550
   A105       1.88467  -0.00001   0.00014  -0.00012   0.00002   1.88470
   A106       1.93011   0.00005   0.00021   0.00037   0.00057   1.93068
   A107       1.92839  -0.00002  -0.00014   0.00015   0.00001   1.92840
   A108       1.86133   0.00001   0.00013   0.00034   0.00047   1.86180
    D1       -0.00974  -0.00003   0.00181  -0.00226  -0.00045  -0.01019
    D2        3.11339   0.00000  -0.00121   0.00030  -0.00093   3.11247
    D3       -3.13452  -0.00005   0.00095  -0.00234  -0.00138  -3.13590
    D4       -0.01138  -0.00002  -0.00207   0.00022  -0.00186  -0.01324
    D5        0.01625   0.00000  -0.00186   0.00142  -0.00044   0.01581
    D6       -3.11969  -0.00002  -0.00161   0.00025  -0.00136  -3.12105
    D7        3.14093   0.00003  -0.00099   0.00150   0.00051   3.14144
    D8        0.00499   0.00000  -0.00073   0.00033  -0.00041   0.00459
    D9       -0.00667   0.00004  -0.00044   0.00175   0.00131  -0.00536
   D10       -3.09306   0.00005  -0.00203   0.00299   0.00096  -3.09210
   D11       -3.13009   0.00002   0.00252  -0.00072   0.00179  -3.12830
   D12        0.06671   0.00003   0.00093   0.00052   0.00144   0.06815
   D13        0.41234  -0.00002   0.00358  -0.00180   0.00178   0.41411
   D14       -2.72342   0.00001   0.00065   0.00075   0.00140  -2.72202
   D15       -2.74807   0.00001   0.00049   0.00079   0.00128  -2.74678
   D16        0.39936   0.00004  -0.00244   0.00335   0.00091   0.40027
   D17        0.01600  -0.00003  -0.00081  -0.00045  -0.00126   0.01474
   D18       -3.11586  -0.00002  -0.00090   0.00026  -0.00064  -3.11651
   D19        3.10237  -0.00002   0.00081  -0.00163  -0.00083   3.10154
   D20       -0.02950  -0.00001   0.00071  -0.00092  -0.00021  -0.02971
   D21       -0.00944   0.00000   0.00078  -0.00043   0.00035  -0.00909
   D22        3.13683  -0.00000   0.00064  -0.00071  -0.00008   3.13675
   D23        3.12409  -0.00001   0.00085  -0.00103  -0.00018   3.12391
   D24       -0.01283  -0.00001   0.00071  -0.00131  -0.00060  -0.01344
   D25       -3.13713   0.00000  -0.00061   0.00052  -0.00010  -3.13723
   D26        1.08356  -0.00000  -0.00035   0.00045   0.00010   1.08366
   D27       -1.07102   0.00000  -0.00051   0.00020  -0.00031  -1.07133
   D28        0.01344   0.00001  -0.00070   0.00117   0.00048   0.01391
   D29       -2.04906   0.00001  -0.00044   0.00111   0.00068  -2.04838
   D30        2.07954   0.00001  -0.00059   0.00086   0.00027   2.07981
   D31       -0.00675   0.00001   0.00057  -0.00006   0.00051  -0.00624
   D32        3.12914   0.00004   0.00031   0.00112   0.00143   3.13057
   D33        3.12899   0.00001   0.00074   0.00030   0.00104   3.13004
   D34       -0.01829   0.00004   0.00048   0.00148   0.00196  -0.01634
   D35        0.00626   0.00001  -0.00040   0.00086   0.00046   0.00672
   D36       -3.13530   0.00000  -0.00035   0.00063   0.00028  -3.13502
   D37       -3.12999   0.00000  -0.00056   0.00053  -0.00002  -3.13002
   D38        0.01163   0.00000  -0.00051   0.00030  -0.00021   0.01143
   D39        3.13348  -0.00001   0.00040  -0.00072  -0.00032   3.13316
   D40       -0.00963  -0.00000   0.00046  -0.00064  -0.00018  -0.00981
   D41       -1.08669   0.00000   0.00018  -0.00062  -0.00044  -1.08713
   D42        2.05339   0.00001   0.00025  -0.00055  -0.00030   2.05309
   D43        1.06615   0.00001   0.00033  -0.00025   0.00008   1.06623
   D44       -2.07695   0.00001   0.00040  -0.00018   0.00022  -2.07673
   D45        3.06920  -0.00003  -0.00011   0.00006  -0.00005   3.06915
   D46       -1.13506  -0.00003   0.00011   0.00002   0.00014  -1.13493
   D47        0.97008  -0.00003  -0.00007   0.00003  -0.00004   0.97003
   D48        1.12032   0.00004   0.00038   0.00040   0.00079   1.12111
   D49       -3.08394   0.00004   0.00060   0.00037   0.00097  -3.08297
   D50       -0.97881   0.00004   0.00042   0.00037   0.00079  -0.97801
   D51       -1.04550  -0.00001   0.00012   0.00011   0.00024  -1.04526
   D52        1.03342   0.00000   0.00034   0.00008   0.00042   1.03384
   D53        3.13856  -0.00001   0.00016   0.00008   0.00024   3.13881
   D54        1.13649   0.00003  -0.00021   0.00052   0.00031   1.13681
   D55       -3.06915   0.00005   0.00006   0.00053   0.00060  -3.06855
   D56       -0.96969   0.00004   0.00002   0.00054   0.00056  -0.96913
   D57        3.08827  -0.00005  -0.00046  -0.00017  -0.00063   3.08764
   D58       -1.11738  -0.00004  -0.00019  -0.00015  -0.00034  -1.11772
   D59        0.98208  -0.00004  -0.00023  -0.00015  -0.00038   0.98170
   D60       -1.03027  -0.00001  -0.00036   0.00022  -0.00014  -1.03041
   D61        1.04727   0.00000  -0.00009   0.00024   0.00015   1.04742
   D62       -3.13645   0.00000  -0.00013   0.00024   0.00011  -3.13634
   D63        3.13885  -0.00000   0.00008  -0.00009  -0.00002   3.13884
   D64       -0.00147   0.00000  -0.00001   0.00002   0.00001  -0.00146
   D65       -0.00111  -0.00000   0.00001  -0.00017  -0.00016  -0.00128
   D66       -3.14144  -0.00000  -0.00008  -0.00006  -0.00014  -3.14157
   D67        0.00269  -0.00000  -0.00007  -0.00009  -0.00015   0.00254
   D68       -3.13893   0.00000  -0.00011   0.00012   0.00001  -3.13892
   D69       -3.14026   0.00000  -0.00001  -0.00002  -0.00003  -3.14029
   D70        0.00130   0.00000  -0.00006   0.00019   0.00013   0.00144
   D71        0.00046   0.00000   0.00001   0.00004   0.00005   0.00051
   D72       -3.14058   0.00000  -0.00009   0.00013   0.00004  -3.14053
   D73        3.14080  -0.00000   0.00009  -0.00007   0.00002   3.14082
   D74       -0.00024   0.00000  -0.00000   0.00001   0.00001  -0.00022
   D75        0.00004   0.00000   0.00002   0.00009   0.00010   0.00015
   D76        3.14139   0.00000   0.00001   0.00010   0.00011   3.14150
   D77        3.14108   0.00000   0.00011  -0.00000   0.00011   3.14119
   D78       -0.00075   0.00000   0.00010   0.00001   0.00012  -0.00064
   D79        0.00012  -0.00000  -0.00006  -0.00007  -0.00014  -0.00002
   D80        3.14078   0.00000   0.00007   0.00000   0.00008   3.14086
   D81       -3.14123  -0.00000  -0.00005  -0.00009  -0.00014  -3.14137
   D82       -0.00056   0.00000   0.00009  -0.00001   0.00007  -0.00049
   D83        3.14077   0.00000   0.00003   0.00020   0.00022   3.14099
   D84       -0.00079  -0.00000   0.00008  -0.00006   0.00002  -0.00077
   D85        0.00011  -0.00000  -0.00011   0.00012   0.00001   0.00011
   D86       -3.14145  -0.00000  -0.00006  -0.00014  -0.00020   3.14154
   D87       -3.11732  -0.00001  -0.00121   0.00023  -0.00099  -3.11831
   D88        0.07820  -0.00006  -0.00088  -0.00204  -0.00292   0.07528
   D89        0.01881  -0.00003   0.00153  -0.00216  -0.00064   0.01817
   D90       -3.06886  -0.00009   0.00185  -0.00442  -0.00257  -3.07142
   D91        3.11208   0.00002   0.00137   0.00041   0.00177   3.11385
   D92        0.04136  -0.00000  -0.00068   0.00061  -0.00009   0.04128
   D93       -0.02422   0.00004  -0.00132   0.00274   0.00143  -0.02279
   D94       -3.09494   0.00003  -0.00336   0.00294  -0.00043  -3.09536
   D95        0.00417   0.00000  -0.00040   0.00017  -0.00023   0.00394
   D96       -3.09542   0.00004  -0.00287   0.00407   0.00120  -3.09422
   D97        3.09814   0.00004  -0.00063   0.00208   0.00145   3.09959
   D98       -0.00145   0.00007  -0.00311   0.00598   0.00287   0.00143
   D99        3.09839   0.00002   0.00002  -0.00037  -0.00034   3.09804
   D100       0.00681  -0.00003   0.00030  -0.00244  -0.00213   0.00468
   D101       0.00581  -0.00003  -0.00012  -0.00126  -0.00139   0.00442
   D102      -3.07126  -0.00006  -0.00137  -0.00190  -0.00327  -3.07453
   D103       3.07758   0.00000   0.00191  -0.00137   0.00053   3.07810
   D104       0.00051  -0.00003   0.00066  -0.00201  -0.00135  -0.00085
   D105      -0.02232   0.00002  -0.00103   0.00139   0.00037  -0.02196
   D106       3.11725   0.00005  -0.00037   0.00297   0.00260   3.11986
   D107       3.07199  -0.00003   0.00177  -0.00303  -0.00126   3.07073
   D108      -0.07162  -0.00001   0.00242  -0.00144   0.00098  -0.07064
   D109      -0.00471  -0.00008   0.00425  -0.00633  -0.00207  -0.00678
   D110      -3.10258  -0.00003   0.00165  -0.00223  -0.00057  -3.10315
   D111       0.01807  -0.00001   0.00131  -0.00091   0.00040   0.01848
   D112      -3.12155  -0.00003   0.00068  -0.00246  -0.00178  -3.12333
   D113       3.09440   0.00002   0.00255  -0.00033   0.00223   3.09663
   D114      -0.04523  -0.00001   0.00192  -0.00187   0.00005  -0.04518
   D115      -0.45981  -0.00009   0.00179  -0.00780  -0.00601  -0.46582
   D116       2.70388  -0.00004   0.00218  -0.00519  -0.00300   2.70088
   D117       2.67963  -0.00006   0.00249  -0.00611  -0.00362   2.67601
   D118      -0.43986  -0.00001   0.00288  -0.00349  -0.00061  -0.44048
   D119      -0.00859  -0.00002   0.00194  -0.00108   0.00085  -0.00774
   D120       0.00778   0.00006  -0.00368   0.00445   0.00077   0.00854
   D121      -3.10742   0.00003   0.00005   0.00154   0.00160  -3.10583
   D122       0.00808   0.00003   0.00097   0.00094   0.00191   0.00999
   D123       0.01263  -0.00002  -0.00032  -0.00102  -0.00135   0.01128
   D124       3.12813  -0.00002   0.00059  -0.00163  -0.00103   3.12710
   D125       3.12499  -0.00002  -0.00108  -0.00080  -0.00188   3.12310
   D126      -0.06569  -0.00003   0.00001  -0.00160  -0.00159  -0.06728
   D127       0.00448   0.00001  -0.00072   0.00168   0.00096   0.00545
   D128       3.09699   0.00001   0.00038   0.00088   0.00126   3.09825
   D129      -0.01644   0.00001   0.00087  -0.00001   0.00086  -0.01558
   D130       3.11301   0.00001   0.00088  -0.00004   0.00084   3.11385
   D131      -3.13197   0.00001  -0.00005   0.00058   0.00053  -3.13144
   D132      -0.00252   0.00001  -0.00004   0.00055   0.00052  -0.00200
   D133      -0.01821  -0.00000   0.00123  -0.00132  -0.00009  -0.01830
   D134       3.12227   0.00001   0.00120  -0.00051   0.00069   3.12297
   D135      -3.11125  -0.00001   0.00013  -0.00055  -0.00041  -3.11166
   D136       0.02924   0.00001   0.00010   0.00026   0.00036   0.02960
   D137       0.00284  -0.00000  -0.00037   0.00042   0.00005   0.00289
   D138      -3.10491  -0.00001  -0.00041   0.00001  -0.00040  -3.10531
   D139      -3.12661  -0.00000  -0.00038   0.00046   0.00008  -3.12654
   D140       0.04883  -0.00001  -0.00042   0.00004  -0.00038   0.04845
   D141       0.01445  -0.00000  -0.00068   0.00024  -0.00044   0.01401
   D142       3.12243  -0.00000  -0.00065   0.00065  -0.00000   3.12243
   D143      -3.12604  -0.00002  -0.00065  -0.00056  -0.00121  -3.12725
   D144      -0.01806  -0.00002  -0.00062  -0.00015  -0.00078  -0.01884
   D145      -2.63960  -0.00001  -0.00142  -0.00248  -0.00390  -2.64350
   D146      -0.57432  -0.00001  -0.00139  -0.00257  -0.00396  -0.57827
   D147       1.54288  -0.00004  -0.00147  -0.00283  -0.00431   1.53857
   D148       0.53679  -0.00002  -0.00145  -0.00291  -0.00435   0.53244
   D149       2.60208  -0.00001  -0.00142  -0.00299  -0.00441   2.59767
   D150      -1.56391  -0.00004  -0.00150  -0.00326  -0.00476  -1.56867
   D151      -1.02480   0.00001   0.00117   0.00236   0.00353  -1.02126
   D152       0.99670   0.00001   0.00116   0.00240   0.00356   1.00026
   D153       3.05329   0.00002   0.00167   0.00212   0.00379   3.05707
   D154       3.12664   0.00000   0.00107   0.00221   0.00328   3.12992
   D155      -1.13505   0.00000   0.00106   0.00224   0.00330  -1.13175
   D156       0.92154   0.00001   0.00157   0.00196   0.00353   0.92507
   D157       1.10374   0.00001   0.00109   0.00243   0.00351   1.10725
   D158       3.12523   0.00001   0.00108   0.00246   0.00354   3.12877
   D159      -1.10136   0.00002   0.00159   0.00218   0.00377  -1.09760
   D160       1.25974   0.00007   0.00488   0.00665   0.01152   1.27126
   D161      -2.96673   0.00010   0.00508   0.00738   0.01246  -2.95426
   D162      -0.88269   0.00005   0.00512   0.00636   0.01148  -0.87121
   D163       1.17403   0.00009   0.00533   0.00710   0.01242   1.18645
   D164      -2.95754   0.00007   0.00543   0.00631   0.01174  -2.94580
   D165      -0.90083   0.00011   0.00564   0.00705   0.01268  -0.88814
         Item               Value     Threshold  Converged?
 Maximum Force            0.000516     0.000450     NO 
 RMS     Force            0.000105     0.000300     YES
 Maximum Displacement     0.026811     0.001800     NO 
 RMS     Displacement     0.004185     0.001200     NO 
 Predicted change in Energy=-1.077140D-05
 Lowest energy point so far.  Saving SCF results.
 GradGradGradGradGradGradGradGradGradGradGradGradGradGradGradGradGradGrad

 Leave Link  103 at Thu Mar 14 11:35:45 2024, MaxMem= 32212254720 cpu:               2.2 elap:               0.1
 (Enter /home/<user>/g16/l202.exe)
 Stoichiometry    C29H25N3S(1+,2)
 Framework group  C1[X(C29H25N3S)]
 Deg. of freedom   168
 Full point group                 C1      NOp   1
 RotChk:  IX=0 Diff= 7.09D-04
 Largest Abelian subgroup         C1      NOp   1
 Largest concise Abelian subgroup C1      NOp   1
                         Standard orientation:                         
 ---------------------------------------------------------------------
 Center     Atomic      Atomic             Coordinates (Angstroms)
 Number     Number       Type             X           Y           Z
 ---------------------------------------------------------------------
      1          6           0       -2.440023    1.614418   -0.419603
      2          6           0       -1.785427    0.371920   -0.157029
      3          6           0       -2.595085   -0.780602    0.080574
      4          6           0       -3.965064   -0.684823    0.061269
      5          6           0       -4.594579    0.563270   -0.214083
      6          6           0       -3.816340    1.710575   -0.457749
      7          1           0       -1.839892    2.493909   -0.606491
      8          1           0       -2.126173   -1.727150    0.328069
      9          1           0       -4.286772    2.663891   -0.678516
     10          6           0       -5.009126   -1.770892    0.315652
     11          6           0       -6.299128   -0.976698    0.127308
     12          6           0       -7.613173   -1.413092    0.219154
     13          6           0       -8.647441   -0.492568    0.006970
     14          6           0       -8.376527    0.854191   -0.295446
     15          6           0       -7.066339    1.303010   -0.390927
     16          6           0       -6.025170    0.381837   -0.178727
     17          1           0       -7.847996   -2.447854    0.452134
     18          1           0       -9.679407   -0.823825    0.077547
     19          1           0       -9.200015    1.543290   -0.454597
     20          1           0       -6.853305    2.342000   -0.624917
     21          6           0       -4.899304   -2.332747    1.752751
     22          1           0       -5.699824   -3.055634    1.941634
     23          1           0       -3.943465   -2.849404    1.893104
     24          1           0       -4.973694   -1.536802    2.500131
     25          6           0       -4.896397   -2.918592   -0.714505
     26          1           0       -3.941935   -3.444872   -0.602963
     27          1           0       -5.697992   -3.648735   -0.561639
     28          1           0       -4.966142   -2.543957   -1.740449
     29          6           0       -0.340060    0.261087   -0.151657
     30          6           0        0.562472    1.369234    0.088057
     31          6           0        0.301608   -0.968561   -0.392940
     32          6           0        2.006347    1.192136    0.050589
     33          6           0        1.686449   -1.135429   -0.433025
     34          1           0       -0.305088   -1.836418   -0.623994
     35          6           0        2.607472   -0.093520   -0.231615
     36          1           0        2.061770   -2.119019   -0.690974
     37          7           0        0.197705    2.610759    0.413607
     38          7           0        2.677803    2.306086    0.350939
     39         16           0        1.571697    3.478639    0.644097
     40          6           0        4.042847   -0.322399   -0.307327
     41          6           0        4.955859    0.703786   -0.659077
     42          6           0        4.573157   -1.614259   -0.054456
     43          6           0        6.312223    0.440423   -0.762589
     44          1           0        4.587964    1.698346   -0.872414
     45          6           0        5.931655   -1.858841   -0.142172
     46          1           0        3.915676   -2.419214    0.256964
     47          6           0        6.834440   -0.840439   -0.506673
     48          1           0        6.986362    1.239518   -1.059224
     49          1           0        6.311812   -2.853696    0.073816
     50          6           0        8.311869   -1.111434   -0.575040
     51          1           0        8.500923   -2.154060   -0.850387
     52          1           0        8.771384   -0.481103   -1.347123
     53          6           0        9.028194   -0.846942    0.773022
     54          1           0        8.860245    0.205362    1.064376
     55          1           0        8.562250   -1.465879    1.549024
     56          7           0       10.428691   -1.238344    0.665571
     57          1           0       10.944619   -0.571712    0.093649
     58          1           0       10.869709   -1.239023    1.582632
 ---------------------------------------------------------------------
 Rotational constants (GHZ):           0.3670355           0.0395156           0.0363985
 Leave Link  202 at Thu Mar 14 11:35:45 2024, MaxMem= 32212254720 cpu:               0.1 elap:               0.0
 (Enter /home/<user>/g16/l301.exe)
 Standard basis: 6-31G(d) (6D, 7F)
 Ernie: Thresh=  0.10000D-02 Tol=  0.10000D-05 Strict=F.
 There are   549 symmetry adapted cartesian basis functions of A   symmetry.
 There are   549 symmetry adapted basis functions of A   symmetry.
   549 basis functions,  1048 primitive gaussians,   549 cartesian basis functions
   118 alpha electrons      117 beta electrons
       nuclear repulsion energy      3079.4762926731 Hartrees.
 IExCor=  402 DFT=T Ex+Corr=B3LYP ExCW=0 ScaHFX=  0.200000
 ScaDFX=  0.800000  0.720000  1.000000  0.810000 ScalE2=  1.000000  1.000000
 IRadAn=      5 IRanWt=     -1 IRanGd=            0 ICorTp=0 IEmpDi=  4
 NAtoms=   58 NActive=   58 NUniq=   58 SFac= 1.00D+00 NAtFMM=   60 NAOKFM=F Big=F
 Integral buffers will be    131072 words long.
 Raffenetti 2 integral format.
 Two-electron integral symmetry is turned on.
 Leave Link  301 at Thu Mar 14 11:35:45 2024, MaxMem= 32212254720 cpu:               0.8 elap:               0.0
 (Enter /home/<user>/g16/l302.exe)
 NPDir=0 NMtPBC=     1 NCelOv=     1 NCel=       1 NClECP=     1 NCelD=      1
         NCelK=      1 NCelE2=     1 NClLst=     1 CellRange=     0.0.
 One-electron integrals computed using PRISM.
 One-electron integral symmetry used in STVInt
 NBasis=   549 RedAO= T EigKep=  2.65D-04  NBF=   549
 NBsUse=   549 1.00D-06 EigRej= -1.00D+00 NBFU=   549
 Precomputing XC quadrature grid using
 IXCGrd= 4 IRadAn=           5 IRanWt=          -1 IRanGd=           0 AccXCQ= 0.00D+00.
 Generated NRdTot=       0 NPtTot=           0 NUsed=           0 NTot=          32
 NSgBfM=   512   512   512   512   512 MxSgAt=    58 MxSgA2=    58.
 Leave Link  302 at Thu Mar 14 11:35:46 2024, MaxMem= 32212254720 cpu:              14.3 elap:               0.5
 (Enter /home/<user>/g16/l303.exe)
 DipDrv:  MaxL=1.
 Leave Link  303 at Thu Mar 14 11:35:46 2024, MaxMem= 32212254720 cpu:               1.4 elap:               0.1
 (Enter /home/<user>/g16/l401.exe)
 Initial guess from the checkpoint file:  "FBTP_H0opt.chk"
 B after Tr=     0.000000   -0.000000   -0.000000
         Rot=    1.000000    0.000146    0.000007   -0.000063 Ang=   0.02 deg.
 Guess basis will be translated and rotated to current coordinates.
 JPrj=2 DoOrth=T DoCkMO=T.
 Initial guess <Sx>= 0.0000 <Sy>= 0.0000 <Sz>= 0.5000 <S**2>= 0.7626 S= 0.5063
 Generating alternative initial guess.
 ExpMin= 1.17D-01 ExpMax= 2.19D+04 ExpMxC= 3.30D+03 IAcc=3 IRadAn=         5 AccDes= 0.00D+00
 Harris functional with IExCor=  402 and IRadAn=       5 diagonalized for initial guess.
 HarFok:  IExCor=  402 AccDes= 0.00D+00 IRadAn=         5 IDoV= 1 UseB2=F ITyADJ=14
 ICtDFT=  3500011 ScaDFX=  1.000000  1.000000  1.000000  1.000000
 FoFCou: FMM=F IPFlag=           0 FMFlag=      100000 FMFlg1=           0
         NFxFlg=           0 DoJE=T BraDBF=F KetDBF=T FulRan=T
         wScrn=  0.000000 ICntrl=       500 IOpCl=  0 I1Cent=   200000004 NGrid=           0
         NMat0=    1 NMatS0=      1 NMatT0=    0 NMatD0=    1 NMtDS0=    0 NMtDT0=    0
 Petite list used in FoFCou.
 Harris En= -1682.30459325434    
 Leave Link  401 at Thu Mar 14 11:35:48 2024, MaxMem= 32212254720 cpu:              48.3 elap:               1.6
 (Enter /home/<user>/g16/l502.exe)
 Integral symmetry usage will be decided dynamically.
 UHF open shell SCF:
 Using DIIS extrapolation, IDIIS=  1040.
 NGot= 32212254720 LenX= 32211628124 LenY= 32211326174
 Requested convergence on RMS density matrix=1.00D-08 within 128 cycles.
 Requested convergence on MAX density matrix=1.00D-06.
 Requested convergence on             energy=1.00D-06.
 No special actions if energy rises.
 Fock matrices will be formed incrementally for  20 cycles.
 Integral accuracy reduced to 1.0D-05 until final iterations.

 Cycle   1  Pass 0  IDiag  1:
 FoFJK:  IHMeth= 1 ICntrl=       0 DoSepK=F KAlg= 0 I1Cent=           0 FoldK=F
 IRaf= 550000000 NMat=       1 IRICut=       1 DoRegI=T DoRafI=F ISym2E= 0 IDoP0=0 IntGTp=1.
 FoFCou: FMM=F IPFlag=           0 FMFlag=      100000 FMFlg1=           0
         NFxFlg=           0 DoJE=F BraDBF=F KetDBF=F FulRan=T
         wScrn=  0.000000 ICntrl=         0 IOpCl=  1 I1Cent=           0 NGrid=           0
         NMat0=    1 NMatS0=      1 NMatT0=    0 NMatD0=    1 NMtDS0=    0 NMtDT0=    0
 Symmetry not used in FoFCou.
 E= -1682.36777636676    
 DIIS: error= 1.78D-04 at cycle   1 NSaved=   1.
 NSaved= 1 IEnMin= 1 EnMin= -1682.36777636676     IErMin= 1 ErrMin= 1.78D-04
 ErrMax= 1.78D-04  0.00D+00 EMaxC= 1.00D-01 BMatC= 1.53D-04 BMatP= 1.53D-04
 IDIUse=3 WtCom= 9.98D-01 WtEn= 1.78D-03
 Coeff-Com:  0.100D+01
 Coeff-En:   0.100D+01
 Coeff:      0.100D+01
 Gap=     1.961 Goal=   None    Shift=    0.000
 Gap=     1.950 Goal=   None    Shift=    0.000
 RMSDP=7.06D-05 MaxDP=2.50D-03              OVMax= 2.57D-03

 Cycle   2  Pass 0  IDiag  1:
 RMSU=  7.06D-05    CP:  1.00D+00
 E= -1682.36781985538     Delta-E=       -0.000043488617 Rises=F Damp=F
 DIIS: error= 2.50D-05 at cycle   2 NSaved=   2.
 NSaved= 2 IEnMin= 2 EnMin= -1682.36781985538     IErMin= 2 ErrMin= 2.50D-05
 ErrMax= 2.50D-05  0.00D+00 EMaxC= 1.00D-01 BMatC= 2.36D-06 BMatP= 1.53D-04
 IDIUse=1 WtCom= 1.00D+00 WtEn= 0.00D+00
 Coeff-Com: -0.559D-01 0.106D+01
 Coeff:     -0.559D-01 0.106D+01
 Gap=     0.094 Goal=   None    Shift=    0.000
 Gap=     0.029 Goal=   None    Shift=    0.000
 RMSDP=4.66D-06 MaxDP=3.41D-04 DE=-4.35D-05 OVMax= 6.40D-04

 Initial convergence to 1.0D-05 achieved.  Increase integral accuracy.
 Cycle   3  Pass 1  IDiag  1:
 E= -1682.36788685152     Delta-E=       -0.000066996143 Rises=F Damp=F
 DIIS: error= 9.26D-05 at cycle   1 NSaved=   1.
 NSaved= 1 IEnMin= 1 EnMin= -1682.36788685152     IErMin= 1 ErrMin= 9.26D-05
 ErrMax= 9.26D-05  0.00D+00 EMaxC= 1.00D-01 BMatC= 1.78D-05 BMatP= 1.78D-05
 IDIUse=1 WtCom= 1.00D+00 WtEn= 0.00D+00
 Coeff-Com:  0.100D+01
 Coeff:      0.100D+01
 Gap=     0.094 Goal=   None    Shift=    0.000
 Gap=     0.029 Goal=   None    Shift=    0.000
 RMSDP=4.66D-06 MaxDP=3.41D-04 DE=-6.70D-05 OVMax= 1.83D-03

 Cycle   4  Pass 1  IDiag  1:
 RMSU=  6.77D-05    CP:  1.00D+00
 E= -1682.36787860073     Delta-E=        0.000008250792 Rises=F Damp=F
 DIIS: error= 1.45D-04 at cycle   2 NSaved=   2.
 NSaved= 2 IEnMin= 1 EnMin= -1682.36788685152     IErMin= 1 ErrMin= 9.26D-05
 ErrMax= 1.45D-04  0.00D+00 EMaxC= 1.00D-01 BMatC= 4.94D-05 BMatP= 1.78D-05
 IDIUse=3 WtCom= 4.54D-01 WtEn= 5.46D-01
 Coeff-Com:  0.655D+00 0.345D+00
 Coeff-En:   0.749D+00 0.251D+00
 Coeff:      0.706D+00 0.294D+00
 Gap=     0.094 Goal=   None    Shift=    0.000
 Gap=     0.029 Goal=   None    Shift=    0.000
 RMSDP=8.14D-06 MaxDP=7.86D-04 DE= 8.25D-06 OVMax= 1.84D-03

 Cycle   5  Pass 1  IDiag  1:
 RMSU=  8.11D-06    CP:  1.00D+00  9.90D-01
 E= -1682.36789045377     Delta-E=       -0.000011853044 Rises=F Damp=F
 DIIS: error= 2.28D-05 at cycle   3 NSaved=   3.
 NSaved= 3 IEnMin= 3 EnMin= -1682.36789045377     IErMin= 3 ErrMin= 2.28D-05
 ErrMax= 2.28D-05  0.00D+00 EMaxC= 1.00D-01 BMatC= 1.54D-06 BMatP= 1.78D-05
 IDIUse=1 WtCom= 1.00D+00 WtEn= 0.00D+00
 Coeff-Com:  0.616D-01 0.143D+00 0.796D+00
 Coeff:      0.616D-01 0.143D+00 0.796D+00
 Gap=     0.094 Goal=   None    Shift=    0.000
 Gap=     0.029 Goal=   None    Shift=    0.000
 RMSDP=2.34D-06 MaxDP=1.52D-04 DE=-1.19D-05 OVMax= 6.91D-04

 Cycle   6  Pass 1  IDiag  1:
 RMSU=  1.81D-06    CP:  1.00D+00  9.99D-01  8.37D-01
 E= -1682.36789055489     Delta-E=       -0.000000101112 Rises=F Damp=F
 DIIS: error= 1.69D-05 at cycle   4 NSaved=   4.
 NSaved= 4 IEnMin= 4 EnMin= -1682.36789055489     IErMin= 4 ErrMin= 1.69D-05
 ErrMax= 1.69D-05  0.00D+00 EMaxC= 1.00D-01 BMatC= 1.10D-06 BMatP= 1.54D-06
 IDIUse=1 WtCom= 1.00D+00 WtEn= 0.00D+00
 Coeff-Com:  0.565D-03 0.744D-01 0.548D+00 0.377D+00
 Coeff:      0.565D-03 0.744D-01 0.548D+00 0.377D+00
 Gap=     0.094 Goal=   None    Shift=    0.000
 Gap=     0.029 Goal=   None    Shift=    0.000
 RMSDP=1.27D-06 MaxDP=7.04D-05 DE=-1.01D-07 OVMax= 3.82D-04

 Cycle   7  Pass 1  IDiag  1:
 RMSU=  3.85D-07    CP:  1.00D+00  9.99D-01  8.78D-01  3.60D-01
 E= -1682.36789085857     Delta-E=       -0.000000303688 Rises=F Damp=F
 DIIS: error= 3.22D-06 at cycle   5 NSaved=   5.
 NSaved= 5 IEnMin= 5 EnMin= -1682.36789085857     IErMin= 5 ErrMin= 3.22D-06
 ErrMax= 3.22D-06  0.00D+00 EMaxC= 1.00D-01 BMatC= 4.19D-08 BMatP= 1.10D-06
 IDIUse=1 WtCom= 1.00D+00 WtEn= 0.00D+00
 Coeff-Com: -0.222D-02 0.431D-01 0.326D+00 0.248D+00 0.385D+00
 Coeff:     -0.222D-02 0.431D-01 0.326D+00 0.248D+00 0.385D+00
 Gap=     0.094 Goal=   None    Shift=    0.000
 Gap=     0.029 Goal=   None    Shift=    0.000
 RMSDP=2.49D-07 MaxDP=1.59D-05 DE=-3.04D-07 OVMax= 5.31D-05

 Cycle   8  Pass 1  IDiag  1:
 RMSU=  1.22D-07    CP:  1.00D+00  9.99D-01  8.73D-01  3.98D-01  4.79D-01
 E= -1682.36789087030     Delta-E=       -0.000000011729 Rises=F Damp=F
 DIIS: error= 4.66D-07 at cycle   6 NSaved=   6.
 NSaved= 6 IEnMin= 6 EnMin= -1682.36789087030     IErMin= 6 ErrMin= 4.66D-07
 ErrMax= 4.66D-07  0.00D+00 EMaxC= 1.00D-01 BMatC= 1.08D-09 BMatP= 4.19D-08
 IDIUse=1 WtCom= 1.00D+00 WtEn= 0.00D+00
 Coeff-Com: -0.122D-02 0.196D-01 0.150D+00 0.116D+00 0.215D+00 0.501D+00
 Coeff:     -0.122D-02 0.196D-01 0.150D+00 0.116D+00 0.215D+00 0.501D+00
 Gap=     0.094 Goal=   None    Shift=    0.000
 Gap=     0.029 Goal=   None    Shift=    0.000
 RMSDP=4.63D-08 MaxDP=2.87D-06 DE=-1.17D-08 OVMax= 9.71D-06

 Cycle   9  Pass 1  IDiag  1:
 RMSU=  4.36D-08    CP:  1.00D+00  9.99D-01  8.73D-01  3.95D-01  5.04D-01
                    CP:  9.26D-01
 E= -1682.36789087067     Delta-E=       -0.000000000364 Rises=F Damp=F
 DIIS: error= 1.71D-07 at cycle   7 NSaved=   7.
 NSaved= 7 IEnMin= 7 EnMin= -1682.36789087067     IErMin= 7 ErrMin= 1.71D-07
 ErrMax= 1.71D-07  0.00D+00 EMaxC= 1.00D-01 BMatC= 1.42D-10 BMatP= 1.08D-09
 IDIUse=1 WtCom= 1.00D+00 WtEn= 0.00D+00
 Coeff-Com: -0.132D-03 0.795D-03 0.670D-02 0.676D-02 0.299D-01 0.202D+00
 Coeff-Com:  0.754D+00
 Coeff:     -0.132D-03 0.795D-03 0.670D-02 0.676D-02 0.299D-01 0.202D+00
 Coeff:      0.754D+00
 Gap=     0.094 Goal=   None    Shift=    0.000
 Gap=     0.029 Goal=   None    Shift=    0.000
 RMSDP=3.05D-08 MaxDP=2.03D-06 DE=-3.64D-10 OVMax= 1.16D-05

 Cycle  10  Pass 1  IDiag  1:
 RMSU=  2.28D-08    CP:  1.00D+00  9.99D-01  8.73D-01  3.95D-01  5.17D-01
                    CP:  1.08D+00  1.16D+00
 E= -1682.36789087081     Delta-E=       -0.000000000146 Rises=F Damp=F
 DIIS: error= 1.37D-07 at cycle   8 NSaved=   8.
 NSaved= 8 IEnMin= 8 EnMin= -1682.36789087081     IErMin= 8 ErrMin= 1.37D-07
 ErrMax= 1.37D-07  0.00D+00 EMaxC= 1.00D-01 BMatC= 7.40D-11 BMatP= 1.42D-10
 IDIUse=1 WtCom= 1.00D+00 WtEn= 0.00D+00
 Coeff-Com:  0.606D-03-0.105D-01-0.793D-01-0.602D-01-0.971D-01-0.166D+00
 Coeff-Com:  0.469D+00 0.943D+00
 Coeff:      0.606D-03-0.105D-01-0.793D-01-0.602D-01-0.971D-01-0.166D+00
 Coeff:      0.469D+00 0.943D+00
 Gap=     0.094 Goal=   None    Shift=    0.000
 Gap=     0.029 Goal=   None    Shift=    0.000
 RMSDP=3.57D-08 MaxDP=2.14D-06 DE=-1.46D-10 OVMax= 1.33D-05

 Cycle  11  Pass 1  IDiag  1:
 RMSU=  1.77D-08    CP:  1.00D+00  9.99D-01  8.73D-01  3.95D-01  5.37D-01
                    CP:  1.24D+00  1.60D+00  1.52D+00
 E= -1682.36789087085     Delta-E=       -0.000000000040 Rises=F Damp=F
 DIIS: error= 8.81D-08 at cycle   9 NSaved=   9.
 NSaved= 9 IEnMin= 9 EnMin= -1682.36789087085     IErMin= 9 ErrMin= 8.81D-08
 ErrMax= 8.81D-08  0.00D+00 EMaxC= 1.00D-01 BMatC= 2.64D-11 BMatP= 7.40D-11
 IDIUse=1 WtCom= 1.00D+00 WtEn= 0.00D+00
 Coeff-Com:  0.417D-03-0.683D-02-0.516D-01-0.399D-01-0.701D-01-0.166D+00
 Coeff-Com:  0.716D-01 0.586D+00 0.676D+00
 Coeff:      0.417D-03-0.683D-02-0.516D-01-0.399D-01-0.701D-01-0.166D+00
 Coeff:      0.716D-01 0.586D+00 0.676D+00
 Gap=     0.094 Goal=   None    Shift=    0.000
 Gap=     0.029 Goal=   None    Shift=    0.000
 RMSDP=1.62D-08 MaxDP=1.05D-06 DE=-4.00D-11 OVMax= 3.88D-06

 Cycle  12  Pass 1  IDiag  1:
 RMSU=  8.78D-09    CP:  1.00D+00  9.99D-01  8.73D-01  3.95D-01  5.44D-01
                    CP:  1.29D+00  1.74D+00  1.94D+00  1.06D+00
 E= -1682.36789087085     Delta-E=       -0.000000000002 Rises=F Damp=F
 DIIS: error= 5.24D-08 at cycle  10 NSaved=  10.
 NSaved=10 IEnMin=10 EnMin= -1682.36789087085     IErMin=10 ErrMin= 5.24D-08
 ErrMax= 5.24D-08  0.00D+00 EMaxC= 1.00D-01 BMatC= 8.68D-12 BMatP= 2.64D-11
 IDIUse=1 WtCom= 1.00D+00 WtEn= 0.00D+00
 Coeff-Com:  0.777D-04-0.109D-02-0.818D-02-0.693D-02-0.151D-01-0.526D-01
 Coeff-Com: -0.941D-01 0.678D-01 0.446D+00 0.664D+00
 Coeff:      0.777D-04-0.109D-02-0.818D-02-0.693D-02-0.151D-01-0.526D-01
 Coeff:     -0.941D-01 0.678D-01 0.446D+00 0.664D+00
 Gap=     0.094 Goal=   None    Shift=    0.000
 Gap=     0.029 Goal=   None    Shift=    0.000
 RMSDP=7.65D-09 MaxDP=5.20D-07 DE=-1.82D-12 OVMax= 1.88D-06

 SCF Done:  E(UB3LYP) =  -1682.36789087     A.U. after   12 cycles
            NFock= 12  Conv=0.77D-08     -V/T= 2.0082
 <Sx>= 0.0000 <Sy>= 0.0000 <Sz>= 0.5000 <S**2>= 0.7625 S= 0.5062
 <L.S>= 0.000000000000E+00
 KE= 1.668649110232D+03 PE=-1.005461906538D+04 EE= 3.624125771604D+03
 Annihilation of the first spin contaminant:
 S**2 before annihilation     0.7625,   after     0.7501
 Leave Link  502 at Thu Mar 14 11:36:20 2024, MaxMem= 32212254720 cpu:             974.9 elap:              32.5
 (Enter /home/<user>/g16/l701.exe)
 ... and contract with generalized density number  0.
 Compute integral first derivatives.
 Leave Link  701 at Thu Mar 14 11:36:21 2024, MaxMem= 32212254720 cpu:               5.0 elap:               0.2
 (Enter /home/<user>/g16/l702.exe)
 L702 exits ... SP integral derivatives will be done elsewhere.
 Leave Link  702 at Thu Mar 14 11:36:21 2024, MaxMem= 32212254720 cpu:               0.7 elap:               0.0
 (Enter /home/<user>/g16/l703.exe)
 Integral derivatives from FoFJK, PRISM(SPDF).
 Compute integral first derivatives, UseDBF=F ICtDFT=           0.
 Calling FoFJK, ICntrl=      2127 FMM=F ISym2X=0 I1Cent= 0 IOpClX= 1 NMat=1 NMatS=1 NMatT=0.
 FoFJK:  IHMeth= 1 ICntrl=    2127 DoSepK=F KAlg= 0 I1Cent=           0 FoldK=F
 IRaf=         0 NMat=       1 IRICut=       1 DoRegI=T DoRafI=F ISym2E= 0 IDoP0=0 IntGTp=1.
 FoFCou: FMM=F IPFlag=           0 FMFlag=      100000 FMFlg1=         800
         NFxFlg=           0 DoJE=F BraDBF=F KetDBF=F FulRan=T
         wScrn=  0.000000 ICntrl=      2127 IOpCl=  1 I1Cent=           0 NGrid=           0
         NMat0=    1 NMatS0=      1 NMatT0=    0 NMatD0=    1 NMtDS0=    0 NMtDT0=    0
 Symmetry not used in FoFCou.
 Leave Link  703 at Thu Mar 14 11:36:27 2024, MaxMem= 32212254720 cpu:             197.9 elap:               6.6
 (Enter /home/<user>/g16/l716.exe)
 Dipole        =-8.75114241D-01-1.81619780D-01-7.05975129D-02
 ***** Axes restored to original set *****
 -------------------------------------------------------------------
 Center     Atomic                   Forces (Hartrees/Bohr)
 Number     Number              X              Y              Z
 -------------------------------------------------------------------
      1        6           0.000219344   -0.000054717    0.000057614
      2        6          -0.000199484    0.000027839   -0.000024208
      3        6           0.000213459   -0.000036381    0.000010052
      4        6          -0.000104365    0.000111340    0.000005931
      5        6           0.000124648    0.000018475   -0.000019721
      6        6          -0.000171671   -0.000020027   -0.000017069
      7        1           0.000005150    0.000024453    0.000001164
      8        1          -0.000002252    0.000005170    0.000007582
      9        1           0.000039319    0.000000967    0.000002765
     10        6           0.000021754   -0.000083863    0.000029593
     11        6           0.000028465    0.000041170   -0.000014717
     12        6          -0.000034498   -0.000027939    0.000005566
     13        6          -0.000019037    0.000026982   -0.000008003
     14        6          -0.000070258   -0.000051477    0.000010214
     15        6           0.000119148    0.000018932    0.000005655
     16        6          -0.000120470   -0.000022670    0.000006831
     17        1           0.000007517    0.000010180   -0.000001712
     18        1          -0.000001896   -0.000004135    0.000001890
     19        1           0.000016107    0.000006792   -0.000003144
     20        1          -0.000017382   -0.000012991   -0.000000538
     21        6          -0.000002968    0.000024287   -0.000030476
     22        1           0.000002056    0.000003737   -0.000009541
     23        1          -0.000002301    0.000000799   -0.000002319
     24        1           0.000001407   -0.000002491   -0.000002327
     25        6          -0.000008546    0.000035969    0.000020362
     26        1          -0.000002282   -0.000000176    0.000001102
     27        1           0.000005095    0.000000496   -0.000000948
     28        1           0.000000054   -0.000004988    0.000001075
     29        6           0.000228951   -0.000113254   -0.000026635
     30        6          -0.000061623   -0.000050141   -0.000138238
     31        6          -0.000243229    0.000076180    0.000032075
     32        6           0.000032660   -0.000068561    0.000059017
     33        6           0.000167300   -0.000004842   -0.000029244
     34        1           0.000005366   -0.000015003   -0.000025182
     35        6          -0.000209531    0.000012360    0.000123504
     36        1          -0.000066259    0.000030982   -0.000046013
     37        7           0.000118743   -0.000024284    0.000096531
     38        7           0.000029843   -0.000031884   -0.000088291
     39       16           0.000016580    0.000054272   -0.000058494
     40        6           0.000104570   -0.000027886   -0.000112930
     41        6          -0.000148739   -0.000006476    0.000118318
     42        6          -0.000075254    0.000009985    0.000038840
     43        6           0.000018744    0.000042968    0.000020125
     44        1          -0.000076066    0.000097824    0.000020275
     45        6           0.000067231    0.000017121   -0.000027745
     46        1           0.000050241    0.000022559    0.000021575
     47        6           0.000027661   -0.000085973   -0.000020112
     48        1          -0.000019147   -0.000001846   -0.000002239
     49        1          -0.000007661    0.000008955    0.000006203
     50        6          -0.000101127   -0.000048860   -0.000059400
     51        1           0.000002978    0.000020705    0.000020049
     52        1           0.000021679   -0.000026848    0.000006748
     53        6           0.000050511   -0.000018650    0.000109502
     54        1           0.000010840   -0.000015094   -0.000068294
     55        1           0.000017870    0.000047931    0.000016338
     56        7           0.000018042    0.000197290   -0.000079358
     57        1           0.000009668   -0.000011613    0.000081091
     58        1          -0.000036957   -0.000123648   -0.000020693
 -------------------------------------------------------------------
 Cartesian Forces:  Max     0.000243229 RMS     0.000067342
 Leave Link  716 at Thu Mar 14 11:36:27 2024, MaxMem= 32212254720 cpu:               0.7 elap:               0.0
 (Enter /home/<user>/g16/l103.exe)

 GradGradGradGradGradGradGradGradGradGradGradGradGradGradGradGradGradGrad
 Berny optimization.
 Using GEDIIS/GDIIS optimizer.
 FormGI is forming the generalized inverse of G from B-inverse, IUseBI=4.
 GSVD:  received Info=                   1 from GESDD.
 Internal  Forces:  Max     0.000622474 RMS     0.000070082
 Search for a local minimum.
 Step number   6 out of a maximum of  346
 All quantities printed in internal units (Hartrees-Bohrs-Radians)
 RMS Force = .70082D-04 SwitMx=.10000D-02 MixMth= 2
 Mixed Optimization -- En-DIIS/RFO-DIIS
 Swapping is turned off.
 Update second derivatives using D2CorX and points    2    3    4    5    6
 DE= -1.10D-05 DEPred=-1.08D-05 R= 1.02D+00
 TightC=F SS=  1.41D+00  RLast= 3.67D-02 DXNew= 1.0781D+00 1.1003D-01
 Trust test= 1.02D+00 RLast= 3.67D-02 DXMaxT set to 6.41D-01
 ITU=  1  1  0  1  1  0
     Eigenvalues ---    0.00230   0.00230   0.00245   0.00383   0.00634
     Eigenvalues ---    0.00757   0.00990   0.01058   0.01249   0.01450
     Eigenvalues ---    0.01474   0.01606   0.01621   0.01638   0.01653
     Eigenvalues ---    0.01670   0.01711   0.01736   0.01812   0.01885
     Eigenvalues ---    0.01889   0.01967   0.02026   0.02035   0.02059
     Eigenvalues ---    0.02081   0.02085   0.02088   0.02093   0.02094
     Eigenvalues ---    0.02112   0.02118   0.02119   0.02125   0.02134
     Eigenvalues ---    0.02143   0.02144   0.02149   0.02150   0.02161
     Eigenvalues ---    0.02162   0.02174   0.02302   0.02551   0.04075
     Eigenvalues ---    0.04193   0.04343   0.04354   0.05392   0.05397
     Eigenvalues ---    0.05448   0.05535   0.05539   0.05595   0.06036
     Eigenvalues ---    0.08099   0.08859   0.09233   0.11557   0.12525
     Eigenvalues ---    0.12785   0.15048   0.15720   0.15967   0.15982
     Eigenvalues ---    0.15989   0.15998   0.15999   0.16000   0.16000
     Eigenvalues ---    0.16000   0.16000   0.16000   0.16000   0.16000
     Eigenvalues ---    0.16000   0.16000   0.16000   0.16012   0.16019
     Eigenvalues ---    0.16036   0.16060   0.18984   0.20814   0.21901
     Eigenvalues ---    0.21966   0.22004   0.22108   0.22434   0.22486
     Eigenvalues ---    0.22770   0.22967   0.23623   0.24124   0.24521
     Eigenvalues ---    0.24715   0.24913   0.24945   0.24988   0.24991
     Eigenvalues ---    0.24996   0.25099   0.25574   0.28009   0.28079
     Eigenvalues ---    0.28231   0.28566   0.28997   0.30877   0.31382
     Eigenvalues ---    0.32693   0.33128   0.33786   0.34006   0.34091
     Eigenvalues ---    0.34100   0.34104   0.34116   0.34123   0.34251
     Eigenvalues ---    0.34281   0.34295   0.34494   0.35037   0.35052
     Eigenvalues ---    0.35084   0.35115   0.35154   0.35171   0.35190
     Eigenvalues ---    0.35195   0.35230   0.35246   0.35317   0.35464
     Eigenvalues ---    0.35645   0.36082   0.36670   0.37701   0.38285
     Eigenvalues ---    0.39689   0.40100   0.41100   0.41585   0.41623
     Eigenvalues ---    0.41788   0.42189   0.42410   0.42870   0.44089
     Eigenvalues ---    0.44370   0.44422   0.44542   0.44894   0.45196
     Eigenvalues ---    0.45467   0.45777   0.45890   0.46097   0.46344
     Eigenvalues ---    0.46872   0.46960   0.47234   0.48103   0.48877
     Eigenvalues ---    0.54141   0.54483   0.59566
 En-DIIS/RFO-DIIS/Sim-DIIS IScMMF=       -3 using points:     6    5    4    3    2
 RFO step:  Lambda=-1.18937383D-05.
 NNeg= 0 NGDIIS= 5 SimSw=  2.50D-01 Rises=F DC= -1.10D-05 SmlDif=  1.00D-05
 NRisDI= 0 DoIntr=F SqrtH=F CThrHd= 10.0 CDAdj=  3.0
 RMS Error=  0.2339125248D-02 NUsed= 5 OKEnD=T EnDIS=F
 InvSVX:  RCond= 2.37D-05 Info=           0 Equed=N FErr=  4.65D-14 BErr=  7.32D-17
 DidBck=F Rises=F RFO-DIIS coefs:    1.47090   -0.11992   -0.24085   -0.11950    0.00937
 Iteration  1 RMS(Cart)=  0.00351295 RMS(Int)=  0.00000729
 Iteration  2 RMS(Cart)=  0.00000990 RMS(Int)=  0.00000219
 Iteration  3 RMS(Cart)=  0.00000000 RMS(Int)=  0.00000219
 ITry= 1 IFail=0 DXMaxC= 3.22D-02 DCOld= 1.00D+10 DXMaxT= 6.41D-01 DXLimC= 3.00D+00 Rises=F
 Variable       Old X    -DE/DX   Delta X   Delta X   Delta X     New X
                                 (Linear)    (Quad)   (Total)
    R1        2.69989  -0.00010  -0.00078   0.00026  -0.00052   2.69937
    R2        2.60820   0.00009   0.00041  -0.00001   0.00041   2.60861
    R3        2.04282   0.00002   0.00019  -0.00012   0.00007   2.04288
    R4        2.69927  -0.00009  -0.00034   0.00008  -0.00026   2.69901
    R5        2.73939  -0.00004   0.00023   0.00001   0.00024   2.73963
    R6        2.59546   0.00011   0.00004   0.00022   0.00026   2.59572
    R7        2.05023  -0.00000   0.00027  -0.00024   0.00003   2.05026
    R8        2.69234  -0.00002  -0.00101   0.00051  -0.00050   2.69184
    R9        2.88721   0.00002   0.00023  -0.00008   0.00015   2.88736
   R10        2.65998  -0.00004  -0.00087   0.00037  -0.00050   2.65948
   R11        2.72590   0.00008   0.00164  -0.00066   0.00098   2.72687
   R12        2.05177  -0.00002   0.00023  -0.00019   0.00004   2.05181
   R13        2.88474   0.00002   0.00002   0.00003   0.00005   2.88479
   R14        2.92328  -0.00005   0.00032  -0.00041  -0.00008   2.92319
   R15        2.92215  -0.00004   0.00004  -0.00023  -0.00020   2.92195
   R16        2.62229   0.00004   0.00007   0.00008   0.00015   2.62244
   R17        2.68203  -0.00002  -0.00076   0.00036  -0.00041   2.68163
   R18        2.64703   0.00001  -0.00010   0.00011   0.00002   2.64705
   R19        2.05290  -0.00001   0.00014  -0.00012   0.00002   2.05292
   R20        2.65815  -0.00002  -0.00040   0.00020  -0.00019   2.65795
   R21        2.05248   0.00000  -0.00001   0.00001   0.00001   2.05249
   R22        2.62335   0.00006   0.00029   0.00000   0.00029   2.62364
   R23        2.05131  -0.00001   0.00011  -0.00009   0.00001   2.05132
   R24        2.65748  -0.00005  -0.00070   0.00025  -0.00044   2.65704
   R25        2.05245  -0.00002   0.00018  -0.00015   0.00003   2.05248
   R26        2.06929  -0.00001   0.00006  -0.00006  -0.00001   2.06929
   R27        2.07032  -0.00000   0.00007  -0.00005   0.00002   2.07033
   R28        2.06805  -0.00000   0.00008  -0.00005   0.00003   2.06808
   R29        2.07045  -0.00000   0.00004  -0.00004   0.00000   2.07045
   R30        2.06926  -0.00000   0.00005  -0.00006  -0.00001   2.06925
   R31        2.06817  -0.00000   0.00009  -0.00005   0.00005   2.06822
   R32        2.73848  -0.00009   0.00018  -0.00022  -0.00004   2.73845
   R33        2.66042  -0.00008  -0.00045   0.00005  -0.00039   2.66002
   R34        2.74989  -0.00022   0.00094  -0.00081   0.00013   2.75001
   R35        2.52151   0.00001   0.00025  -0.00023   0.00002   2.52153
   R36        2.63699   0.00014   0.00039   0.00001   0.00040   2.63738
   R37        2.04810   0.00001   0.00016  -0.00013   0.00002   2.04813
   R38        2.73449  -0.00029  -0.00020  -0.00028  -0.00048   2.73401
   R39        2.52259  -0.00001   0.00031  -0.00029   0.00003   2.52261
   R40        2.65533   0.00000  -0.00054   0.00024  -0.00030   2.65504
   R41        2.04829  -0.00004   0.00022  -0.00025  -0.00003   2.04826
   R42        2.75046  -0.00008  -0.00001   0.00002   0.00001   2.75047
   R43        3.10180   0.00001  -0.00045   0.00010  -0.00034   3.10145
   R44        3.09609  -0.00003  -0.00042   0.00006  -0.00035   3.09574
   R45        2.67940  -0.00013  -0.00027  -0.00000  -0.00027   2.67913
   R46        2.68186  -0.00002  -0.00019   0.00010  -0.00009   2.68177
   R47        2.61834   0.00000   0.00001   0.00004   0.00005   2.61839
   R48        2.04406   0.00011   0.00014   0.00005   0.00019   2.04425
   R49        2.61373   0.00008  -0.00005   0.00018   0.00013   2.61386
   R50        2.05034  -0.00004   0.00022  -0.00023  -0.00001   2.05034
   R51        2.65828   0.00005  -0.00020   0.00024   0.00004   2.65832
   R52        2.05365  -0.00001   0.00016  -0.00014   0.00002   2.05366
   R53        2.66245   0.00001  -0.00009   0.00007  -0.00001   2.66244
   R54        2.05356  -0.00001   0.00012  -0.00010   0.00001   2.05357
   R55        2.84145  -0.00001  -0.00031   0.00014  -0.00016   2.84129
   R56        2.06891  -0.00002  -0.00002  -0.00005  -0.00007   2.06884
   R57        2.07404  -0.00001   0.00009  -0.00010  -0.00001   2.07403
   R58        2.92776   0.00008   0.00048  -0.00004   0.00044   2.92820
   R59        2.08764  -0.00003  -0.00005  -0.00006  -0.00011   2.08753
   R60        2.07213  -0.00002  -0.00010  -0.00002  -0.00013   2.07201
   R61        2.75546  -0.00002  -0.00005   0.00001  -0.00004   2.75542
   R62        1.92499  -0.00005  -0.00004  -0.00009  -0.00013   1.92486
   R63        1.92298  -0.00004  -0.00003  -0.00007  -0.00010   1.92288
    A1        2.12063  -0.00002   0.00042  -0.00029   0.00013   2.12077
    A2        2.07711   0.00002   0.00029  -0.00001   0.00028   2.07738
    A3        2.08534   0.00000  -0.00069   0.00028  -0.00041   2.08493
    A4        2.06299   0.00010  -0.00083   0.00075  -0.00009   2.06291
    A5        2.12233  -0.00013   0.00113  -0.00117  -0.00005   2.12229
    A6        2.09770   0.00003  -0.00030   0.00044   0.00013   2.09784
    A7        2.10225  -0.00008   0.00037  -0.00052  -0.00015   2.10210
    A8        2.09083   0.00004   0.00102  -0.00022   0.00080   2.09163
    A9        2.08881   0.00004  -0.00130   0.00067  -0.00064   2.08817
   A10        2.09964   0.00002   0.00035  -0.00007   0.00029   2.09993
   A11        2.25198  -0.00003  -0.00114   0.00044  -0.00070   2.25128
   A12        1.93153   0.00001   0.00079  -0.00037   0.00042   1.93194
   A13        2.09809   0.00001  -0.00048   0.00032  -0.00016   2.09793
   A14        1.90000  -0.00001  -0.00044   0.00017  -0.00027   1.89972
   A15        2.28510   0.00001   0.00092  -0.00049   0.00043   2.28553
   A16        2.08261  -0.00003   0.00021  -0.00022  -0.00001   2.08260
   A17        2.09307  -0.00002  -0.00080   0.00021  -0.00059   2.09248
   A18        2.10750   0.00005   0.00059   0.00001   0.00060   2.10810
   A19        1.75901   0.00000  -0.00066   0.00035  -0.00032   1.75869
   A20        1.94373  -0.00000   0.00011  -0.00002   0.00009   1.94382
   A21        1.94643  -0.00000   0.00015  -0.00014   0.00001   1.94644
   A22        1.94290  -0.00000  -0.00001   0.00003   0.00001   1.94291
   A23        1.94502  -0.00000   0.00031  -0.00021   0.00010   1.94512
   A24        1.92212   0.00000   0.00007   0.00001   0.00008   1.92220
   A25        2.25035  -0.00000  -0.00067   0.00034  -0.00032   2.25003
   A26        1.94065  -0.00000   0.00071  -0.00037   0.00034   1.94099
   A27        2.09218   0.00000  -0.00004   0.00003  -0.00001   2.09217
   A28        2.07431   0.00000   0.00010  -0.00006   0.00005   2.07436
   A29        2.11582  -0.00001  -0.00054   0.00024  -0.00030   2.11551
   A30        2.09306   0.00000   0.00044  -0.00018   0.00026   2.09332
   A31        2.11712  -0.00002  -0.00022   0.00005  -0.00017   2.11696
   A32        2.08435   0.00001   0.00004  -0.00002   0.00002   2.08437
   A33        2.08171   0.00001   0.00018  -0.00003   0.00015   2.08186
   A34        2.10146   0.00001  -0.00003   0.00006   0.00003   2.10149
   A35        2.08657   0.00001   0.00042  -0.00010   0.00031   2.08689
   A36        2.09515  -0.00002  -0.00038   0.00004  -0.00034   2.09481
   A37        2.06758  -0.00000   0.00004  -0.00005  -0.00001   2.06757
   A38        2.10507  -0.00001  -0.00012  -0.00003  -0.00015   2.10492
   A39        2.11054   0.00002   0.00008   0.00009   0.00016   2.11070
   A40        1.89348   0.00000  -0.00038   0.00022  -0.00016   1.89332
   A41        2.27599  -0.00001   0.00024  -0.00019   0.00005   2.27604
   A42        2.11371   0.00001   0.00014  -0.00003   0.00011   2.11383
   A43        1.92636  -0.00001   0.00032  -0.00029   0.00002   1.92638
   A44        1.93076  -0.00000   0.00017  -0.00012   0.00005   1.93081
   A45        1.94492   0.00000  -0.00022   0.00016  -0.00006   1.94486
   A46        1.88010   0.00001   0.00001   0.00001   0.00002   1.88012
   A47        1.88877   0.00001  -0.00009   0.00011   0.00002   1.88879
   A48        1.89105   0.00000  -0.00019   0.00015  -0.00005   1.89100
   A49        1.93072  -0.00000   0.00014  -0.00012   0.00003   1.93074
   A50        1.92680   0.00000   0.00021  -0.00016   0.00005   1.92685
   A51        1.94528   0.00001  -0.00017   0.00016  -0.00001   1.94527
   A52        1.87887  -0.00000   0.00015  -0.00008   0.00006   1.87893
   A53        1.89165  -0.00000  -0.00026   0.00015  -0.00011   1.89154
   A54        1.88859  -0.00000  -0.00007   0.00005  -0.00003   1.88856
   A55        2.16896  -0.00019   0.00163  -0.00162   0.00000   2.16896
   A56        2.11834   0.00009  -0.00030   0.00053   0.00023   2.11857
   A57        1.99588   0.00010  -0.00131   0.00108  -0.00023   1.99565
   A58        2.11840  -0.00003   0.00046  -0.00039   0.00007   2.11847
   A59        2.19150   0.00011   0.00014   0.00008   0.00022   2.19173
   A60        1.97226  -0.00008  -0.00054   0.00024  -0.00030   1.97196
   A61        2.16723  -0.00010   0.00084  -0.00070   0.00014   2.16737
   A62        2.07236   0.00006   0.00041   0.00017   0.00058   2.07294
   A63        2.04166   0.00004  -0.00108   0.00040  -0.00069   2.04097
   A64        2.12391   0.00003   0.00044  -0.00029   0.00014   2.12406
   A65        1.97332   0.00009  -0.00039   0.00057   0.00017   1.97349
   A66        2.18504  -0.00012   0.00001  -0.00027  -0.00025   2.18479
   A67        2.16241  -0.00013   0.00061  -0.00059   0.00002   2.16243
   A68        2.04765   0.00001  -0.00105   0.00028  -0.00078   2.04688
   A69        2.07147   0.00012   0.00054   0.00024   0.00078   2.07225
   A70        1.99815   0.00012  -0.00105   0.00096  -0.00010   1.99805
   A71        2.16463  -0.00062   0.00141  -0.00224  -0.00084   2.16379
   A72        2.12040   0.00050  -0.00035   0.00128   0.00093   2.12134
   A73        1.87276   0.00008   0.00062  -0.00051   0.00011   1.87287
   A74        1.87328  -0.00000   0.00051  -0.00067  -0.00016   1.87312
   A75        1.73311  -0.00008  -0.00017   0.00036   0.00018   1.73329
   A76        2.13427  -0.00048   0.00076  -0.00155  -0.00079   2.13348
   A77        2.09716   0.00039  -0.00021   0.00108   0.00087   2.09802
   A78        2.05150   0.00009  -0.00058   0.00053  -0.00005   2.05145
   A79        2.10752  -0.00001   0.00042  -0.00029   0.00013   2.10765
   A80        2.08907  -0.00004   0.00006  -0.00015  -0.00009   2.08898
   A81        2.08631   0.00005  -0.00045   0.00043  -0.00003   2.08628
   A82        2.11377  -0.00007   0.00035  -0.00039  -0.00004   2.11373
   A83        2.09445   0.00006   0.00052   0.00000   0.00052   2.09496
   A84        2.07396   0.00001  -0.00081   0.00033  -0.00048   2.07347
   A85        2.12104  -0.00001   0.00008  -0.00005   0.00003   2.12107
   A86        2.08046  -0.00001  -0.00064   0.00024  -0.00040   2.08006
   A87        2.08163   0.00002   0.00056  -0.00019   0.00037   2.08200
   A88        2.11525   0.00001   0.00014   0.00000   0.00014   2.11538
   A89        2.08620  -0.00001  -0.00064   0.00025  -0.00039   2.08581
   A90        2.08174   0.00000   0.00050  -0.00026   0.00025   2.08199
   A91        2.05710  -0.00001  -0.00037   0.00016  -0.00021   2.05688
   A92        2.11835  -0.00002  -0.00003  -0.00008  -0.00011   2.11824
   A93        2.10725   0.00003   0.00040  -0.00010   0.00030   2.10755
   A94        1.93130   0.00000   0.00023  -0.00001   0.00023   1.93152
   A95        1.91757   0.00002   0.00012   0.00014   0.00026   1.91782
   A96        1.96488   0.00001  -0.00021   0.00014  -0.00007   1.96481
   A97        1.87310  -0.00000  -0.00012  -0.00004  -0.00016   1.87294
   A98        1.87714   0.00000   0.00016  -0.00001   0.00015   1.87728
   A99        1.89702  -0.00003  -0.00017  -0.00025  -0.00042   1.89660
   A100       1.89843  -0.00000  -0.00013   0.00004  -0.00009   1.89834
   A101       1.89963  -0.00001   0.00023  -0.00026  -0.00004   1.89959
   A102       1.91148   0.00002   0.00054  -0.00026   0.00028   1.91176
   A103       1.86129   0.00001  -0.00008   0.00009   0.00002   1.86131
   A104       2.00550  -0.00001  -0.00072   0.00040  -0.00032   2.00518
   A105       1.88470   0.00000   0.00019  -0.00004   0.00015   1.88484
   A106       1.93068   0.00005   0.00047   0.00025   0.00072   1.93140
   A107       1.92840   0.00003  -0.00012   0.00043   0.00031   1.92871
   A108       1.86180  -0.00000   0.00033   0.00019   0.00052   1.86232
    D1       -0.01019  -0.00002   0.00047  -0.00104  -0.00057  -0.01076
    D2        3.11247  -0.00000  -0.00082   0.00014  -0.00070   3.11177
    D3       -3.13590  -0.00001  -0.00102   0.00025  -0.00076  -3.13666
    D4       -0.01324   0.00000  -0.00231   0.00142  -0.00090  -0.01414
    D5        0.01581   0.00001  -0.00165   0.00161  -0.00004   0.01577
    D6       -3.12105   0.00000  -0.00201   0.00146  -0.00054  -3.12159
    D7        3.14144   0.00001  -0.00015   0.00032   0.00016  -3.14158
    D8        0.00459  -0.00000  -0.00051   0.00017  -0.00034   0.00425
    D9       -0.00536   0.00001   0.00133  -0.00048   0.00085  -0.00451
   D10       -3.09210   0.00001  -0.00037   0.00103   0.00066  -3.09144
   D11       -3.12830  -0.00000   0.00261  -0.00162   0.00098  -3.12731
   D12        0.06815  -0.00000   0.00091  -0.00011   0.00079   0.06894
   D13        0.41411  -0.00002  -0.00040   0.00037  -0.00004   0.41408
   D14       -2.72202  -0.00000  -0.00156   0.00182   0.00025  -2.72177
   D15       -2.74678  -0.00001  -0.00174   0.00156  -0.00018  -2.74696
   D16        0.40027   0.00001  -0.00291   0.00301   0.00011   0.40038
   D17        0.01474   0.00000  -0.00188   0.00136  -0.00052   0.01422
   D18       -3.11651  -0.00001  -0.00154   0.00091  -0.00063  -3.11713
   D19        3.10154   0.00000  -0.00010  -0.00017  -0.00028   3.10126
   D20       -0.02971  -0.00001   0.00024  -0.00063  -0.00039  -0.03010
   D21       -0.00909  -0.00001   0.00067  -0.00078  -0.00011  -0.00920
   D22        3.13675  -0.00000   0.00070  -0.00090  -0.00020   3.13655
   D23        3.12391  -0.00000   0.00038  -0.00040  -0.00003   3.12389
   D24       -0.01344   0.00000   0.00041  -0.00052  -0.00011  -0.01355
   D25       -3.13723   0.00001  -0.00071   0.00094   0.00023  -3.13700
   D26        1.08366   0.00001  -0.00038   0.00072   0.00034   1.08401
   D27       -1.07133   0.00000  -0.00066   0.00083   0.00017  -1.07116
   D28        0.01391  -0.00000  -0.00040   0.00052   0.00012   0.01404
   D29       -2.04838  -0.00000  -0.00006   0.00030   0.00024  -2.04814
   D30        2.07981  -0.00000  -0.00034   0.00041   0.00007   2.07988
   D31       -0.00624   0.00000   0.00111  -0.00071   0.00039  -0.00585
   D32        3.13057   0.00001   0.00146  -0.00056   0.00090   3.13147
   D33        3.13004  -0.00000   0.00106  -0.00057   0.00050   3.13053
   D34       -0.01634   0.00000   0.00142  -0.00042   0.00100  -0.01533
   D35        0.00672  -0.00000  -0.00024   0.00029   0.00004   0.00677
   D36       -3.13502  -0.00000  -0.00030   0.00033   0.00003  -3.13499
   D37       -3.13002   0.00000  -0.00020   0.00015  -0.00005  -3.13007
   D38        0.01143   0.00000  -0.00026   0.00019  -0.00006   0.01136
   D39        3.13316  -0.00000   0.00022  -0.00035  -0.00013   3.13303
   D40       -0.00981  -0.00000   0.00025  -0.00035  -0.00009  -0.00990
   D41       -1.08713  -0.00000  -0.00002  -0.00017  -0.00019  -1.08732
   D42        2.05309  -0.00000   0.00001  -0.00017  -0.00015   2.05293
   D43        1.06623   0.00000   0.00028  -0.00029  -0.00001   1.06622
   D44       -2.07673   0.00000   0.00032  -0.00029   0.00003  -2.07671
   D45        3.06915   0.00000  -0.00016   0.00007  -0.00009   3.06907
   D46       -1.13493  -0.00000   0.00017  -0.00019  -0.00002  -1.13495
   D47        0.97003   0.00000  -0.00011   0.00002  -0.00009   0.96995
   D48        1.12111  -0.00000   0.00060  -0.00036   0.00024   1.12134
   D49       -3.08297  -0.00000   0.00092  -0.00062   0.00030  -3.08267
   D50       -0.97801  -0.00000   0.00064  -0.00040   0.00024  -0.97777
   D51       -1.04526   0.00000   0.00016  -0.00011   0.00004  -1.04522
   D52        1.03384  -0.00000   0.00048  -0.00037   0.00011   1.03395
   D53        3.13881   0.00000   0.00021  -0.00016   0.00005   3.13885
   D54        1.13681   0.00000  -0.00010   0.00019   0.00009   1.13690
   D55       -3.06855  -0.00000   0.00031  -0.00009   0.00022  -3.06833
   D56       -0.96913  -0.00000   0.00024  -0.00003   0.00022  -0.96891
   D57        3.08764   0.00000  -0.00064   0.00041  -0.00023   3.08741
   D58       -1.11772  -0.00000  -0.00024   0.00014  -0.00010  -1.11782
   D59        0.98170   0.00000  -0.00030   0.00020  -0.00010   0.98160
   D60       -1.03041   0.00000  -0.00039   0.00031  -0.00009  -1.03049
   D61        1.04742  -0.00000   0.00001   0.00003   0.00004   1.04746
   D62       -3.13634  -0.00000  -0.00005   0.00009   0.00004  -3.13631
   D63        3.13884   0.00000  -0.00003   0.00002  -0.00002   3.13882
   D64       -0.00146   0.00000  -0.00008   0.00007  -0.00001  -0.00147
   D65       -0.00128   0.00000  -0.00007   0.00001  -0.00005  -0.00133
   D66       -3.14157   0.00000  -0.00012   0.00007  -0.00005   3.14156
   D67        0.00254   0.00000  -0.00002   0.00006   0.00004   0.00257
   D68       -3.13892   0.00000   0.00003   0.00002   0.00005  -3.13887
   D69       -3.14029   0.00000   0.00001   0.00006   0.00007  -3.14022
   D70        0.00144   0.00000   0.00006   0.00002   0.00008   0.00152
   D71        0.00051  -0.00000   0.00000   0.00000   0.00000   0.00052
   D72       -3.14053  -0.00000  -0.00007   0.00006  -0.00001  -3.14054
   D73        3.14082  -0.00000   0.00005  -0.00005   0.00000   3.14082
   D74       -0.00022  -0.00000  -0.00001   0.00001  -0.00001  -0.00023
   D75        0.00015  -0.00000   0.00008  -0.00006   0.00002   0.00017
   D76        3.14150  -0.00000   0.00008  -0.00006   0.00002   3.14152
   D77        3.14119  -0.00000   0.00014  -0.00011   0.00003   3.14123
   D78       -0.00064  -0.00000   0.00014  -0.00011   0.00003  -0.00061
   D79       -0.00002   0.00000  -0.00009   0.00009   0.00000  -0.00001
   D80        3.14086  -0.00000   0.00011  -0.00014  -0.00003   3.14083
   D81       -3.14137   0.00000  -0.00009   0.00009   0.00001  -3.14136
   D82       -0.00049  -0.00000   0.00011  -0.00014  -0.00003  -0.00052
   D83        3.14099  -0.00000   0.00008  -0.00012  -0.00004   3.14095
   D84       -0.00077  -0.00000   0.00002  -0.00008  -0.00005  -0.00082
   D85        0.00011   0.00000  -0.00011   0.00011  -0.00000   0.00011
   D86        3.14154   0.00000  -0.00017   0.00016  -0.00002   3.14152
   D87       -3.11831  -0.00001  -0.00069  -0.00031  -0.00101  -3.11932
   D88        0.07528   0.00001  -0.00240   0.00155  -0.00086   0.07442
   D89        0.01817  -0.00003   0.00038  -0.00167  -0.00128   0.01689
   D90       -3.07142  -0.00001  -0.00133   0.00019  -0.00113  -3.07256
   D91        3.11385   0.00001   0.00146  -0.00036   0.00109   3.11494
   D92        0.04128   0.00002  -0.00135   0.00199   0.00063   0.04191
   D93       -0.02279   0.00003   0.00039   0.00097   0.00136  -0.02144
   D94       -3.09536   0.00004  -0.00242   0.00331   0.00089  -3.09447
   D95        0.00394  -0.00000  -0.00052   0.00037  -0.00014   0.00380
   D96       -3.09422  -0.00004  -0.00184   0.00017  -0.00167  -3.09589
   D97        3.09959  -0.00001   0.00101  -0.00127  -0.00026   3.09933
   D98        0.00143  -0.00005  -0.00032  -0.00147  -0.00179  -0.00036
   D99        3.09804   0.00004   0.00091   0.00053   0.00143   3.09948
   D100       0.00468   0.00006  -0.00071   0.00227   0.00156   0.00624
   D101       0.00442   0.00001  -0.00112   0.00120   0.00008   0.00450
   D102      -3.07453   0.00003  -0.00301   0.00266  -0.00035  -3.07488
   D103       3.07810   0.00000   0.00171  -0.00111   0.00059   3.07869
   D104      -0.00085   0.00001  -0.00019   0.00034   0.00015  -0.00069
   D105      -0.02196   0.00004  -0.00013   0.00166   0.00153  -0.02043
   D106       3.11986  -0.00003   0.00064  -0.00092  -0.00028   3.11958
   D107       3.07073   0.00009   0.00135   0.00191   0.00326   3.07399
   D108      -0.07064   0.00003   0.00212  -0.00067   0.00145  -0.06919
   D109      -0.00678   0.00002   0.00117  -0.00011   0.00106  -0.00572
   D110      -3.10315  -0.00003  -0.00022  -0.00033  -0.00055  -3.10369
   D111       0.01848  -0.00004   0.00093  -0.00247  -0.00154   0.01694
   D112      -3.12333   0.00002   0.00018   0.00004   0.00022  -3.12311
   D113       3.09663  -0.00006   0.00279  -0.00394  -0.00115   3.09548
   D114      -0.04518  -0.00000   0.00204  -0.00143   0.00061  -0.04457
   D115      -0.46582   0.00010   0.00026   0.00314   0.00341  -0.46241
   D116       2.70088   0.00003   0.00147   0.00040   0.00187   2.70275
   D117       2.67601   0.00003   0.00109   0.00039   0.00148   2.67749
   D118      -0.44048  -0.00003   0.00230  -0.00235  -0.00006  -0.44053
   D119      -0.00774  -0.00004   0.00124  -0.00211  -0.00087  -0.00861
   D120       0.00854   0.00001  -0.00142   0.00128  -0.00014   0.00840
   D121      -3.10583  -0.00002   0.00053  -0.00084  -0.00031  -3.10613
   D122       0.00999  -0.00002   0.00165  -0.00163   0.00002   0.01001
   D123       0.01128   0.00004  -0.00064   0.00184   0.00120   0.01248
   D124       3.12710   0.00005   0.00048   0.00105   0.00153   3.12863
   D125       3.12310   0.00002  -0.00179   0.00196   0.00017   3.12328
   D126      -0.06728   0.00001  -0.00061   0.00059  -0.00001  -0.06729
   D127       0.00545  -0.00004  -0.00065  -0.00063  -0.00128   0.00417
   D128       3.09825  -0.00004   0.00053  -0.00199  -0.00146   3.09679
   D129      -0.01558  -0.00002   0.00121  -0.00148  -0.00027  -0.01585
   D130       3.11385  -0.00001   0.00125  -0.00124   0.00000   3.11386
   D131      -3.13144  -0.00003   0.00009  -0.00069  -0.00060  -3.13204
   D132      -0.00200  -0.00002   0.00013  -0.00045  -0.00032  -0.00233
   D133      -0.01830   0.00001   0.00140  -0.00098   0.00042  -0.01788
   D134       3.12297   0.00000   0.00159  -0.00108   0.00051   3.12347
   D135      -3.11166   0.00001   0.00020   0.00038   0.00058  -3.11109
   D136       0.02960   0.00001   0.00039   0.00027   0.00066   0.03026
   D137       0.00289  -0.00001  -0.00048  -0.00013  -0.00061   0.00227
   D138      -3.10531   0.00001  -0.00053   0.00074   0.00021  -3.10510
   D139      -3.12654  -0.00002  -0.00051  -0.00038  -0.00088  -3.12742
   D140       0.04845  -0.00000  -0.00056   0.00050  -0.00006   0.04839
   D141       0.01401   0.00002  -0.00083   0.00137   0.00054   0.01455
   D142       3.12243  -0.00000  -0.00079   0.00050  -0.00029   3.12214
   D143      -3.12725   0.00002  -0.00102   0.00147   0.00045  -3.12680
   D144      -0.01884   0.00000  -0.00098   0.00060  -0.00038  -0.01921
   D145      -2.64350  -0.00003  -0.00336  -0.00196  -0.00531  -2.64882
   D146      -0.57827  -0.00002  -0.00329  -0.00192  -0.00521  -0.58348
   D147       1.53857  -0.00004  -0.00357  -0.00204  -0.00561   1.53296
   D148       0.53244  -0.00001  -0.00339  -0.00106  -0.00445   0.52799
   D149       2.59767  -0.00000  -0.00333  -0.00102  -0.00435   2.59332
   D150      -1.56867  -0.00002  -0.00361  -0.00114  -0.00475  -1.57342
   D151      -1.02126   0.00000   0.00251  -0.00004   0.00247  -1.01879
   D152       1.00026  -0.00000   0.00247  -0.00005   0.00242   1.00268
   D153       3.05707   0.00001   0.00314  -0.00040   0.00274   3.05981
   D154       3.12992  -0.00001   0.00225  -0.00012   0.00213   3.13205
   D155      -1.13175  -0.00001   0.00221  -0.00013   0.00208  -1.12966
   D156       0.92507   0.00000   0.00288  -0.00048   0.00240   0.92747
   D157       1.10725   0.00001   0.00240   0.00006   0.00246   1.10971
   D158       3.12877   0.00001   0.00236   0.00005   0.00241   3.13118
   D159      -1.09760   0.00002   0.00303  -0.00030   0.00273  -1.09487
   D160       1.27126   0.00003   0.01036   0.00092   0.01128   1.28254
   D161      -2.95426   0.00008   0.01098   0.00158   0.01256  -2.94170
   D162      -0.87121   0.00004   0.01063   0.00078   0.01141  -0.85980
   D163       1.18645   0.00008   0.01125   0.00144   0.01269   1.19914
   D164      -2.94580   0.00003   0.01104   0.00044   0.01148  -2.93432
   D165      -0.88814   0.00008   0.01167   0.00109   0.01276  -0.87538
         Item               Value     Threshold  Converged?
 Maximum Force            0.000622     0.000450     NO 
 RMS     Force            0.000070     0.000300     YES
 Maximum Displacement     0.032164     0.001800     NO 
 RMS     Displacement     0.003511     0.001200     NO 
 Predicted change in Energy=-5.683589D-06
 Lowest energy point so far.  Saving SCF results.
 GradGradGradGradGradGradGradGradGradGradGradGradGradGradGradGradGradGrad

 Leave Link  103 at Thu Mar 14 11:36:27 2024, MaxMem= 32212254720 cpu:               2.7 elap:               0.1
 (Enter /home/<user>/g16/l202.exe)
 Stoichiometry    C29H25N3S(1+,2)
 Framework group  C1[X(C29H25N3S)]
 Deg. of freedom   168
 Full point group                 C1      NOp   1
 RotChk:  IX=0 Diff= 1.97D-04
 Largest Abelian subgroup         C1      NOp   1
 Largest concise Abelian subgroup C1      NOp   1
                         Standard orientation:                         
 ---------------------------------------------------------------------
 Center     Atomic      Atomic             Coordinates (Angstroms)
 Number     Number       Type             X           Y           Z
 ---------------------------------------------------------------------
      1          6           0       -2.439394    1.614236   -0.417824
      2          6           0       -1.785778    0.371339   -0.156205
      3          6           0       -2.596256   -0.780434    0.081405
      4          6           0       -3.966280   -0.683394    0.061940
      5          6           0       -4.594870    0.564981   -0.212873
      6          6           0       -3.815850    1.711594   -0.455770
      7          1           0       -1.838890    2.493651   -0.604070
      8          1           0       -2.128856   -1.727749    0.328897
      9          1           0       -4.284940    2.665853   -0.675418
     10          6           0       -5.010636   -1.769422    0.315747
     11          6           0       -6.300226   -0.974502    0.127414
     12          6           0       -7.614438   -1.410751    0.218752
     13          6           0       -8.648558   -0.489990    0.006822
     14          6           0       -8.377212    0.856748   -0.294819
     15          6           0       -7.066743    1.305334   -0.389796
     16          6           0       -6.026039    0.383928   -0.177882
     17          1           0       -7.849161   -2.445672    0.451171
     18          1           0       -9.680588   -0.821146    0.077002
     19          1           0       -9.200253    1.546421   -0.453856
     20          1           0       -6.853555    2.344427   -0.623246
     21          6           0       -4.901366   -2.331815    1.752632
     22          1           0       -5.702126   -3.054549    1.941058
     23          1           0       -3.945686   -2.848745    1.893131
     24          1           0       -4.975749   -1.536065    2.500244
     25          6           0       -4.898029   -2.916631   -0.714813
     26          1           0       -3.943731   -3.443228   -0.603346
     27          1           0       -5.699897   -3.646590   -0.562537
     28          1           0       -4.967362   -2.541503   -1.740631
     29          6           0       -0.340368    0.259344   -0.151956
     30          6           0        0.563215    1.366684    0.087405
     31          6           0        0.300334   -0.970349   -0.394365
     32          6           0        2.006999    1.188277    0.050044
     33          6           0        1.685242   -1.138444   -0.434302
     34          1           0       -0.306475   -1.837951   -0.626143
     35          6           0        2.607069   -0.097735   -0.231473
     36          1           0        2.058947   -2.122443   -0.692972
     37          7           0        0.199931    2.608722    0.412707
     38          7           0        2.679658    2.302150    0.348039
     39         16           0        1.574715    3.475683    0.640618
     40          6           0        4.042475   -0.326479   -0.307094
     41          6           0        4.954776    0.701250   -0.655592
     42          6           0        4.573872   -1.618172   -0.055935
     43          6           0        6.311456    0.439388   -0.759122
     44          1           0        4.586119    1.696223   -0.866186
     45          6           0        5.932686   -1.861365   -0.143704
     46          1           0        3.917513   -2.424460    0.254384
     47          6           0        6.834793   -0.841605   -0.506057
     48          1           0        6.984689    1.240164   -1.053307
     49          1           0        6.313291   -2.856427    0.070576
     50          6           0        8.312477   -1.110783   -0.574189
     51          1           0        8.503079   -2.153823   -0.846742
     52          1           0        8.771150   -0.481978   -1.348007
     53          6           0        9.028982   -0.841187    0.773033
     54          1           0        8.857497    0.211023    1.062437
     55          1           0        8.565778   -1.460243    1.550486
     56          7           0       10.430895   -1.227386    0.665537
     57          1           0       10.946780   -0.554509    0.101063
     58          1           0       10.869597   -1.236274    1.583607
 ---------------------------------------------------------------------
 Rotational constants (GHZ):           0.3675746           0.0395065           0.0363941
 Leave Link  202 at Thu Mar 14 11:36:27 2024, MaxMem= 32212254720 cpu:               0.0 elap:               0.0
 (Enter /home/<user>/g16/l301.exe)
 Standard basis: 6-31G(d) (6D, 7F)
 Ernie: Thresh=  0.10000D-02 Tol=  0.10000D-05 Strict=F.
 There are   549 symmetry adapted cartesian basis functions of A   symmetry.
 There are   549 symmetry adapted basis functions of A   symmetry.
   549 basis functions,  1048 primitive gaussians,   549 cartesian basis functions
   118 alpha electrons      117 beta electrons
       nuclear repulsion energy      3079.5455171723 Hartrees.
 IExCor=  402 DFT=T Ex+Corr=B3LYP ExCW=0 ScaHFX=  0.200000
 ScaDFX=  0.800000  0.720000  1.000000  0.810000 ScalE2=  1.000000  1.000000
 IRadAn=      5 IRanWt=     -1 IRanGd=            0 ICorTp=0 IEmpDi=  4
 NAtoms=   58 NActive=   58 NUniq=   58 SFac= 1.00D+00 NAtFMM=   60 NAOKFM=F Big=F
 Integral buffers will be    131072 words long.
 Raffenetti 2 integral format.
 Two-electron integral symmetry is turned on.
 Leave Link  301 at Thu Mar 14 11:36:28 2024, MaxMem= 32212254720 cpu:               0.8 elap:               0.0
 (Enter /home/<user>/g16/l302.exe)
 NPDir=0 NMtPBC=     1 NCelOv=     1 NCel=       1 NClECP=     1 NCelD=      1
         NCelK=      1 NCelE2=     1 NClLst=     1 CellRange=     0.0.
 One-electron integrals computed using PRISM.
 One-electron integral symmetry used in STVInt
 NBasis=   549 RedAO= T EigKep=  2.65D-04  NBF=   549
 NBsUse=   549 1.00D-06 EigRej= -1.00D+00 NBFU=   549
 Precomputing XC quadrature grid using
 IXCGrd= 4 IRadAn=           5 IRanWt=          -1 IRanGd=           0 AccXCQ= 0.00D+00.
 Generated NRdTot=       0 NPtTot=           0 NUsed=           0 NTot=          32
 NSgBfM=   512   512   512   512   512 MxSgAt=    58 MxSgA2=    58.
 Leave Link  302 at Thu Mar 14 11:36:28 2024, MaxMem= 32212254720 cpu:              12.6 elap:               0.4
 (Enter /home/<user>/g16/l303.exe)
 DipDrv:  MaxL=1.
 Leave Link  303 at Thu Mar 14 11:36:28 2024, MaxMem= 32212254720 cpu:               1.4 elap:               0.1
 (Enter /home/<user>/g16/l401.exe)
 Initial guess from the checkpoint file:  "FBTP_H0opt.chk"
 B after Tr=    -0.000000    0.000000    0.000000
         Rot=    1.000000    0.000118   -0.000006    0.000046 Ang=   0.01 deg.
 Guess basis will be translated and rotated to current coordinates.
 JPrj=2 DoOrth=T DoCkMO=T.
 Initial guess <Sx>= 0.0000 <Sy>= 0.0000 <Sz>= 0.5000 <S**2>= 0.7625 S= 0.5062
 Generating alternative initial guess.
 ExpMin= 1.17D-01 ExpMax= 2.19D+04 ExpMxC= 3.30D+03 IAcc=3 IRadAn=         5 AccDes= 0.00D+00
 Harris functional with IExCor=  402 and IRadAn=       5 diagonalized for initial guess.
 HarFok:  IExCor=  402 AccDes= 0.00D+00 IRadAn=         5 IDoV= 1 UseB2=F ITyADJ=14
 ICtDFT=  3500011 ScaDFX=  1.000000  1.000000  1.000000  1.000000
 FoFCou: FMM=F IPFlag=           0 FMFlag=      100000 FMFlg1=           0
         NFxFlg=           0 DoJE=T BraDBF=F KetDBF=T FulRan=T
         wScrn=  0.000000 ICntrl=       500 IOpCl=  0 I1Cent=   200000004 NGrid=           0
         NMat0=    1 NMatS0=      1 NMatT0=    0 NMatD0=    1 NMtDS0=    0 NMtDT0=    0
 Petite list used in FoFCou.
 Harris En= -1682.30467369792    
 Leave Link  401 at Thu Mar 14 11:36:30 2024, MaxMem= 32212254720 cpu:              48.2 elap:               1.6
 (Enter /home/<user>/g16/l502.exe)
 Integral symmetry usage will be decided dynamically.
 UHF open shell SCF:
 Using DIIS extrapolation, IDIIS=  1040.
 NGot= 32212254720 LenX= 32211628124 LenY= 32211326174
 Requested convergence on RMS density matrix=1.00D-08 within 128 cycles.
 Requested convergence on MAX density matrix=1.00D-06.
 Requested convergence on             energy=1.00D-06.
 No special actions if energy rises.
 Fock matrices will be formed incrementally for  20 cycles.
 Integral accuracy reduced to 1.0D-05 until final iterations.

 Cycle   1  Pass 0  IDiag  1:
 FoFJK:  IHMeth= 1 ICntrl=       0 DoSepK=F KAlg= 0 I1Cent=           0 FoldK=F
 IRaf= 550000000 NMat=       1 IRICut=       1 DoRegI=T DoRafI=F ISym2E= 0 IDoP0=0 IntGTp=1.
 FoFCou: FMM=F IPFlag=           0 FMFlag=      100000 FMFlg1=           0
         NFxFlg=           0 DoJE=F BraDBF=F KetDBF=F FulRan=T
         wScrn=  0.000000 ICntrl=         0 IOpCl=  1 I1Cent=           0 NGrid=           0
         NMat0=    1 NMatS0=      1 NMatT0=    0 NMatD0=    1 NMtDS0=    0 NMtDT0=    0
 Symmetry not used in FoFCou.
 E= -1682.36779962519    
 DIIS: error= 2.16D-04 at cycle   1 NSaved=   1.
 NSaved= 1 IEnMin= 1 EnMin= -1682.36779962519     IErMin= 1 ErrMin= 2.16D-04
 ErrMax= 2.16D-04  0.00D+00 EMaxC= 1.00D-01 BMatC= 1.09D-04 BMatP= 1.09D-04
 IDIUse=3 WtCom= 9.98D-01 WtEn= 2.16D-03
 Coeff-Com:  0.100D+01
 Coeff-En:   0.100D+01
 Coeff:      0.100D+01
 Gap=     1.961 Goal=   None    Shift=    0.000
 Gap=     1.950 Goal=   None    Shift=    0.000
 RMSDP=6.97D-05 MaxDP=2.46D-03              OVMax= 3.22D-03

 Cycle   2  Pass 0  IDiag  1:
 RMSU=  6.97D-05    CP:  1.00D+00
 E= -1682.36782498432     Delta-E=       -0.000025359132 Rises=F Damp=F
 DIIS: error= 2.46D-05 at cycle   2 NSaved=   2.
 NSaved= 2 IEnMin= 2 EnMin= -1682.36782498432     IErMin= 2 ErrMin= 2.46D-05
 ErrMax= 2.46D-05  0.00D+00 EMaxC= 1.00D-01 BMatC= 1.68D-06 BMatP= 1.09D-04
 IDIUse=1 WtCom= 1.00D+00 WtEn= 0.00D+00
 Coeff-Com: -0.602D-01 0.106D+01
 Coeff:     -0.602D-01 0.106D+01
 Gap=     0.094 Goal=   None    Shift=    0.000
 Gap=     0.029 Goal=   None    Shift=    0.000
 RMSDP=4.08D-06 MaxDP=2.14D-04 DE=-2.54D-05 OVMax= 8.50D-04

 Initial convergence to 1.0D-05 achieved.  Increase integral accuracy.
 Cycle   3  Pass 1  IDiag  1:
 E= -1682.36789276213     Delta-E=       -0.000067777813 Rises=F Damp=F
 DIIS: error= 9.26D-05 at cycle   1 NSaved=   1.
 NSaved= 1 IEnMin= 1 EnMin= -1682.36789276213     IErMin= 1 ErrMin= 9.26D-05
 ErrMax= 9.26D-05  0.00D+00 EMaxC= 1.00D-01 BMatC= 1.41D-05 BMatP= 1.41D-05
 IDIUse=1 WtCom= 1.00D+00 WtEn= 0.00D+00
 Coeff-Com:  0.100D+01
 Coeff:      0.100D+01
 Gap=     0.094 Goal=   None    Shift=    0.000
 Gap=     0.029 Goal=   None    Shift=    0.000
 RMSDP=4.08D-06 MaxDP=2.14D-04 DE=-6.78D-05 OVMax= 1.70D-03

 Cycle   4  Pass 1  IDiag  1:
 RMSU=  6.74D-05    CP:  1.00D+00
 E= -1682.36789204943     Delta-E=        0.000000712700 Rises=F Damp=F
 DIIS: error= 6.64D-05 at cycle   2 NSaved=   2.
 NSaved= 2 IEnMin= 1 EnMin= -1682.36789276213     IErMin= 2 ErrMin= 6.64D-05
 ErrMax= 6.64D-05  0.00D+00 EMaxC= 1.00D-01 BMatC= 1.50D-05 BMatP= 1.41D-05
 IDIUse=1 WtCom= 1.00D+00 WtEn= 0.00D+00
 Coeff-Com:  0.510D+00 0.490D+00
 Coeff:      0.510D+00 0.490D+00
 Gap=     0.094 Goal=   None    Shift=    0.000
 Gap=     0.029 Goal=   None    Shift=    0.000
 RMSDP=7.04D-06 MaxDP=6.30D-04 DE= 7.13D-07 OVMax= 1.66D-03

 Cycle   5  Pass 1  IDiag  1:
 RMSU=  7.03D-06    CP:  1.00D+00  9.95D-01
 E= -1682.36789385425     Delta-E=       -0.000001804817 Rises=F Damp=F
 DIIS: error= 5.93D-05 at cycle   3 NSaved=   3.
 NSaved= 3 IEnMin= 3 EnMin= -1682.36789385425     IErMin= 3 ErrMin= 5.93D-05
 ErrMax= 5.93D-05  0.00D+00 EMaxC= 1.00D-01 BMatC= 8.37D-06 BMatP= 1.41D-05
 IDIUse=1 WtCom= 1.00D+00 WtEn= 0.00D+00
 Coeff-Com:  0.487D-01 0.416D+00 0.535D+00
 Coeff:      0.487D-01 0.416D+00 0.535D+00
 Gap=     0.094 Goal=   None    Shift=    0.000
 Gap=     0.029 Goal=   None    Shift=    0.000
 RMSDP=3.42D-06 MaxDP=2.98D-04 DE=-1.80D-06 OVMax= 4.52D-04

 Cycle   6  Pass 1  IDiag  1:
 RMSU=  1.89D-06    CP:  1.00D+00  1.00D+00  6.05D-01
 E= -1682.36789560974     Delta-E=       -0.000001755489 Rises=F Damp=F
 DIIS: error= 1.71D-05 at cycle   4 NSaved=   4.
 NSaved= 4 IEnMin= 4 EnMin= -1682.36789560974     IErMin= 4 ErrMin= 1.71D-05
 ErrMax= 1.71D-05  0.00D+00 EMaxC= 1.00D-01 BMatC= 1.21D-06 BMatP= 8.37D-06
 IDIUse=1 WtCom= 1.00D+00 WtEn= 0.00D+00
 Coeff-Com: -0.715D-03 0.267D+00 0.391D+00 0.343D+00
 Coeff:     -0.715D-03 0.267D+00 0.391D+00 0.343D+00
 Gap=     0.094 Goal=   None    Shift=    0.000
 Gap=     0.029 Goal=   None    Shift=    0.000
 RMSDP=1.37D-06 MaxDP=9.95D-05 DE=-1.76D-06 OVMax= 4.59D-04

 Cycle   7  Pass 1  IDiag  1:
 RMSU=  3.48D-07    CP:  1.00D+00  1.01D+00  5.99D-01  2.96D-01
 E= -1682.36789594021     Delta-E=       -0.000000330477 Rises=F Damp=F
 DIIS: error= 3.02D-06 at cycle   5 NSaved=   5.
 NSaved= 5 IEnMin= 5 EnMin= -1682.36789594021     IErMin= 5 ErrMin= 3.02D-06
 ErrMax= 3.02D-06  0.00D+00 EMaxC= 1.00D-01 BMatC= 3.00D-08 BMatP= 1.21D-06
 IDIUse=1 WtCom= 1.00D+00 WtEn= 0.00D+00
 Coeff-Com: -0.226D-02 0.161D+00 0.237D+00 0.225D+00 0.379D+00
 Coeff:     -0.226D-02 0.161D+00 0.237D+00 0.225D+00 0.379D+00
 Gap=     0.094 Goal=   None    Shift=    0.000
 Gap=     0.029 Goal=   None    Shift=    0.000
 RMSDP=2.31D-07 MaxDP=1.49D-05 DE=-3.30D-07 OVMax= 9.22D-05

 Cycle   8  Pass 1  IDiag  1:
 RMSU=  1.09D-07    CP:  1.00D+00  1.00D+00  6.02D-01  3.49D-01  4.95D-01
 E= -1682.36789594899     Delta-E=       -0.000000008772 Rises=F Damp=F
 DIIS: error= 7.29D-07 at cycle   6 NSaved=   6.
 NSaved= 6 IEnMin= 6 EnMin= -1682.36789594899     IErMin= 6 ErrMin= 7.29D-07
 ErrMax= 7.29D-07  0.00D+00 EMaxC= 1.00D-01 BMatC= 1.32D-09 BMatP= 3.00D-08
 IDIUse=1 WtCom= 1.00D+00 WtEn= 0.00D+00
 Coeff-Com: -0.130D-02 0.796D-01 0.118D+00 0.115D+00 0.230D+00 0.460D+00
 Coeff:     -0.130D-02 0.796D-01 0.118D+00 0.115D+00 0.230D+00 0.460D+00
 Gap=     0.094 Goal=   None    Shift=    0.000
 Gap=     0.029 Goal=   None    Shift=    0.000
 RMSDP=6.27D-08 MaxDP=3.28D-06 DE=-8.77D-09 OVMax= 2.37D-05

 Cycle   9  Pass 1  IDiag  1:
 RMSU=  4.84D-08    CP:  1.00D+00  1.01D+00  6.01D-01  3.41D-01  5.59D-01
                    CP:  7.56D-01
 E= -1682.36789594934     Delta-E=       -0.000000000351 Rises=F Damp=F
 DIIS: error= 3.58D-07 at cycle   7 NSaved=   7.
 NSaved= 7 IEnMin= 7 EnMin= -1682.36789594934     IErMin= 7 ErrMin= 3.58D-07
 ErrMax= 3.58D-07  0.00D+00 EMaxC= 1.00D-01 BMatC= 2.60D-10 BMatP= 1.32D-09
 IDIUse=1 WtCom= 1.00D+00 WtEn= 0.00D+00
 Coeff-Com: -0.508D-03 0.273D-01 0.409D-01 0.415D-01 0.896D-01 0.307D+00
 Coeff-Com:  0.495D+00
 Coeff:     -0.508D-03 0.273D-01 0.409D-01 0.415D-01 0.896D-01 0.307D+00
 Coeff:      0.495D+00
 Gap=     0.094 Goal=   None    Shift=    0.000
 Gap=     0.029 Goal=   None    Shift=    0.000
 RMSDP=2.70D-08 MaxDP=1.62D-06 DE=-3.51D-10 OVMax= 9.37D-06

 Cycle  10  Pass 1  IDiag  1:
 RMSU=  2.27D-08    CP:  1.00D+00  1.01D+00  6.01D-01  3.41D-01  5.56D-01
                    CP:  8.81D-01  9.00D-01
 E= -1682.36789594941     Delta-E=       -0.000000000075 Rises=F Damp=F
 DIIS: error= 1.62D-07 at cycle   8 NSaved=   8.
 NSaved= 8 IEnMin= 8 EnMin= -1682.36789594941     IErMin= 8 ErrMin= 1.62D-07
 ErrMax= 1.62D-07  0.00D+00 EMaxC= 1.00D-01 BMatC= 8.20D-11 BMatP= 2.60D-10
 IDIUse=1 WtCom= 1.00D+00 WtEn= 0.00D+00
 Coeff-Com:  0.271D-03-0.192D-01-0.278D-01-0.247D-01-0.503D-01 0.215D-01
 Coeff-Com:  0.354D+00 0.746D+00
 Coeff:      0.271D-03-0.192D-01-0.278D-01-0.247D-01-0.503D-01 0.215D-01
 Coeff:      0.354D+00 0.746D+00
 Gap=     0.094 Goal=   None    Shift=    0.000
 Gap=     0.029 Goal=   None    Shift=    0.000
 RMSDP=2.50D-08 MaxDP=1.88D-06 DE=-7.55D-11 OVMax= 7.82D-06

 Cycle  11  Pass 1  IDiag  1:
 RMSU=  1.79D-08    CP:  1.00D+00  1.01D+00  6.01D-01  3.42D-01  5.73D-01
                    CP:  9.52D-01  1.20D+00  1.03D+00
 E= -1682.36789594947     Delta-E=       -0.000000000061 Rises=F Damp=F
 DIIS: error= 1.22D-07 at cycle   9 NSaved=   9.
 NSaved= 9 IEnMin= 9 EnMin= -1682.36789594947     IErMin= 9 ErrMin= 1.22D-07
 ErrMax= 1.22D-07  0.00D+00 EMaxC= 1.00D-01 BMatC= 4.22D-11 BMatP= 8.20D-11
 IDIUse=1 WtCom= 1.00D+00 WtEn= 0.00D+00
 Coeff-Com:  0.452D-03-0.280D-01-0.410D-01-0.384D-01-0.837D-01-0.118D+00
 Coeff-Com:  0.276D-01 0.606D+00 0.675D+00
 Coeff:      0.452D-03-0.280D-01-0.410D-01-0.384D-01-0.837D-01-0.118D+00
 Coeff:      0.276D-01 0.606D+00 0.675D+00
 Gap=     0.094 Goal=   None    Shift=    0.000
 Gap=     0.029 Goal=   None    Shift=    0.000
 RMSDP=1.86D-08 MaxDP=1.39D-06 DE=-6.09D-11 OVMax= 6.10D-06

 Cycle  12  Pass 1  IDiag  1:
 RMSU=  9.74D-09    CP:  1.00D+00  1.01D+00  6.01D-01  3.42D-01  5.85D-01
                    CP:  1.03D+00  1.33D+00  1.51D+00  1.16D+00
 E= -1682.36789594954     Delta-E=       -0.000000000064 Rises=F Damp=F
 DIIS: error= 6.10D-08 at cycle  10 NSaved=  10.
 NSaved=10 IEnMin=10 EnMin= -1682.36789594954     IErMin=10 ErrMin= 6.10D-08
 ErrMax= 6.10D-08  0.00D+00 EMaxC= 1.00D-01 BMatC= 8.83D-12 BMatP= 4.22D-11
 IDIUse=1 WtCom= 1.00D+00 WtEn= 0.00D+00
 Coeff-Com:  0.196D-03-0.115D-01-0.169D-01-0.161D-01-0.378D-01-0.742D-01
 Coeff-Com: -0.983D-01 0.148D+00 0.400D+00 0.707D+00
 Coeff:      0.196D-03-0.115D-01-0.169D-01-0.161D-01-0.378D-01-0.742D-01
 Coeff:     -0.983D-01 0.148D+00 0.400D+00 0.707D+00
 Gap=     0.094 Goal=   None    Shift=    0.000
 Gap=     0.029 Goal=   None    Shift=    0.000
 RMSDP=9.13D-09 MaxDP=7.68D-07 DE=-6.37D-11 OVMax= 2.14D-06

 SCF Done:  E(UB3LYP) =  -1682.36789595     A.U. after   12 cycles
            NFock= 12  Conv=0.91D-08     -V/T= 2.0082
 <Sx>= 0.0000 <Sy>= 0.0000 <Sz>= 0.5000 <S**2>= 0.7625 S= 0.5062
 <L.S>= 0.000000000000E+00
 KE= 1.668651328886D+03 PE=-1.005476678226D+04 EE= 3.624202040254D+03
 Annihilation of the first spin contaminant:
 S**2 before annihilation     0.7625,   after     0.7501
 Leave Link  502 at Thu Mar 14 11:37:02 2024, MaxMem= 32212254720 cpu:             967.8 elap:              32.3
 (Enter /home/<user>/g16/l701.exe)
 ... and contract with generalized density number  0.
 Compute integral first derivatives.
 Leave Link  701 at Thu Mar 14 11:37:02 2024, MaxMem= 32212254720 cpu:               5.1 elap:               0.2
 (Enter /home/<user>/g16/l702.exe)
 L702 exits ... SP integral derivatives will be done elsewhere.
 Leave Link  702 at Thu Mar 14 11:37:02 2024, MaxMem= 32212254720 cpu:               0.7 elap:               0.0
 (Enter /home/<user>/g16/l703.exe)
 Integral derivatives from FoFJK, PRISM(SPDF).
 Compute integral first derivatives, UseDBF=F ICtDFT=           0.
 Calling FoFJK, ICntrl=      2127 FMM=F ISym2X=0 I1Cent= 0 IOpClX= 1 NMat=1 NMatS=1 NMatT=0.
 FoFJK:  IHMeth= 1 ICntrl=    2127 DoSepK=F KAlg= 0 I1Cent=           0 FoldK=F
 IRaf=         0 NMat=       1 IRICut=       1 DoRegI=T DoRafI=F ISym2E= 0 IDoP0=0 IntGTp=1.
 FoFCou: FMM=F IPFlag=           0 FMFlag=      100000 FMFlg1=         800
         NFxFlg=           0 DoJE=F BraDBF=F KetDBF=F FulRan=T
         wScrn=  0.000000 ICntrl=      2127 IOpCl=  1 I1Cent=           0 NGrid=           0
         NMat0=    1 NMatS0=      1 NMatT0=    0 NMatD0=    1 NMtDS0=    0 NMtDT0=    0
 Symmetry not used in FoFCou.
 Leave Link  703 at Thu Mar 14 11:37:09 2024, MaxMem= 32212254720 cpu:             199.7 elap:               6.7
 (Enter /home/<user>/g16/l716.exe)
 Dipole        =-8.58341049D-01-1.84680068D-01-6.39539341D-02
 ***** Axes restored to original set *****
 -------------------------------------------------------------------
 Center     Atomic                   Forces (Hartrees/Bohr)
 Number     Number              X              Y              Z
 -------------------------------------------------------------------
      1        6           0.000014767    0.000132976    0.000012751
      2        6          -0.000042004   -0.000060681   -0.000012250
      3        6           0.000032752   -0.000091143   -0.000000421
      4        6           0.000099743   -0.000128509    0.000081450
      5        6          -0.000273010   -0.000050292   -0.000022713
      6        6           0.000058587    0.000152787   -0.000020097
      7        1           0.000012796   -0.000016066   -0.000002543
      8        1           0.000081805    0.000038749   -0.000024614
      9        1          -0.000005342   -0.000040943   -0.000012097
     10        6           0.000003311    0.000061714    0.000011268
     11        6          -0.000109842   -0.000143682    0.000030551
     12        6           0.000034207   -0.000021082    0.000004537
     13        6          -0.000015782   -0.000031719    0.000007463
     14        6           0.000031729    0.000067494   -0.000021459
     15        6          -0.000076678    0.000079877   -0.000014689
     16        6           0.000292984    0.000061333    0.000001395
     17        1          -0.000021075    0.000022691   -0.000004560
     18        1          -0.000000977    0.000002654    0.000000790
     19        1          -0.000001455   -0.000019517    0.000003442
     20        1          -0.000008486   -0.000023646    0.000002566
     21        6           0.000009331    0.000043301   -0.000012960
     22        1           0.000000689    0.000001923   -0.000009035
     23        1          -0.000007107   -0.000001060   -0.000005612
     24        1          -0.000000403   -0.000013457   -0.000004557
     25        6          -0.000002709    0.000025890   -0.000027790
     26        1          -0.000006262   -0.000007538    0.000008194
     27        1           0.000006341   -0.000005044    0.000002258
     28        1          -0.000004046   -0.000008932    0.000013400
     29        6           0.000171664   -0.000019028    0.000009665
     30        6           0.000041274   -0.000019062    0.000023867
     31        6          -0.000058698   -0.000094916    0.000043486
     32        6          -0.000056375    0.000026860   -0.000063562
     33        6          -0.000006682   -0.000110047    0.000024028
     34        1          -0.000066425    0.000025857   -0.000012478
     35        6          -0.000075150   -0.000031196   -0.000029723
     36        1           0.000045611    0.000029935   -0.000025072
     37        7           0.000040360   -0.000025549   -0.000028306
     38        7          -0.000113020   -0.000047115    0.000046521
     39       16          -0.000012561    0.000218395    0.000029081
     40        6           0.000012015   -0.000045410    0.000033387
     41        6           0.000038623    0.000110408   -0.000026030
     42        6          -0.000043308   -0.000058464    0.000011932
     43        6          -0.000048038    0.000091717    0.000025027
     44        1           0.000005464   -0.000035350   -0.000003041
     45        6          -0.000000787   -0.000015430   -0.000029629
     46        1          -0.000034853    0.000034413   -0.000024662
     47        6           0.000027843   -0.000064905    0.000004508
     48        1           0.000011733   -0.000035655   -0.000008607
     49        1           0.000024015    0.000028057    0.000009367
     50        6          -0.000068315   -0.000049140   -0.000082567
     51        1           0.000004320    0.000020872    0.000027810
     52        1           0.000001134   -0.000012194    0.000003868
     53        6           0.000095979   -0.000018037    0.000097394
     54        1           0.000013786   -0.000017211   -0.000046062
     55        1           0.000002601    0.000026544    0.000013783
     56        7          -0.000034172    0.000175223   -0.000017172
     57        1          -0.000001642   -0.000032981    0.000044517
     58        1          -0.000020256   -0.000084669   -0.000035998
 -------------------------------------------------------------------
 Cartesian Forces:  Max     0.000292984 RMS     0.000059679
 Leave Link  716 at Thu Mar 14 11:37:09 2024, MaxMem= 32212254720 cpu:               0.7 elap:               0.0
 (Enter /home/<user>/g16/l103.exe)

 GradGradGradGradGradGradGradGradGradGradGradGradGradGradGradGradGradGrad
 Berny optimization.
 Using GEDIIS/GDIIS optimizer.
 FormGI is forming the generalized inverse of G from B-inverse, IUseBI=4.
 GSVD:  received Info=                   1 from GESDD.
 Internal  Forces:  Max     0.000207622 RMS     0.000040707
 Search for a local minimum.
 Step number   7 out of a maximum of  346
 All quantities printed in internal units (Hartrees-Bohrs-Radians)
 RMS Force = .40707D-04 SwitMx=.10000D-02 MixMth= 2
 Mixed Optimization -- En-DIIS/RFO-DIIS
 Swapping is turned off.
 Update second derivatives using D2CorX and points    2    3    4    5    6
                                                      7
 DE= -5.08D-06 DEPred=-5.68D-06 R= 8.94D-01
 TightC=F SS=  1.41D+00  RLast= 3.42D-02 DXNew= 1.0781D+00 1.0254D-01
 Trust test= 8.94D-01 RLast= 3.42D-02 DXMaxT set to 6.41D-01
 ITU=  1  1  1  0  1  1  0
     Eigenvalues ---    0.00221   0.00230   0.00230   0.00280   0.00641
     Eigenvalues ---    0.00757   0.00993   0.01069   0.01249   0.01450
     Eigenvalues ---    0.01475   0.01606   0.01620   0.01638   0.01657
     Eigenvalues ---    0.01683   0.01711   0.01736   0.01813   0.01887
     Eigenvalues ---    0.01912   0.01998   0.02031   0.02043   0.02072
     Eigenvalues ---    0.02082   0.02087   0.02092   0.02094   0.02101
     Eigenvalues ---    0.02112   0.02119   0.02125   0.02130   0.02134
     Eigenvalues ---    0.02143   0.02145   0.02149   0.02159   0.02161
     Eigenvalues ---    0.02174   0.02258   0.02292   0.02544   0.04073
     Eigenvalues ---    0.04170   0.04341   0.04352   0.05392   0.05398
     Eigenvalues ---    0.05449   0.05535   0.05541   0.05595   0.06038
     Eigenvalues ---    0.08147   0.08863   0.09230   0.11559   0.12527
     Eigenvalues ---    0.12793   0.15710   0.15888   0.15968   0.15982
     Eigenvalues ---    0.15989   0.15999   0.16000   0.16000   0.16000
     Eigenvalues ---    0.16000   0.16000   0.16000   0.16000   0.16000
     Eigenvalues ---    0.16000   0.16000   0.16010   0.16018   0.16029
     Eigenvalues ---    0.16039   0.16774   0.19451   0.20670   0.21902
     Eigenvalues ---    0.21996   0.22011   0.22109   0.22447   0.22497
     Eigenvalues ---    0.22843   0.22968   0.23635   0.24233   0.24532
     Eigenvalues ---    0.24707   0.24930   0.24948   0.24990   0.24996
     Eigenvalues ---    0.25001   0.25093   0.26446   0.28064   0.28108
     Eigenvalues ---    0.28479   0.28853   0.29000   0.31212   0.32567
     Eigenvalues ---    0.33117   0.33501   0.33790   0.34014   0.34091
     Eigenvalues ---    0.34100   0.34104   0.34114   0.34127   0.34256
     Eigenvalues ---    0.34283   0.34296   0.35025   0.35042   0.35066
     Eigenvalues ---    0.35091   0.35123   0.35154   0.35185   0.35191
     Eigenvalues ---    0.35226   0.35244   0.35254   0.35324   0.35564
     Eigenvalues ---    0.35847   0.36186   0.36940   0.37764   0.38421
     Eigenvalues ---    0.39861   0.41097   0.41210   0.41585   0.41625
     Eigenvalues ---    0.42164   0.42350   0.42447   0.43694   0.44140
     Eigenvalues ---    0.44376   0.44519   0.44662   0.44949   0.45415
     Eigenvalues ---    0.45540   0.45817   0.46070   0.46151   0.46755
     Eigenvalues ---    0.46952   0.47102   0.47688   0.48643   0.50244
     Eigenvalues ---    0.53594   0.54505   0.59396
 En-DIIS/RFO-DIIS/Sim-DIIS IScMMF=       -3 using points:     7    6    5    4    3    2
 RFO step:  Lambda=-3.53917378D-06.
 NNeg= 0 NGDIIS= 6 SimSw=  2.50D-01 Rises=F DC= -5.08D-06 SmlDif=  1.00D-05
 NRisDI= 0 DoIntr=F SqrtH=F CThrHd= 10.0 CDAdj=  3.0
 RMS Error=  0.1526748264D-02 NUsed= 6 OKEnD=F EnDIS=F
 InvSVX:  RCond= 6.05D-06 Info=           0 Equed=N FErr=  9.67D-14 BErr=  6.41D-17
 DidBck=F Rises=F RFO-DIIS coefs:    1.32290    0.00767   -0.34608    0.02175    0.00638
                  RFO-DIIS coefs:   -0.01263
 Iteration  1 RMS(Cart)=  0.00210538 RMS(Int)=  0.00000309
 Iteration  2 RMS(Cart)=  0.00000568 RMS(Int)=  0.00000031
 Iteration  3 RMS(Cart)=  0.00000000 RMS(Int)=  0.00000031
 ITry= 1 IFail=0 DXMaxC= 1.36D-02 DCOld= 1.00D+10 DXMaxT= 6.41D-01 DXLimC= 3.00D+00 Rises=F
 Variable       Old X    -DE/DX   Delta X   Delta X   Delta X     New X
                                 (Linear)    (Quad)   (Total)
    R1        2.69937   0.00006  -0.00027   0.00018  -0.00010   2.69927
    R2        2.60861  -0.00003   0.00022  -0.00010   0.00012   2.60873
    R3        2.04288  -0.00001   0.00004  -0.00004   0.00000   2.04289
    R4        2.69901  -0.00004   0.00000  -0.00016  -0.00016   2.69885
    R5        2.73963  -0.00010   0.00010  -0.00024  -0.00014   2.73949
    R6        2.59572   0.00003   0.00008   0.00005   0.00013   2.59585
    R7        2.05026  -0.00000  -0.00002   0.00003   0.00001   2.05028
    R8        2.69184   0.00014  -0.00035   0.00037   0.00001   2.69185
    R9        2.88736  -0.00000   0.00010  -0.00004   0.00006   2.88742
   R10        2.65948   0.00012  -0.00035   0.00032  -0.00003   2.65945
   R11        2.72687  -0.00019   0.00065  -0.00059   0.00005   2.72693
   R12        2.05181  -0.00003   0.00004  -0.00008  -0.00004   2.05177
   R13        2.88479   0.00002   0.00001   0.00005   0.00006   2.88486
   R14        2.92319  -0.00004  -0.00001  -0.00012  -0.00013   2.92307
   R15        2.92195  -0.00000  -0.00014   0.00007  -0.00007   2.92188
   R16        2.62244  -0.00001   0.00010  -0.00004   0.00006   2.62250
   R17        2.68163   0.00010  -0.00030   0.00027  -0.00003   2.68159
   R18        2.64705   0.00002  -0.00000   0.00001   0.00001   2.64706
   R19        2.05292  -0.00002   0.00002  -0.00004  -0.00002   2.05290
   R20        2.65795   0.00004  -0.00012   0.00008  -0.00004   2.65792
   R21        2.05249   0.00000   0.00000   0.00000   0.00001   2.05249
   R22        2.62364  -0.00003   0.00017  -0.00009   0.00008   2.62373
   R23        2.05132  -0.00001   0.00001  -0.00002  -0.00001   2.05131
   R24        2.65704   0.00009  -0.00030   0.00026  -0.00004   2.65700
   R25        2.05248  -0.00002   0.00003  -0.00006  -0.00004   2.05244
   R26        2.06929  -0.00000  -0.00001   0.00000  -0.00000   2.06928
   R27        2.07033  -0.00001   0.00001  -0.00002  -0.00000   2.07033
   R28        2.06808  -0.00001   0.00003  -0.00005  -0.00002   2.06807
   R29        2.07045  -0.00000  -0.00000   0.00000   0.00000   2.07045
   R30        2.06925  -0.00000  -0.00001   0.00001   0.00000   2.06925
   R31        2.06822  -0.00001   0.00004  -0.00005  -0.00001   2.06820
   R32        2.73845  -0.00008   0.00004  -0.00016  -0.00012   2.73833
   R33        2.66002  -0.00002  -0.00012  -0.00004  -0.00016   2.65986
   R34        2.75001  -0.00021   0.00043  -0.00073  -0.00030   2.74971
   R35        2.52153   0.00005  -0.00006   0.00016   0.00009   2.52162
   R36        2.63738   0.00000   0.00001   0.00011   0.00012   2.63751
   R37        2.04813   0.00002  -0.00005   0.00010   0.00005   2.04818
   R38        2.73401   0.00009   0.00002   0.00007   0.00008   2.73410
   R39        2.52261   0.00004  -0.00002   0.00011   0.00009   2.52270
   R40        2.65504   0.00006  -0.00012   0.00011  -0.00001   2.65503
   R41        2.04826  -0.00001  -0.00000  -0.00001  -0.00001   2.04825
   R42        2.75047  -0.00002   0.00004  -0.00006  -0.00002   2.75044
   R43        3.10145   0.00002  -0.00038   0.00025  -0.00013   3.10133
   R44        3.09574   0.00009  -0.00032   0.00032   0.00000   3.09574
   R45        2.67913   0.00007  -0.00000   0.00007   0.00007   2.67919
   R46        2.68177  -0.00002   0.00004  -0.00009  -0.00005   2.68172
   R47        2.61839  -0.00002   0.00002  -0.00003  -0.00001   2.61839
   R48        2.04425  -0.00003  -0.00001  -0.00003  -0.00004   2.04421
   R49        2.61386   0.00002  -0.00000   0.00007   0.00007   2.61393
   R50        2.05034  -0.00001   0.00002  -0.00003  -0.00001   2.05032
   R51        2.65832   0.00006   0.00001   0.00009   0.00010   2.65842
   R52        2.05366  -0.00002   0.00002  -0.00003  -0.00002   2.05365
   R53        2.66244   0.00000   0.00001  -0.00003  -0.00002   2.66242
   R54        2.05357  -0.00001   0.00001  -0.00003  -0.00002   2.05355
   R55        2.84129  -0.00001  -0.00017   0.00006  -0.00010   2.84119
   R56        2.06884  -0.00003  -0.00004  -0.00005  -0.00009   2.06875
   R57        2.07403  -0.00001  -0.00001  -0.00001  -0.00002   2.07401
   R58        2.92820   0.00008   0.00032   0.00014   0.00046   2.92866
   R59        2.08753  -0.00003  -0.00006  -0.00006  -0.00011   2.08742
   R60        2.07201  -0.00000  -0.00009   0.00003  -0.00007   2.07194
   R61        2.75542  -0.00007  -0.00005  -0.00014  -0.00019   2.75523
   R62        1.92486  -0.00005  -0.00008  -0.00006  -0.00015   1.92471
   R63        1.92288  -0.00004  -0.00006  -0.00007  -0.00013   1.92275
    A1        2.12077  -0.00005   0.00020  -0.00027  -0.00007   2.12069
    A2        2.07738   0.00001   0.00013  -0.00005   0.00008   2.07747
    A3        2.08493   0.00004  -0.00032   0.00031  -0.00001   2.08492
    A4        2.06291   0.00014  -0.00029   0.00053   0.00024   2.06314
    A5        2.12229  -0.00007  -0.00010   0.00007  -0.00003   2.12226
    A6        2.09784  -0.00007   0.00039  -0.00059  -0.00021   2.09763
    A7        2.10210  -0.00006   0.00001  -0.00022  -0.00021   2.10189
    A8        2.09163  -0.00006   0.00072  -0.00075  -0.00003   2.09160
    A9        2.08817   0.00013  -0.00073   0.00098   0.00025   2.08842
   A10        2.09993  -0.00003   0.00022  -0.00014   0.00008   2.10001
   A11        2.25128   0.00008  -0.00053   0.00050  -0.00003   2.25125
   A12        1.93194  -0.00005   0.00031  -0.00036  -0.00005   1.93189
   A13        2.09793   0.00004  -0.00017   0.00018   0.00001   2.09794
   A14        1.89972   0.00003  -0.00019   0.00020   0.00001   1.89973
   A15        2.28553  -0.00007   0.00036  -0.00038  -0.00002   2.28551
   A16        2.08260  -0.00003   0.00003  -0.00009  -0.00005   2.08254
   A17        2.09248   0.00004  -0.00044   0.00034  -0.00010   2.09238
   A18        2.10810  -0.00000   0.00040  -0.00025   0.00015   2.10825
   A19        1.75869   0.00003  -0.00027   0.00032   0.00005   1.75874
   A20        1.94382  -0.00002   0.00009  -0.00012  -0.00003   1.94379
   A21        1.94644  -0.00001  -0.00000   0.00002   0.00002   1.94645
   A22        1.94291  -0.00001   0.00002  -0.00005  -0.00004   1.94288
   A23        1.94512  -0.00002   0.00009  -0.00011  -0.00002   1.94509
   A24        1.92220   0.00002   0.00006  -0.00004   0.00002   1.92222
   A25        2.25003   0.00005  -0.00027   0.00032   0.00005   2.25008
   A26        1.94099  -0.00005   0.00029  -0.00035  -0.00006   1.94093
   A27        2.09217  -0.00001  -0.00002   0.00003   0.00001   2.09218
   A28        2.07436  -0.00000   0.00002  -0.00001   0.00001   2.07437
   A29        2.11551   0.00003  -0.00023   0.00024   0.00001   2.11552
   A30        2.09332  -0.00003   0.00021  -0.00023  -0.00002   2.09330
   A31        2.11696   0.00002  -0.00010   0.00006  -0.00004   2.11692
   A32        2.08437  -0.00001   0.00001   0.00000   0.00001   2.08438
   A33        2.08186  -0.00001   0.00009  -0.00006   0.00003   2.08188
   A34        2.10149   0.00001   0.00001   0.00001   0.00002   2.10151
   A35        2.08689  -0.00002   0.00022  -0.00020   0.00003   2.08691
   A36        2.09481   0.00001  -0.00023   0.00018  -0.00005   2.09476
   A37        2.06757  -0.00001  -0.00002   0.00002  -0.00000   2.06757
   A38        2.10492  -0.00000  -0.00008   0.00002  -0.00006   2.10485
   A39        2.11070   0.00001   0.00010  -0.00003   0.00006   2.11077
   A40        1.89332   0.00004  -0.00014   0.00019   0.00005   1.89337
   A41        2.27604  -0.00003   0.00004  -0.00009  -0.00005   2.27599
   A42        2.11383  -0.00001   0.00010  -0.00011  -0.00001   2.11382
   A43        1.92638  -0.00001   0.00003  -0.00009  -0.00006   1.92633
   A44        1.93081  -0.00000   0.00004  -0.00003   0.00000   1.93081
   A45        1.94486   0.00001  -0.00005   0.00009   0.00004   1.94490
   A46        1.88012   0.00000   0.00001  -0.00002  -0.00001   1.88011
   A47        1.88879   0.00000   0.00001   0.00001   0.00001   1.88880
   A48        1.89100   0.00000  -0.00003   0.00005   0.00001   1.89102
   A49        1.93074  -0.00000   0.00002  -0.00000   0.00001   1.93075
   A50        1.92685   0.00000   0.00001   0.00001   0.00003   1.92688
   A51        1.94527   0.00001  -0.00001   0.00005   0.00004   1.94531
   A52        1.87893  -0.00001   0.00007  -0.00012  -0.00006   1.87888
   A53        1.89154   0.00000  -0.00008   0.00008  -0.00000   1.89154
   A54        1.88856  -0.00000  -0.00001  -0.00001  -0.00002   1.88854
   A55        2.16896  -0.00015   0.00009  -0.00027  -0.00018   2.16878
   A56        2.11857  -0.00004   0.00035  -0.00047  -0.00012   2.11845
   A57        1.99565   0.00019  -0.00045   0.00075   0.00030   1.99595
   A58        2.11847  -0.00004   0.00021  -0.00027  -0.00007   2.11840
   A59        2.19173   0.00001  -0.00023   0.00038   0.00014   2.19187
   A60        1.97196   0.00003   0.00004  -0.00009  -0.00005   1.97191
   A61        2.16737  -0.00012   0.00028  -0.00048  -0.00020   2.16716
   A62        2.07294  -0.00001   0.00047  -0.00047   0.00000   2.07294
   A63        2.04097   0.00013  -0.00073   0.00091   0.00019   2.04115
   A64        2.12406  -0.00005   0.00008  -0.00015  -0.00007   2.12399
   A65        1.97349  -0.00008  -0.00005  -0.00025  -0.00030   1.97319
   A66        2.18479   0.00012  -0.00005   0.00040   0.00035   2.18514
   A67        2.16243  -0.00008   0.00029  -0.00039  -0.00010   2.16234
   A68        2.04688   0.00009  -0.00070   0.00072   0.00001   2.04689
   A69        2.07225  -0.00001   0.00043  -0.00036   0.00007   2.07232
   A70        1.99805   0.00010  -0.00039   0.00053   0.00014   1.99819
   A71        2.16379  -0.00002   0.00056  -0.00053   0.00003   2.16382
   A72        2.12134  -0.00008  -0.00017  -0.00000  -0.00017   2.12117
   A73        1.87287   0.00009  -0.00024   0.00059   0.00036   1.87323
   A74        1.87312   0.00014  -0.00022   0.00069   0.00047   1.87358
   A75        1.73329  -0.00018   0.00046  -0.00093  -0.00048   1.73281
   A76        2.13348   0.00003   0.00025  -0.00015   0.00010   2.13358
   A77        2.09802  -0.00008   0.00002  -0.00014  -0.00012   2.09790
   A78        2.05145   0.00005  -0.00028   0.00030   0.00002   2.05147
   A79        2.10765  -0.00004   0.00016  -0.00019  -0.00003   2.10762
   A80        2.08898   0.00001   0.00004  -0.00002   0.00001   2.08899
   A81        2.08628   0.00003  -0.00019   0.00021   0.00001   2.08630
   A82        2.11373  -0.00003   0.00015  -0.00017  -0.00002   2.11371
   A83        2.09496  -0.00004   0.00033  -0.00037  -0.00004   2.09492
   A84        2.07347   0.00006  -0.00049   0.00055   0.00006   2.07353
   A85        2.12107  -0.00000   0.00008  -0.00003   0.00004   2.12111
   A86        2.08006   0.00003  -0.00033   0.00030  -0.00002   2.08004
   A87        2.08200  -0.00003   0.00025  -0.00027  -0.00002   2.08197
   A88        2.11538  -0.00000   0.00009  -0.00004   0.00006   2.11544
   A89        2.08581   0.00003  -0.00029   0.00028  -0.00001   2.08580
   A90        2.08199  -0.00003   0.00020  -0.00025  -0.00005   2.08194
   A91        2.05688   0.00002  -0.00020   0.00013  -0.00007   2.05681
   A92        2.11824  -0.00002  -0.00003  -0.00005  -0.00008   2.11816
   A93        2.10755  -0.00000   0.00022  -0.00007   0.00015   2.10770
   A94        1.93152  -0.00000   0.00017   0.00001   0.00018   1.93171
   A95        1.91782  -0.00000   0.00020  -0.00008   0.00012   1.91794
   A96        1.96481   0.00003  -0.00009   0.00016   0.00006   1.96488
   A97        1.87294   0.00001  -0.00007   0.00002  -0.00005   1.87289
   A98        1.87728  -0.00001   0.00008  -0.00009  -0.00001   1.87727
   A99        1.89660  -0.00002  -0.00029  -0.00003  -0.00032   1.89628
   A100       1.89834   0.00000  -0.00007  -0.00004  -0.00011   1.89823
   A101       1.89959   0.00000  -0.00007   0.00008   0.00002   1.89961
   A102       1.91176  -0.00001   0.00018  -0.00008   0.00010   1.91186
   A103       1.86131   0.00000   0.00001   0.00004   0.00005   1.86136
   A104       2.00518  -0.00000  -0.00015  -0.00009  -0.00024   2.00494
   A105       1.88484   0.00001   0.00009   0.00010   0.00019   1.88503
   A106       1.93140   0.00004   0.00049   0.00018   0.00067   1.93207
   A107       1.92871   0.00004   0.00019   0.00029   0.00048   1.92919
   A108       1.86232  -0.00001   0.00036   0.00014   0.00050   1.86281
    D1       -0.01076  -0.00001  -0.00039   0.00005  -0.00034  -0.01109
    D2        3.11177   0.00000  -0.00039   0.00029  -0.00010   3.11166
    D3       -3.13666   0.00000  -0.00063   0.00047  -0.00016  -3.13682
    D4       -0.01414   0.00001  -0.00063   0.00071   0.00008  -0.01406
    D5        0.01577   0.00001  -0.00007   0.00027   0.00020   0.01597
    D6       -3.12159   0.00001  -0.00047   0.00065   0.00018  -3.12141
    D7       -3.14158   0.00000   0.00018  -0.00016   0.00002  -3.14156
    D8        0.00425   0.00000  -0.00023   0.00023   0.00000   0.00425
    D9       -0.00451  -0.00001   0.00067  -0.00053   0.00014  -0.00437
   D10       -3.09144  -0.00001   0.00074  -0.00065   0.00009  -3.09135
   D11       -3.12731  -0.00002   0.00068  -0.00077  -0.00009  -3.12741
   D12        0.06894  -0.00001   0.00075  -0.00090  -0.00015   0.06880
   D13        0.41408  -0.00002  -0.00089   0.00004  -0.00085   0.41323
   D14       -2.72177  -0.00002  -0.00071  -0.00026  -0.00098  -2.72275
   D15       -2.74696  -0.00001  -0.00091   0.00030  -0.00061  -2.74757
   D16        0.40038  -0.00001  -0.00073  -0.00001  -0.00073   0.39965
   D17        0.01422   0.00001  -0.00050   0.00068   0.00018   0.01440
   D18       -3.11713   0.00001  -0.00032   0.00010  -0.00022  -3.11735
   D19        3.10126   0.00001  -0.00052   0.00075   0.00023   3.10148
   D20       -0.03010  -0.00000  -0.00035   0.00017  -0.00018  -0.03027
   D21       -0.00920  -0.00001   0.00003  -0.00035  -0.00032  -0.00952
   D22        3.13655  -0.00000  -0.00013  -0.00005  -0.00018   3.13637
   D23        3.12389  -0.00000  -0.00012   0.00013   0.00001   3.12390
   D24       -0.01355   0.00000  -0.00028   0.00043   0.00015  -0.01340
   D25       -3.13700   0.00001   0.00009   0.00018   0.00028  -3.13672
   D26        1.08401   0.00000   0.00018   0.00012   0.00030   1.08431
   D27       -1.07116  -0.00000   0.00004   0.00024   0.00029  -1.07087
   D28        0.01404  -0.00000   0.00026  -0.00035  -0.00009   0.01394
   D29       -2.04814  -0.00000   0.00035  -0.00041  -0.00007  -2.04820
   D30        2.07988  -0.00001   0.00020  -0.00029  -0.00008   2.07980
   D31       -0.00585  -0.00000   0.00026  -0.00013   0.00013  -0.00572
   D32        3.13147  -0.00001   0.00066  -0.00052   0.00015   3.13162
   D33        3.13053  -0.00001   0.00045  -0.00050  -0.00005   3.13049
   D34       -0.01533  -0.00001   0.00086  -0.00089  -0.00002  -0.01536
   D35        0.00677  -0.00000   0.00018  -0.00032  -0.00014   0.00662
   D36       -3.13499  -0.00000   0.00012  -0.00019  -0.00007  -3.13506
   D37       -3.13007   0.00000   0.00000   0.00002   0.00002  -3.13005
   D38        0.01136   0.00000  -0.00006   0.00015   0.00009   0.01145
   D39        3.13303   0.00000  -0.00018   0.00020   0.00002   3.13305
   D40       -0.00990   0.00000  -0.00014   0.00015   0.00001  -0.00990
   D41       -1.08732  -0.00000  -0.00021   0.00021  -0.00000  -1.08732
   D42        2.05293  -0.00001  -0.00018   0.00016  -0.00002   2.05292
   D43        1.06622  -0.00000  -0.00006   0.00004  -0.00002   1.06621
   D44       -2.07671  -0.00000  -0.00003  -0.00001  -0.00004  -2.07674
   D45        3.06907   0.00001  -0.00005   0.00002  -0.00003   3.06903
   D46       -1.13495   0.00000   0.00000  -0.00009  -0.00008  -1.13503
   D47        0.96995   0.00001  -0.00005   0.00001  -0.00004   0.96991
   D48        1.12134  -0.00001   0.00022  -0.00028  -0.00006   1.12128
   D49       -3.08267  -0.00002   0.00027  -0.00038  -0.00011  -3.08278
   D50       -0.97777  -0.00001   0.00022  -0.00028  -0.00006  -0.97783
   D51       -1.04522   0.00000   0.00005  -0.00007  -0.00002  -1.04524
   D52        1.03395  -0.00000   0.00011  -0.00017  -0.00007   1.03389
   D53        3.13885   0.00000   0.00005  -0.00008  -0.00002   3.13883
   D54        1.13690  -0.00001   0.00016  -0.00022  -0.00006   1.13684
   D55       -3.06833  -0.00001   0.00027  -0.00037  -0.00011  -3.06844
   D56       -0.96891  -0.00001   0.00026  -0.00035  -0.00009  -0.96901
   D57        3.08741   0.00002  -0.00012   0.00012   0.00000   3.08741
   D58       -1.11782   0.00001  -0.00002  -0.00003  -0.00004  -1.11786
   D59        0.98160   0.00001  -0.00003  -0.00000  -0.00003   0.98157
   D60       -1.03049   0.00001   0.00001  -0.00005  -0.00004  -1.03054
   D61        1.04746  -0.00000   0.00011  -0.00020  -0.00009   1.04737
   D62       -3.13631  -0.00000   0.00010  -0.00018  -0.00008  -3.13638
   D63        3.13882   0.00000  -0.00003   0.00003   0.00001   3.13883
   D64       -0.00147   0.00000  -0.00002   0.00002   0.00000  -0.00147
   D65       -0.00133   0.00000  -0.00006   0.00009   0.00003  -0.00130
   D66        3.14156   0.00000  -0.00005   0.00008   0.00002   3.14158
   D67        0.00257   0.00000  -0.00001   0.00010   0.00008   0.00266
   D68       -3.13887  -0.00000   0.00004  -0.00002   0.00002  -3.13886
   D69       -3.14022  -0.00000   0.00002   0.00005   0.00007  -3.14015
   D70        0.00152  -0.00000   0.00007  -0.00007  -0.00000   0.00152
   D71        0.00052  -0.00000   0.00001  -0.00002  -0.00001   0.00050
   D72       -3.14054  -0.00000   0.00001  -0.00002  -0.00001  -3.14056
   D73        3.14082  -0.00000   0.00000  -0.00001  -0.00001   3.14082
   D74       -0.00023  -0.00000  -0.00000  -0.00001  -0.00001  -0.00024
   D75        0.00017  -0.00000   0.00004  -0.00007  -0.00003   0.00013
   D76        3.14152  -0.00000   0.00004  -0.00007  -0.00003   3.14149
   D77        3.14123  -0.00000   0.00004  -0.00007  -0.00003   3.14120
   D78       -0.00061  -0.00000   0.00004  -0.00007  -0.00003  -0.00063
   D79       -0.00001   0.00000  -0.00003   0.00009   0.00006   0.00005
   D80        3.14083  -0.00000   0.00000  -0.00006  -0.00006   3.14077
   D81       -3.14136   0.00000  -0.00003   0.00009   0.00006  -3.14131
   D82       -0.00052  -0.00000   0.00000  -0.00006  -0.00006  -0.00058
   D83        3.14095  -0.00000   0.00005  -0.00017  -0.00012   3.14082
   D84       -0.00082  -0.00000  -0.00002  -0.00002  -0.00004  -0.00087
   D85        0.00011   0.00000   0.00001  -0.00002  -0.00001   0.00010
   D86        3.14152   0.00000  -0.00006   0.00013   0.00007  -3.14159
   D87       -3.11932   0.00000  -0.00035   0.00013  -0.00022  -3.11954
   D88        0.07442  -0.00001  -0.00068  -0.00008  -0.00076   0.07366
   D89        0.01689   0.00000  -0.00051   0.00042  -0.00010   0.01679
   D90       -3.07256  -0.00001  -0.00085   0.00021  -0.00064  -3.07319
   D91        3.11494  -0.00001   0.00061  -0.00037   0.00023   3.11518
   D92        0.04191   0.00001   0.00022   0.00027   0.00049   0.04240
   D93       -0.02144  -0.00001   0.00077  -0.00065   0.00012  -0.02132
   D94       -3.09447   0.00001   0.00039  -0.00001   0.00038  -3.09410
   D95        0.00380   0.00000  -0.00009   0.00003  -0.00006   0.00374
   D96       -3.09589   0.00001   0.00021   0.00006   0.00027  -3.09561
   D97        3.09933   0.00001   0.00020   0.00023   0.00042   3.09975
   D98       -0.00036   0.00002   0.00050   0.00026   0.00075   0.00039
   D99        3.09948  -0.00000   0.00008   0.00002   0.00010   3.09958
   D100       0.00624  -0.00001  -0.00023  -0.00017  -0.00040   0.00585
   D101       0.00450   0.00000  -0.00042   0.00044   0.00002   0.00452
   D102      -3.07488   0.00002  -0.00084   0.00110   0.00026  -3.07462
   D103       3.07869  -0.00001   0.00001  -0.00025  -0.00024   3.07845
   D104      -0.00069   0.00000  -0.00042   0.00042   0.00000  -0.00069
   D105      -0.02043  -0.00000   0.00047  -0.00028   0.00019  -0.02024
   D106       3.11958   0.00001   0.00053  -0.00009   0.00044   3.12001
   D107       3.07399  -0.00002   0.00013  -0.00033  -0.00020   3.07379
   D108      -0.06919  -0.00001   0.00019  -0.00014   0.00005  -0.06914
   D109      -0.00572  -0.00002  -0.00050  -0.00021  -0.00071  -0.00643
   D110      -3.10369  -0.00001  -0.00019  -0.00016  -0.00035  -3.10405
   D111       0.01694  -0.00000  -0.00023   0.00005  -0.00018   0.01676
   D112      -3.12311  -0.00001  -0.00030  -0.00012  -0.00042  -3.12353
   D113       3.09548  -0.00001   0.00016  -0.00058  -0.00042   3.09506
   D114      -0.04457  -0.00002   0.00010  -0.00076  -0.00066  -0.04523
   D115      -0.46241  -0.00001   0.00015  -0.00041  -0.00025  -0.46267
   D116       2.70275  -0.00001   0.00057  -0.00077  -0.00020   2.70255
   D117       2.67749   0.00000   0.00022  -0.00021   0.00001   2.67750
   D118      -0.44053   0.00000   0.00064  -0.00058   0.00006  -0.44047
   D119      -0.00861  -0.00000  -0.00006   0.00005  -0.00001  -0.00862
   D120       0.00840   0.00002   0.00033   0.00010   0.00043   0.00883
   D121      -3.10613   0.00000   0.00037  -0.00029   0.00008  -3.10606
   D122       0.01001  -0.00001   0.00043  -0.00049  -0.00006   0.00995
   D123       0.01248  -0.00000  -0.00003   0.00006   0.00003   0.01251
   D124       3.12863  -0.00001   0.00003  -0.00014  -0.00011   3.12852
   D125       3.12328   0.00001  -0.00043   0.00043   0.00000   3.12328
   D126      -0.06729   0.00001  -0.00060   0.00060   0.00000  -0.06729
   D127       0.00417   0.00001  -0.00004   0.00009   0.00005   0.00422
   D128       3.09679   0.00001  -0.00021   0.00026   0.00005   3.09684
   D129      -0.01585  -0.00000   0.00014  -0.00016  -0.00002  -0.01587
   D130       3.11386  -0.00001   0.00018  -0.00042  -0.00024   3.11362
   D131      -3.13204   0.00001   0.00007   0.00004   0.00012  -3.13192
   D132      -0.00233  -0.00000   0.00011  -0.00022  -0.00010  -0.00243
   D133      -0.01788  -0.00001   0.00001  -0.00015  -0.00014  -0.01802
   D134       3.12347  -0.00001   0.00026  -0.00043  -0.00017   3.12331
   D135      -3.11109  -0.00001   0.00015  -0.00029  -0.00013  -3.11122
   D136       0.03026  -0.00001   0.00041  -0.00057  -0.00016   0.03010
   D137       0.00227   0.00000  -0.00017   0.00011  -0.00007   0.00221
   D138      -3.10510   0.00000  -0.00003   0.00007   0.00003  -3.10506
   D139      -3.12742   0.00001  -0.00021   0.00037   0.00016  -3.12727
   D140       0.04839   0.00001  -0.00007   0.00032   0.00026   0.04865
   D141       0.01455   0.00000   0.00010   0.00005   0.00015   0.01469
   D142       3.12214   0.00001  -0.00005   0.00009   0.00004   3.12218
   D143      -3.12680   0.00001  -0.00016   0.00033   0.00017  -3.12663
   D144      -0.01921   0.00001  -0.00030   0.00037   0.00007  -0.01914
   D145      -2.64882  -0.00002  -0.00314  -0.00147  -0.00461  -2.65343
   D146      -0.58348  -0.00001  -0.00300  -0.00148  -0.00449  -0.58797
   D147       1.53296  -0.00002  -0.00330  -0.00147  -0.00477   1.52819
   D148       0.52799  -0.00002  -0.00298  -0.00152  -0.00450   0.52348
   D149       2.59332  -0.00001  -0.00285  -0.00153  -0.00438   2.58894
   D150      -1.57342  -0.00002  -0.00314  -0.00152  -0.00466  -1.57808
   D151      -1.01879  -0.00000   0.00161  -0.00069   0.00092  -1.01787
   D152       1.00268  -0.00000   0.00155  -0.00062   0.00093   1.00361
   D153       3.05981   0.00001   0.00172  -0.00049   0.00123   3.06104
   D154       3.13205  -0.00001   0.00140  -0.00075   0.00066   3.13271
   D155      -1.12966  -0.00001   0.00134  -0.00067   0.00067  -1.12899
   D156       0.92747  -0.00000   0.00151  -0.00055   0.00096   0.92844
   D157       1.10971  -0.00000   0.00160  -0.00071   0.00089   1.11060
   D158       3.13118   0.00000   0.00153  -0.00064   0.00090   3.13208
   D159      -1.09487   0.00001   0.00171  -0.00051   0.00119  -1.09367
   D160       1.28254   0.00001   0.00787  -0.00044   0.00743   1.28997
   D161      -2.94170   0.00005   0.00873   0.00003   0.00877  -2.93294
   D162      -0.85980   0.00001   0.00792  -0.00025   0.00767  -0.85213
   D163       1.19914   0.00006   0.00878   0.00022   0.00900   1.20814
   D164      -2.93432   0.00001   0.00794  -0.00032   0.00761  -2.92670
   D165      -0.87538   0.00005   0.00880   0.00015   0.00895  -0.86643
         Item               Value     Threshold  Converged?
 Maximum Force            0.000208     0.000450     YES
 RMS     Force            0.000041     0.000300     YES
 Maximum Displacement     0.013581     0.001800     NO 
 RMS     Displacement     0.002105     0.001200     NO 
 Predicted change in Energy=-1.727797D-06
 Lowest energy point so far.  Saving SCF results.
 GradGradGradGradGradGradGradGradGradGradGradGradGradGradGradGradGradGrad

 Leave Link  103 at Thu Mar 14 11:37:09 2024, MaxMem= 32212254720 cpu:               2.7 elap:               0.1
 (Enter /home/<user>/g16/l202.exe)
 Stoichiometry    C29H25N3S(1+,2)
 Framework group  C1[X(C29H25N3S)]
 Deg. of freedom   168
 Full point group                 C1      NOp   1
 RotChk:  IX=0 Diff= 2.12D-04
 Largest Abelian subgroup         C1      NOp   1
 Largest concise Abelian subgroup C1      NOp   1
                         Standard orientation:                         
 ---------------------------------------------------------------------
 Center     Atomic      Atomic             Coordinates (Angstroms)
 Number     Number       Type             X           Y           Z
 ---------------------------------------------------------------------
      1          6           0       -2.439017    1.614453   -0.416840
      2          6           0       -1.785628    0.371287   -0.156216
      3          6           0       -2.595967   -0.780551    0.081052
      4          6           0       -3.966047   -0.683232    0.062017
      5          6           0       -4.594583    0.565312   -0.212190
      6          6           0       -3.815530    1.711995   -0.454567
      7          1           0       -1.838442    2.493910   -0.602663
      8          1           0       -2.128438   -1.727989    0.327860
      9          1           0       -4.284433    2.666460   -0.673624
     10          6           0       -5.010530   -1.769301    0.315319
     11          6           0       -6.300115   -0.974184    0.127523
     12          6           0       -7.614399   -1.410340    0.218751
     13          6           0       -8.648447   -0.489361    0.007385
     14          6           0       -8.376943    0.857480   -0.293569
     15          6           0       -7.066390    1.305989   -0.388378
     16          6           0       -6.025790    0.384361   -0.177061
     17          1           0       -7.849225   -2.445340    0.450650
     18          1           0       -9.680511   -0.820441    0.077469
     19          1           0       -9.199878    1.547358   -0.452217
     20          1           0       -6.853173    2.345163   -0.621353
     21          6           0       -4.901206   -2.332400    1.751850
     22          1           0       -5.702064   -3.055114    1.939928
     23          1           0       -3.945603   -2.849566    1.891992
     24          1           0       -4.975410   -1.537049    2.499890
     25          6           0       -4.898143   -2.915958   -0.715823
     26          1           0       -3.943876   -3.442700   -0.604752
     27          1           0       -5.700015   -3.645970   -0.563820
     28          1           0       -4.967594   -2.540337   -1.741444
     29          6           0       -0.340308    0.259042   -0.152315
     30          6           0        0.563286    1.366372    0.086673
     31          6           0        0.299924   -0.970829   -0.394555
     32          6           0        2.006892    1.187823    0.049274
     33          6           0        1.684873   -1.139122   -0.434523
     34          1           0       -0.307191   -1.838237   -0.626384
     35          6           0        2.606743   -0.098424   -0.231863
     36          1           0        2.058450   -2.123141   -0.693285
     37          7           0        0.200210    2.608754    0.411088
     38          7           0        2.679361    2.301861    0.347290
     39         16           0        1.574771    3.475980    0.638862
     40          6           0        4.042096   -0.327579   -0.307022
     41          6           0        4.954889    0.699698   -0.655703
     42          6           0        4.572907   -1.619359   -0.055231
     43          6           0        6.311481    0.437242   -0.758822
     44          1           0        4.586667    1.694687   -0.866871
     45          6           0        5.931694   -1.863088   -0.142519
     46          1           0        3.916117   -2.425245    0.255192
     47          6           0        6.834312   -0.843893   -0.505140
     48          1           0        6.985059    1.237582   -1.053369
     49          1           0        6.311877   -2.858164    0.072390
     50          6           0        8.311882   -1.113505   -0.572831
     51          1           0        8.502432   -2.157803   -0.840364
     52          1           0        8.770272   -0.488498   -1.349871
     53          6           0        9.029447   -0.837135    0.772734
     54          1           0        8.857398    0.216236    1.057304
     55          1           0        8.567378   -1.452905    1.553415
     56          7           0       10.431566   -1.222372    0.665842
     57          1           0       10.948321   -0.548184    0.103876
     58          1           0       10.869282   -1.234843    1.584267
 ---------------------------------------------------------------------
 Rotational constants (GHZ):           0.3676248           0.0395090           0.0363956
 Leave Link  202 at Thu Mar 14 11:37:09 2024, MaxMem= 32212254720 cpu:               0.1 elap:               0.0
 (Enter /home/<user>/g16/l301.exe)
 Standard basis: 6-31G(d) (6D, 7F)
 Ernie: Thresh=  0.10000D-02 Tol=  0.10000D-05 Strict=F.
 There are   549 symmetry adapted cartesian basis functions of A   symmetry.
 There are   549 symmetry adapted basis functions of A   symmetry.
   549 basis functions,  1048 primitive gaussians,   549 cartesian basis functions
   118 alpha electrons      117 beta electrons
       nuclear repulsion energy      3079.5779580122 Hartrees.
 IExCor=  402 DFT=T Ex+Corr=B3LYP ExCW=0 ScaHFX=  0.200000
 ScaDFX=  0.800000  0.720000  1.000000  0.810000 ScalE2=  1.000000  1.000000
 IRadAn=      5 IRanWt=     -1 IRanGd=            0 ICorTp=0 IEmpDi=  4
 NAtoms=   58 NActive=   58 NUniq=   58 SFac= 1.00D+00 NAtFMM=   60 NAOKFM=F Big=F
 Integral buffers will be    131072 words long.
 Raffenetti 2 integral format.
 Two-electron integral symmetry is turned on.
 Leave Link  301 at Thu Mar 14 11:37:09 2024, MaxMem= 32212254720 cpu:               0.8 elap:               0.0
 (Enter /home/<user>/g16/l302.exe)
 NPDir=0 NMtPBC=     1 NCelOv=     1 NCel=       1 NClECP=     1 NCelD=      1
         NCelK=      1 NCelE2=     1 NClLst=     1 CellRange=     0.0.
 One-electron integrals computed using PRISM.
 One-electron integral symmetry used in STVInt
 NBasis=   549 RedAO= T EigKep=  2.65D-04  NBF=   549
 NBsUse=   549 1.00D-06 EigRej= -1.00D+00 NBFU=   549
 Precomputing XC quadrature grid using
 IXCGrd= 4 IRadAn=           5 IRanWt=          -1 IRanGd=           0 AccXCQ= 0.00D+00.
 Generated NRdTot=       0 NPtTot=           0 NUsed=           0 NTot=          32
 NSgBfM=   512   512   512   512   512 MxSgAt=    58 MxSgA2=    58.
 Leave Link  302 at Thu Mar 14 11:37:10 2024, MaxMem= 32212254720 cpu:              13.0 elap:               0.4
 (Enter /home/<user>/g16/l303.exe)
 DipDrv:  MaxL=1.
 Leave Link  303 at Thu Mar 14 11:37:10 2024, MaxMem= 32212254720 cpu:               1.4 elap:               0.1
 (Enter /home/<user>/g16/l401.exe)
 Initial guess from the checkpoint file:  "FBTP_H0opt.chk"
 B after Tr=     0.000000   -0.000000   -0.000000
         Rot=    1.000000    0.000129   -0.000002    0.000007 Ang=   0.01 deg.
 Guess basis will be translated and rotated to current coordinates.
 JPrj=2 DoOrth=T DoCkMO=T.
 Initial guess <Sx>= 0.0000 <Sy>= 0.0000 <Sz>= 0.5000 <S**2>= 0.7625 S= 0.5062
 Leave Link  401 at Thu Mar 14 11:37:10 2024, MaxMem= 32212254720 cpu:              17.4 elap:               0.6
 (Enter /home/<user>/g16/l502.exe)
 Integral symmetry usage will be decided dynamically.
 UHF open shell SCF:
 Using DIIS extrapolation, IDIIS=  1040.
 NGot= 32212254720 LenX= 32211628124 LenY= 32211326174
 Requested convergence on RMS density matrix=1.00D-08 within 128 cycles.
 Requested convergence on MAX density matrix=1.00D-06.
 Requested convergence on             energy=1.00D-06.
 No special actions if energy rises.
 Fock matrices will be formed incrementally for  20 cycles.

 Cycle   1  Pass 1  IDiag  1:
 FoFJK:  IHMeth= 1 ICntrl=       0 DoSepK=F KAlg= 0 I1Cent=           0 FoldK=F
 IRaf= 550000000 NMat=       1 IRICut=       1 DoRegI=T DoRafI=F ISym2E= 0 IDoP0=0 IntGTp=1.
 FoFCou: FMM=F IPFlag=           0 FMFlag=      100000 FMFlg1=           0
         NFxFlg=           0 DoJE=F BraDBF=F KetDBF=F FulRan=T
         wScrn=  0.000000 ICntrl=         0 IOpCl=  1 I1Cent=           0 NGrid=           0
         NMat0=    1 NMatS0=      1 NMatT0=    0 NMatD0=    1 NMtDS0=    0 NMtDT0=    0
 Symmetry not used in FoFCou.
 E= -1682.36788131446    
 DIIS: error= 1.36D-04 at cycle   1 NSaved=   1.
 NSaved= 1 IEnMin= 1 EnMin= -1682.36788131446     IErMin= 1 ErrMin= 1.36D-04
 ErrMax= 1.36D-04  0.00D+00 EMaxC= 1.00D-01 BMatC= 3.15D-05 BMatP= 3.15D-05
 IDIUse=3 WtCom= 9.99D-01 WtEn= 1.36D-03
 Coeff-Com:  0.100D+01
 Coeff-En:   0.100D+01
 Coeff:      0.100D+01
 Gap=     1.962 Goal=   None    Shift=    0.000
 Gap=     1.950 Goal=   None    Shift=    0.000
 RMSDP=9.62D-06 MaxDP=5.92D-04              OVMax= 1.69D-03

 Cycle   2  Pass 1  IDiag  1:
 RMSU=  9.62D-06    CP:  1.00D+00
 E= -1682.36789775631     Delta-E=       -0.000016441850 Rises=F Damp=F
 DIIS: error= 1.44D-05 at cycle   2 NSaved=   2.
 NSaved= 2 IEnMin= 2 EnMin= -1682.36789775631     IErMin= 2 ErrMin= 1.44D-05
 ErrMax= 1.44D-05  0.00D+00 EMaxC= 1.00D-01 BMatC= 4.38D-07 BMatP= 3.15D-05
 IDIUse=1 WtCom= 1.00D+00 WtEn= 0.00D+00
 Coeff-Com: -0.738D-01 0.107D+01
 Coeff:     -0.738D-01 0.107D+01
 Gap=     0.094 Goal=   None    Shift=    0.000
 Gap=     0.029 Goal=   None    Shift=    0.000
 RMSDP=1.97D-06 MaxDP=9.59D-05 DE=-1.64D-05 OVMax= 3.42D-04

 Cycle   3  Pass 1  IDiag  1:
 RMSU=  1.72D-06    CP:  1.00D+00  1.10D+00
 E= -1682.36789778211     Delta-E=       -0.000000025804 Rises=F Damp=F
 DIIS: error= 1.49D-05 at cycle   3 NSaved=   3.
 NSaved= 3 IEnMin= 3 EnMin= -1682.36789778211     IErMin= 2 ErrMin= 1.44D-05
 ErrMax= 1.49D-05  0.00D+00 EMaxC= 1.00D-01 BMatC= 7.56D-07 BMatP= 4.38D-07
 IDIUse=1 WtCom= 1.00D+00 WtEn= 0.00D+00
 Coeff-Com: -0.543D-01 0.687D+00 0.367D+00
 Coeff:     -0.543D-01 0.687D+00 0.367D+00
 Gap=     0.094 Goal=   None    Shift=    0.000
 Gap=     0.029 Goal=   None    Shift=    0.000
 RMSDP=1.24D-06 MaxDP=1.05D-04 DE=-2.58D-08 OVMax= 2.52D-04

 Cycle   4  Pass 1  IDiag  1:
 RMSU=  7.90D-07    CP:  1.00D+00  1.11D+00  4.48D-01
 E= -1682.36789795760     Delta-E=       -0.000000175487 Rises=F Damp=F
 DIIS: error= 6.29D-06 at cycle   4 NSaved=   4.
 NSaved= 4 IEnMin= 4 EnMin= -1682.36789795760     IErMin= 4 ErrMin= 6.29D-06
 ErrMax= 6.29D-06  0.00D+00 EMaxC= 1.00D-01 BMatC= 1.17D-07 BMatP= 4.38D-07
 IDIUse=1 WtCom= 1.00D+00 WtEn= 0.00D+00
 Coeff-Com: -0.239D-01 0.274D+00 0.271D+00 0.479D+00
 Coeff:     -0.239D-01 0.274D+00 0.271D+00 0.479D+00
 Gap=     0.094 Goal=   None    Shift=    0.000
 Gap=     0.029 Goal=   None    Shift=    0.000
 RMSDP=4.46D-07 MaxDP=3.36D-05 DE=-1.75D-07 OVMax= 6.93D-05

 Cycle   5  Pass 1  IDiag  1:
 RMSU=  3.16D-07    CP:  1.00D+00  1.12D+00  5.48D-01  6.68D-01
 E= -1682.36789798503     Delta-E=       -0.000000027424 Rises=F Damp=F
 DIIS: error= 1.70D-06 at cycle   5 NSaved=   5.
 NSaved= 5 IEnMin= 5 EnMin= -1682.36789798503     IErMin= 5 ErrMin= 1.70D-06
 ErrMax= 1.70D-06  0.00D+00 EMaxC= 1.00D-01 BMatC= 1.52D-08 BMatP= 1.17D-07
 IDIUse=1 WtCom= 1.00D+00 WtEn= 0.00D+00
 Coeff-Com: -0.736D-02 0.751D-01 0.123D+00 0.318D+00 0.491D+00
 Coeff:     -0.736D-02 0.751D-01 0.123D+00 0.318D+00 0.491D+00
 Gap=     0.094 Goal=   None    Shift=    0.000
 Gap=     0.029 Goal=   None    Shift=    0.000
 RMSDP=1.66D-07 MaxDP=1.12D-05 DE=-2.74D-08 OVMax= 2.66D-05

 Cycle   6  Pass 1  IDiag  1:
 RMSU=  1.24D-07    CP:  1.00D+00  1.12D+00  5.61D-01  7.49D-01  7.29D-01
 E= -1682.36789798876     Delta-E=       -0.000000003734 Rises=F Damp=F
 DIIS: error= 8.35D-07 at cycle   6 NSaved=   6.
 NSaved= 6 IEnMin= 6 EnMin= -1682.36789798876     IErMin= 6 ErrMin= 8.35D-07
 ErrMax= 8.35D-07  0.00D+00 EMaxC= 1.00D-01 BMatC= 2.08D-09 BMatP= 1.52D-08
 IDIUse=1 WtCom= 1.00D+00 WtEn= 0.00D+00
 Coeff-Com: -0.741D-03 0.222D-02 0.347D-01 0.126D+00 0.311D+00 0.527D+00
 Coeff:     -0.741D-03 0.222D-02 0.347D-01 0.126D+00 0.311D+00 0.527D+00
 Gap=     0.094 Goal=   None    Shift=    0.000
 Gap=     0.029 Goal=   None    Shift=    0.000
 RMSDP=7.95D-08 MaxDP=4.53D-06 DE=-3.73D-09 OVMax= 3.30D-05

 Cycle   7  Pass 1  IDiag  1:
 RMSU=  5.59D-08    CP:  1.00D+00  1.12D+00  5.66D-01  7.83D-01  8.52D-01
                    CP:  7.75D-01
 E= -1682.36789798917     Delta-E=       -0.000000000406 Rises=F Damp=F
 DIIS: error= 4.10D-07 at cycle   7 NSaved=   7.
 NSaved= 7 IEnMin= 7 EnMin= -1682.36789798917     IErMin= 7 ErrMin= 4.10D-07
 ErrMax= 4.10D-07  0.00D+00 EMaxC= 1.00D-01 BMatC= 4.47D-10 BMatP= 2.08D-09
 IDIUse=1 WtCom= 1.00D+00 WtEn= 0.00D+00
 Coeff-Com:  0.856D-03-0.126D-01 0.604D-03 0.263D-01 0.117D+00 0.354D+00
 Coeff-Com:  0.515D+00
 Coeff:      0.856D-03-0.126D-01 0.604D-03 0.263D-01 0.117D+00 0.354D+00
 Coeff:      0.515D+00
 Gap=     0.094 Goal=   None    Shift=    0.000
 Gap=     0.029 Goal=   None    Shift=    0.000
 RMSDP=3.87D-08 MaxDP=2.59D-06 DE=-4.06D-10 OVMax= 1.45D-05

 Cycle   8  Pass 1  IDiag  1:
 RMSU=  2.97D-08    CP:  1.00D+00  1.12D+00  5.69D-01  7.96D-01  8.81D-01
                    CP:  9.11D-01  8.22D-01
 E= -1682.36789798935     Delta-E=       -0.000000000184 Rises=F Damp=F
 DIIS: error= 1.95D-07 at cycle   8 NSaved=   8.
 NSaved= 8 IEnMin= 8 EnMin= -1682.36789798935     IErMin= 8 ErrMin= 1.95D-07
 ErrMax= 1.95D-07  0.00D+00 EMaxC= 1.00D-01 BMatC= 8.10D-11 BMatP= 4.47D-10
 IDIUse=1 WtCom= 1.00D+00 WtEn= 0.00D+00
 Coeff-Com:  0.650D-03-0.827D-02-0.511D-02-0.283D-02 0.245D-01 0.138D+00
 Coeff-Com:  0.329D+00 0.524D+00
 Coeff:      0.650D-03-0.827D-02-0.511D-02-0.283D-02 0.245D-01 0.138D+00
 Coeff:      0.329D+00 0.524D+00
 Gap=     0.094 Goal=   None    Shift=    0.000
 Gap=     0.029 Goal=   None    Shift=    0.000
 RMSDP=2.20D-08 MaxDP=1.27D-06 DE=-1.84D-10 OVMax= 9.81D-06

 Cycle   9  Pass 1  IDiag  1:
 RMSU=  1.35D-08    CP:  1.00D+00  1.12D+00  5.71D-01  8.03D-01  8.99D-01
                    CP:  9.58D-01  1.04D+00  7.83D-01
 E= -1682.36789798935     Delta-E=       -0.000000000005 Rises=F Damp=F
 DIIS: error= 9.20D-08 at cycle   9 NSaved=   9.
 NSaved= 9 IEnMin= 9 EnMin= -1682.36789798935     IErMin= 9 ErrMin= 9.20D-08
 ErrMax= 9.20D-08  0.00D+00 EMaxC= 1.00D-01 BMatC= 3.00D-11 BMatP= 8.10D-11
 IDIUse=1 WtCom= 1.00D+00 WtEn= 0.00D+00
 Coeff-Com:  0.180D-03-0.169D-02-0.387D-02-0.108D-01-0.239D-01-0.276D-01
 Coeff-Com:  0.490D-01 0.406D+00 0.612D+00
 Coeff:      0.180D-03-0.169D-02-0.387D-02-0.108D-01-0.239D-01-0.276D-01
 Coeff:      0.490D-01 0.406D+00 0.612D+00
 Gap=     0.094 Goal=   None    Shift=    0.000
 Gap=     0.029 Goal=   None    Shift=    0.000
 RMSDP=1.59D-08 MaxDP=8.86D-07 DE=-4.55D-12 OVMax= 9.35D-06

 Cycle  10  Pass 1  IDiag  1:
 RMSU=  5.95D-09    CP:  1.00D+00  1.12D+00  5.71D-01  8.10D-01  9.20D-01
                    CP:  1.00D+00  1.13D+00  1.06D+00  7.26D-01
 E= -1682.36789798940     Delta-E=       -0.000000000050 Rises=F Damp=F
 DIIS: error= 5.67D-08 at cycle  10 NSaved=  10.
 NSaved=10 IEnMin=10 EnMin= -1682.36789798940     IErMin=10 ErrMin= 5.67D-08
 ErrMax= 5.67D-08  0.00D+00 EMaxC= 1.00D-01 BMatC= 7.77D-12 BMatP= 3.00D-11
 IDIUse=1 WtCom= 1.00D+00 WtEn= 0.00D+00
 Coeff-Com: -0.645D-04 0.130D-02-0.125D-02-0.719D-02-0.251D-01-0.623D-01
 Coeff-Com: -0.668D-01 0.146D+00 0.429D+00 0.587D+00
 Coeff:     -0.645D-04 0.130D-02-0.125D-02-0.719D-02-0.251D-01-0.623D-01
 Coeff:     -0.668D-01 0.146D+00 0.429D+00 0.587D+00
 Gap=     0.094 Goal=   None    Shift=    0.000
 Gap=     0.029 Goal=   None    Shift=    0.000
 RMSDP=7.37D-09 MaxDP=3.76D-07 DE=-5.00D-11 OVMax= 3.31D-06

 SCF Done:  E(UB3LYP) =  -1682.36789799     A.U. after   10 cycles
            NFock= 10  Conv=0.74D-08     -V/T= 2.0082
 <Sx>= 0.0000 <Sy>= 0.0000 <Sz>= 0.5000 <S**2>= 0.7625 S= 0.5062
 <L.S>= 0.000000000000E+00
 KE= 1.668651416642D+03 PE=-1.005483758824D+04 EE= 3.624240315595D+03
 Annihilation of the first spin contaminant:
 S**2 before annihilation     0.7625,   after     0.7501
 Leave Link  502 at Thu Mar 14 11:37:40 2024, MaxMem= 32212254720 cpu:             881.2 elap:              29.4
 (Enter /home/<user>/g16/l701.exe)
 ... and contract with generalized density number  0.
 Compute integral first derivatives.
 Leave Link  701 at Thu Mar 14 11:37:40 2024, MaxMem= 32212254720 cpu:               5.0 elap:               0.2
 (Enter /home/<user>/g16/l702.exe)
 L702 exits ... SP integral derivatives will be done elsewhere.
 Leave Link  702 at Thu Mar 14 11:37:40 2024, MaxMem= 32212254720 cpu:               0.7 elap:               0.0
 (Enter /home/<user>/g16/l703.exe)
 Integral derivatives from FoFJK, PRISM(SPDF).
 Compute integral first derivatives, UseDBF=F ICtDFT=           0.
 Calling FoFJK, ICntrl=      2127 FMM=F ISym2X=0 I1Cent= 0 IOpClX= 1 NMat=1 NMatS=1 NMatT=0.
 FoFJK:  IHMeth= 1 ICntrl=    2127 DoSepK=F KAlg= 0 I1Cent=           0 FoldK=F
 IRaf=         0 NMat=       1 IRICut=       1 DoRegI=T DoRafI=F ISym2E= 0 IDoP0=0 IntGTp=1.
 FoFCou: FMM=F IPFlag=           0 FMFlag=      100000 FMFlg1=         800
         NFxFlg=           0 DoJE=F BraDBF=F KetDBF=F FulRan=T
         wScrn=  0.000000 ICntrl=      2127 IOpCl=  1 I1Cent=           0 NGrid=           0
         NMat0=    1 NMatS0=      1 NMatT0=    0 NMatD0=    1 NMtDS0=    0 NMtDT0=    0
 Symmetry not used in FoFCou.
 Leave Link  703 at Thu Mar 14 11:37:47 2024, MaxMem= 32212254720 cpu:             196.2 elap:               6.5
 (Enter /home/<user>/g16/l716.exe)
 Dipole        =-8.47795309D-01-1.86319400D-01-6.12311078D-02
 ***** Axes restored to original set *****
 -------------------------------------------------------------------
 Center     Atomic                   Forces (Hartrees/Bohr)
 Number     Number              X              Y              Z
 -------------------------------------------------------------------
      1        6          -0.000087312    0.000138861   -0.000028290
      2        6          -0.000007830   -0.000048985    0.000002870
      3        6          -0.000096380   -0.000068511    0.000002863
      4        6           0.000118412   -0.000178297    0.000054446
      5        6          -0.000273698   -0.000051302    0.000004078
      6        6           0.000128787    0.000138640   -0.000011352
      7        1           0.000005063   -0.000029981   -0.000000594
      8        1           0.000045412    0.000044346   -0.000020088
      9        1          -0.000023974   -0.000034659   -0.000012303
     10        6          -0.000006075    0.000089080    0.000002753
     11        6          -0.000108738   -0.000148892    0.000035014
     12        6           0.000058447   -0.000008873    0.000002149
     13        6          -0.000006485   -0.000036609    0.000008776
     14        6           0.000061682    0.000085899   -0.000023161
     15        6          -0.000122130    0.000059621   -0.000019058
     16        6           0.000300684    0.000067350   -0.000007808
     17        1          -0.000020353    0.000013393   -0.000002531
     18        1           0.000001238    0.000003200    0.000000190
     19        1          -0.000007003   -0.000017885    0.000003999
     20        1          -0.000000543   -0.000011870    0.000002307
     21        6           0.000007989    0.000021499    0.000003399
     22        1           0.000000381    0.000000027   -0.000001173
     23        1          -0.000004615   -0.000001008   -0.000002698
     24        1          -0.000000954   -0.000008801   -0.000001059
     25        6           0.000003129    0.000006510   -0.000032171
     26        1          -0.000003955   -0.000005729    0.000007058
     27        1           0.000002646   -0.000002800    0.000003740
     28        1          -0.000003102   -0.000004802    0.000009336
     29        6           0.000098840    0.000021938    0.000025334
     30        6           0.000038946    0.000079659   -0.000019588
     31        6           0.000046399   -0.000109917    0.000008379
     32        6          -0.000036152    0.000128271    0.000033671
     33        6          -0.000080537   -0.000081262    0.000003388
     34        1          -0.000031156    0.000038519   -0.000000887
     35        6          -0.000040214   -0.000013587    0.000006420
     36        1           0.000051221    0.000030824   -0.000013419
     37        7          -0.000091011   -0.000042182   -0.000000218
     38        7           0.000089168   -0.000075993   -0.000030862
     39       16          -0.000000060   -0.000010644    0.000007929
     40        6           0.000019630   -0.000029937    0.000015895
     41        6           0.000045650    0.000077160   -0.000016902
     42        6          -0.000000638   -0.000055093    0.000009479
     43        6          -0.000058403    0.000084928    0.000015549
     44        1          -0.000008165   -0.000013998   -0.000000534
     45        6          -0.000012946   -0.000017383   -0.000021060
     46        1          -0.000027543    0.000029473   -0.000018331
     47        6           0.000004307   -0.000053415    0.000008632
     48        1           0.000016501   -0.000026729   -0.000005514
     49        1           0.000023407    0.000019527    0.000007016
     50        6          -0.000042975   -0.000028287   -0.000054440
     51        1           0.000001497    0.000011415    0.000024068
     52        1          -0.000002822   -0.000003572   -0.000002401
     53        6           0.000090280   -0.000012624    0.000054616
     54        1           0.000006505   -0.000007714   -0.000021010
     55        1          -0.000002971    0.000012580    0.000003954
     56        7          -0.000041994    0.000115570    0.000012510
     57        1          -0.000005024   -0.000029353    0.000015378
     58        1          -0.000010465   -0.000047596   -0.000027744
 -------------------------------------------------------------------
 Cartesian Forces:  Max     0.000300684 RMS     0.000056671
 Leave Link  716 at Thu Mar 14 11:37:47 2024, MaxMem= 32212254720 cpu:               0.7 elap:               0.0
 (Enter /home/<user>/g16/l103.exe)

 GradGradGradGradGradGradGradGradGradGradGradGradGradGradGradGradGradGrad
 Berny optimization.
 Using GEDIIS/GDIIS optimizer.
 FormGI is forming the generalized inverse of G from B-inverse, IUseBI=4.
 GSVD:  received Info=                   1 from GESDD.
 Internal  Forces:  Max     0.000193400 RMS     0.000028766
 Search for a local minimum.
 Step number   8 out of a maximum of  346
 All quantities printed in internal units (Hartrees-Bohrs-Radians)
 RMS Force = .28766D-04 SwitMx=.10000D-02 MixMth= 2
 Mixed Optimization -- En-DIIS/RFO-DIIS
 Swapping is turned off.
 Update second derivatives using D2CorX and points    2    3    4    5    6
                                                      7    8
 DE= -2.04D-06 DEPred=-1.73D-06 R= 1.18D+00
 TightC=F SS=  1.41D+00  RLast= 2.36D-02 DXNew= 1.0781D+00 7.0695D-02
 Trust test= 1.18D+00 RLast= 2.36D-02 DXMaxT set to 6.41D-01
 ITU=  1  1  1  1  0  1  1  0
     Eigenvalues ---    0.00166   0.00230   0.00230   0.00258   0.00660
     Eigenvalues ---    0.00757   0.00980   0.01080   0.01250   0.01452
     Eigenvalues ---    0.01476   0.01607   0.01624   0.01639   0.01664
     Eigenvalues ---    0.01682   0.01713   0.01738   0.01812   0.01887
     Eigenvalues ---    0.01913   0.02001   0.02040   0.02043   0.02072
     Eigenvalues ---    0.02081   0.02087   0.02094   0.02095   0.02105
     Eigenvalues ---    0.02112   0.02119   0.02126   0.02130   0.02134
     Eigenvalues ---    0.02143   0.02145   0.02149   0.02161   0.02161
     Eigenvalues ---    0.02175   0.02246   0.02293   0.02597   0.04064
     Eigenvalues ---    0.04122   0.04343   0.04353   0.05392   0.05397
     Eigenvalues ---    0.05451   0.05535   0.05539   0.05594   0.06038
     Eigenvalues ---    0.08136   0.08866   0.09227   0.11558   0.12527
     Eigenvalues ---    0.12796   0.15620   0.15926   0.15971   0.15989
     Eigenvalues ---    0.15991   0.15999   0.16000   0.16000   0.16000
     Eigenvalues ---    0.16000   0.16000   0.16000   0.16000   0.16000
     Eigenvalues ---    0.16000   0.16005   0.16011   0.16018   0.16028
     Eigenvalues ---    0.16044   0.16631   0.19259   0.20496   0.21895
     Eigenvalues ---    0.21981   0.22009   0.22087   0.22472   0.22500
     Eigenvalues ---    0.22865   0.22968   0.23770   0.24206   0.24555
     Eigenvalues ---    0.24770   0.24943   0.24951   0.24991   0.24996
     Eigenvalues ---    0.25019   0.25068   0.28059   0.28099   0.28296
     Eigenvalues ---    0.28644   0.28975   0.29364   0.31210   0.32812
     Eigenvalues ---    0.33114   0.33747   0.33797   0.34017   0.34091
     Eigenvalues ---    0.34100   0.34104   0.34117   0.34127   0.34280
     Eigenvalues ---    0.34294   0.34774   0.35024   0.35038   0.35053
     Eigenvalues ---    0.35088   0.35153   0.35167   0.35184   0.35190
     Eigenvalues ---    0.35215   0.35235   0.35257   0.35345   0.35491
     Eigenvalues ---    0.36050   0.36205   0.37495   0.37793   0.38537
     Eigenvalues ---    0.40731   0.41126   0.41252   0.41592   0.41993
     Eigenvalues ---    0.42217   0.42440   0.42689   0.43404   0.44297
     Eigenvalues ---    0.44413   0.44492   0.44688   0.45086   0.45245
     Eigenvalues ---    0.45583   0.45814   0.46087   0.46191   0.46454
     Eigenvalues ---    0.46986   0.47284   0.47448   0.48328   0.50020
     Eigenvalues ---    0.54390   0.55222   0.60408
 En-DIIS/RFO-DIIS/Sim-DIIS IScMMF=       -3 using points:     8    7    6    5    4    3    2
 RFO step:  Lambda=-2.23805895D-06.
 NNeg= 0 NGDIIS= 7 SimSw=  2.50D-01 Rises=F DC= -2.04D-06 SmlDif=  1.00D-05
 NRisDI= 0 DoIntr=F SqrtH=F CThrHd= 10.0 CDAdj=  3.0
 RMS Error=  0.1460590319D-02 NUsed= 7 OKEnD=F EnDIS=F
 InvSVX:  RCond= 7.64D-07 Info=           0 Equed=N FErr=  7.92D-13 BErr=  4.88D-17
 DidBck=F Rises=F RFO-DIIS coefs:    2.10859   -0.90627   -0.32625    0.08515    0.00995
                  RFO-DIIS coefs:    0.03084   -0.00201
 Iteration  1 RMS(Cart)=  0.00281018 RMS(Int)=  0.00000411
 Iteration  2 RMS(Cart)=  0.00000668 RMS(Int)=  0.00000037
 Iteration  3 RMS(Cart)=  0.00000000 RMS(Int)=  0.00000037
 ITry= 1 IFail=0 DXMaxC= 1.92D-02 DCOld= 1.00D+10 DXMaxT= 6.41D-01 DXLimC= 3.00D+00 Rises=F
 Variable       Old X    -DE/DX   Delta X   Delta X   Delta X     New X
                                 (Linear)    (Quad)   (Total)
    R1        2.69927   0.00010  -0.00008   0.00020   0.00012   2.69939
    R2        2.60873  -0.00007   0.00016  -0.00022  -0.00007   2.60866
    R3        2.04289  -0.00002  -0.00004  -0.00001  -0.00005   2.04284
    R4        2.69885   0.00005  -0.00024   0.00026   0.00003   2.69888
    R5        2.73949   0.00004  -0.00003   0.00020   0.00017   2.73966
    R6        2.59585  -0.00003   0.00021  -0.00022  -0.00001   2.59584
    R7        2.05028  -0.00002  -0.00000  -0.00007  -0.00007   2.05021
    R8        2.69185   0.00012   0.00009   0.00013   0.00022   2.69208
    R9        2.88742  -0.00001   0.00005  -0.00006  -0.00002   2.88740
   R10        2.65945   0.00011   0.00002   0.00016   0.00018   2.65963
   R11        2.72693  -0.00019  -0.00002  -0.00040  -0.00041   2.72651
   R12        2.05177  -0.00002  -0.00007   0.00002  -0.00005   2.05172
   R13        2.88486   0.00001   0.00008  -0.00003   0.00005   2.88490
   R14        2.92307  -0.00001  -0.00021   0.00015  -0.00006   2.92301
   R15        2.92188   0.00001  -0.00011   0.00013   0.00001   2.92189
   R16        2.62250  -0.00004   0.00006  -0.00013  -0.00006   2.62244
   R17        2.68159   0.00010   0.00004   0.00015   0.00018   2.68178
   R18        2.64706   0.00001   0.00004  -0.00002   0.00003   2.64708
   R19        2.05290  -0.00001  -0.00005   0.00002  -0.00003   2.05287
   R20        2.65792   0.00005  -0.00000   0.00006   0.00006   2.65797
   R21        2.05249  -0.00000   0.00001  -0.00001  -0.00001   2.05249
   R22        2.62373  -0.00006   0.00010  -0.00017  -0.00007   2.62365
   R23        2.05131  -0.00001  -0.00003   0.00001  -0.00002   2.05129
   R24        2.65700   0.00010  -0.00001   0.00017   0.00016   2.65716
   R25        2.05244  -0.00001  -0.00006   0.00002  -0.00004   2.05240
   R26        2.06928  -0.00000  -0.00002   0.00002   0.00000   2.06928
   R27        2.07033  -0.00000  -0.00001   0.00001  -0.00001   2.07032
   R28        2.06807  -0.00001  -0.00003  -0.00000  -0.00003   2.06804
   R29        2.07045  -0.00000  -0.00000   0.00001   0.00001   2.07046
   R30        2.06925   0.00000  -0.00001   0.00002   0.00001   2.06925
   R31        2.06820  -0.00001  -0.00002  -0.00001  -0.00003   2.06817
   R32        2.73833   0.00000  -0.00012   0.00006  -0.00006   2.73827
   R33        2.65986   0.00006  -0.00027   0.00028   0.00001   2.65987
   R34        2.74971  -0.00005  -0.00052   0.00032  -0.00020   2.74952
   R35        2.52162  -0.00004   0.00009  -0.00014  -0.00005   2.52157
   R36        2.63751  -0.00003   0.00023  -0.00018   0.00005   2.63755
   R37        2.04818  -0.00001   0.00006  -0.00009  -0.00003   2.04815
   R38        2.73410   0.00002  -0.00001   0.00005   0.00004   2.73414
   R39        2.52270  -0.00005   0.00007  -0.00014  -0.00007   2.52263
   R40        2.65503   0.00004  -0.00006   0.00008   0.00002   2.65505
   R41        2.04825  -0.00001  -0.00004   0.00002  -0.00001   2.04824
   R42        2.75044  -0.00001   0.00002  -0.00005  -0.00003   2.75041
   R43        3.10133   0.00004  -0.00009   0.00007  -0.00002   3.10131
   R44        3.09574   0.00004   0.00003   0.00002   0.00004   3.09578
   R45        2.67919   0.00005   0.00003   0.00011   0.00014   2.67933
   R46        2.68172  -0.00000  -0.00010   0.00005  -0.00005   2.68167
   R47        2.61839  -0.00004   0.00001  -0.00012  -0.00011   2.61827
   R48        2.04421  -0.00001  -0.00001  -0.00002  -0.00003   2.04418
   R49        2.61393   0.00000   0.00013  -0.00009   0.00004   2.61396
   R50        2.05032  -0.00001  -0.00004   0.00002  -0.00003   2.05029
   R51        2.65842   0.00005   0.00015   0.00003   0.00019   2.65860
   R52        2.05365  -0.00001  -0.00004   0.00003  -0.00002   2.05363
   R53        2.66242  -0.00000  -0.00001  -0.00001  -0.00003   2.66239
   R54        2.05355  -0.00001  -0.00004   0.00001  -0.00002   2.05353
   R55        2.84119  -0.00001  -0.00008  -0.00007  -0.00015   2.84104
   R56        2.06875  -0.00002  -0.00010  -0.00001  -0.00012   2.06863
   R57        2.07401  -0.00000  -0.00003   0.00003  -0.00001   2.07400
   R58        2.92866   0.00006   0.00047   0.00013   0.00060   2.92926
   R59        2.08742  -0.00001  -0.00014   0.00001  -0.00013   2.08729
   R60        2.07194  -0.00000  -0.00007   0.00000  -0.00007   2.07187
   R61        2.75523  -0.00007  -0.00019  -0.00017  -0.00036   2.75487
   R62        1.92471  -0.00003  -0.00017  -0.00002  -0.00019   1.92452
   R63        1.92275  -0.00003  -0.00014  -0.00003  -0.00018   1.92257
    A1        2.12069  -0.00003  -0.00018   0.00004  -0.00014   2.12056
    A2        2.07747  -0.00001   0.00017  -0.00019  -0.00002   2.07745
    A3        2.08492   0.00003  -0.00000   0.00015   0.00015   2.08507
    A4        2.06314   0.00005   0.00047  -0.00020   0.00027   2.06341
    A5        2.12226  -0.00003  -0.00004  -0.00009  -0.00013   2.12213
    A6        2.09763  -0.00002  -0.00043   0.00030  -0.00013   2.09749
    A7        2.10189  -0.00001  -0.00035   0.00024  -0.00011   2.10177
    A8        2.09160  -0.00006  -0.00011  -0.00022  -0.00033   2.09127
    A9        2.08842   0.00007   0.00046  -0.00002   0.00043   2.08885
   A10        2.10001  -0.00004   0.00006  -0.00016  -0.00010   2.09991
   A11        2.25125   0.00008   0.00001   0.00025   0.00026   2.25151
   A12        1.93189  -0.00004  -0.00007  -0.00009  -0.00016   1.93173
   A13        2.09794   0.00004   0.00011   0.00004   0.00015   2.09808
   A14        1.89973   0.00003   0.00001   0.00009   0.00010   1.89983
   A15        2.28551  -0.00007  -0.00012  -0.00013  -0.00025   2.28526
   A16        2.08254  -0.00001  -0.00012   0.00005  -0.00007   2.08247
   A17        2.09238   0.00004  -0.00009   0.00024   0.00015   2.09253
   A18        2.10825  -0.00003   0.00020  -0.00028  -0.00008   2.10817
   A19        1.75874   0.00002   0.00008   0.00004   0.00012   1.75886
   A20        1.94379  -0.00001  -0.00003  -0.00002  -0.00005   1.94373
   A21        1.94645  -0.00001  -0.00000  -0.00001  -0.00001   1.94645
   A22        1.94288  -0.00000  -0.00002   0.00001  -0.00002   1.94286
   A23        1.94509  -0.00001  -0.00005  -0.00001  -0.00006   1.94503
   A24        1.92222   0.00001   0.00003  -0.00001   0.00002   1.92224
   A25        2.25008   0.00004   0.00009   0.00008   0.00018   2.25026
   A26        1.94093  -0.00004  -0.00010  -0.00007  -0.00017   1.94076
   A27        2.09218  -0.00001   0.00001  -0.00002  -0.00001   2.09217
   A28        2.07437  -0.00000  -0.00000  -0.00003  -0.00003   2.07434
   A29        2.11552   0.00003   0.00003   0.00010   0.00014   2.11566
   A30        2.09330  -0.00002  -0.00003  -0.00008  -0.00011   2.09319
   A31        2.11692   0.00003  -0.00003   0.00010   0.00008   2.11700
   A32        2.08438  -0.00001  -0.00000  -0.00003  -0.00003   2.08435
   A33        2.08188  -0.00002   0.00003  -0.00007  -0.00004   2.08184
   A34        2.10151   0.00000   0.00003  -0.00004  -0.00000   2.10151
   A35        2.08691  -0.00002   0.00004  -0.00011  -0.00007   2.08685
   A36        2.09476   0.00002  -0.00008   0.00015   0.00007   2.09483
   A37        2.06757  -0.00001  -0.00002  -0.00001  -0.00003   2.06754
   A38        2.10485   0.00001  -0.00009   0.00007  -0.00002   2.10483
   A39        2.11077   0.00000   0.00012  -0.00006   0.00005   2.11082
   A40        1.89337   0.00003   0.00008   0.00003   0.00011   1.89348
   A41        2.27599  -0.00002  -0.00009  -0.00001  -0.00010   2.27589
   A42        2.11382  -0.00001   0.00001  -0.00001  -0.00000   2.11382
   A43        1.92633  -0.00000  -0.00011   0.00008  -0.00004   1.92629
   A44        1.93081  -0.00000  -0.00002   0.00001  -0.00001   1.93080
   A45        1.94490   0.00001   0.00008   0.00000   0.00008   1.94498
   A46        1.88011   0.00000  -0.00001  -0.00003  -0.00004   1.88007
   A47        1.88880  -0.00000   0.00003  -0.00005  -0.00002   1.88879
   A48        1.89102  -0.00000   0.00003  -0.00002   0.00001   1.89103
   A49        1.93075  -0.00000  -0.00000   0.00002   0.00002   1.93077
   A50        1.92688  -0.00000   0.00000  -0.00001  -0.00001   1.92687
   A51        1.94531   0.00000   0.00007  -0.00002   0.00006   1.94537
   A52        1.87888  -0.00000  -0.00008  -0.00002  -0.00010   1.87878
   A53        1.89154   0.00000   0.00002   0.00003   0.00004   1.89158
   A54        1.88854  -0.00000  -0.00002   0.00000  -0.00002   1.88852
   A55        2.16878  -0.00006  -0.00031   0.00001  -0.00030   2.16847
   A56        2.11845  -0.00002  -0.00030   0.00022  -0.00009   2.11836
   A57        1.99595   0.00008   0.00061  -0.00022   0.00039   1.99634
   A58        2.11840  -0.00003  -0.00021   0.00007  -0.00015   2.11826
   A59        2.19187  -0.00001   0.00033  -0.00033   0.00000   2.19188
   A60        1.97191   0.00004  -0.00012   0.00025   0.00013   1.97204
   A61        2.16716  -0.00005  -0.00039   0.00016  -0.00023   2.16693
   A62        2.07294  -0.00003   0.00003  -0.00022  -0.00019   2.07275
   A63        2.04115   0.00007   0.00032   0.00007   0.00040   2.04155
   A64        2.12399  -0.00003  -0.00015   0.00000  -0.00015   2.12384
   A65        1.97319   0.00006  -0.00018   0.00035   0.00016   1.97336
   A66        2.18514  -0.00003   0.00034  -0.00034  -0.00000   2.18514
   A67        2.16234  -0.00005  -0.00028   0.00008  -0.00020   2.16213
   A68        2.04689   0.00008   0.00010   0.00033   0.00043   2.04732
   A69        2.07232  -0.00004   0.00016  -0.00040  -0.00024   2.07207
   A70        1.99819   0.00008   0.00044  -0.00009   0.00035   1.99854
   A71        2.16382  -0.00008  -0.00051   0.00022  -0.00028   2.16354
   A72        2.12117   0.00000   0.00006  -0.00013  -0.00006   2.12110
   A73        1.87323  -0.00007   0.00041  -0.00066  -0.00024   1.87298
   A74        1.87358  -0.00008   0.00043  -0.00070  -0.00027   1.87332
   A75        1.73281   0.00005  -0.00055   0.00076   0.00022   1.73303
   A76        2.13358  -0.00003  -0.00024   0.00018  -0.00006   2.13352
   A77        2.09790  -0.00002   0.00004  -0.00018  -0.00014   2.09776
   A78        2.05147   0.00005   0.00021  -0.00000   0.00021   2.05168
   A79        2.10762  -0.00003  -0.00012  -0.00002  -0.00014   2.10747
   A80        2.08899   0.00000   0.00001  -0.00002  -0.00000   2.08899
   A81        2.08630   0.00003   0.00011   0.00004   0.00014   2.08644
   A82        2.11371  -0.00003  -0.00014   0.00003  -0.00011   2.11360
   A83        2.09492  -0.00003  -0.00004  -0.00016  -0.00020   2.09472
   A84        2.07353   0.00006   0.00018   0.00014   0.00032   2.07385
   A85        2.12111  -0.00001   0.00002  -0.00003  -0.00001   2.12110
   A86        2.08004   0.00003   0.00001   0.00015   0.00016   2.08019
   A87        2.08197  -0.00002  -0.00003  -0.00012  -0.00015   2.08183
   A88        2.11544  -0.00001   0.00005  -0.00007  -0.00002   2.11542
   A89        2.08580   0.00003   0.00002   0.00014   0.00016   2.08596
   A90        2.08194  -0.00002  -0.00007  -0.00007  -0.00014   2.08180
   A91        2.05681   0.00003  -0.00002   0.00009   0.00008   2.05689
   A92        2.11816  -0.00002  -0.00013  -0.00006  -0.00019   2.11796
   A93        2.10770  -0.00001   0.00014  -0.00002   0.00012   2.10782
   A94        1.93171  -0.00000   0.00017  -0.00000   0.00017   1.93188
   A95        1.91794  -0.00000   0.00015  -0.00007   0.00007   1.91802
   A96        1.96488   0.00002   0.00010   0.00004   0.00013   1.96501
   A97        1.87289   0.00001  -0.00008   0.00009   0.00001   1.87290
   A98        1.87727  -0.00001   0.00002  -0.00006  -0.00004   1.87723
   A99        1.89628  -0.00001  -0.00037   0.00001  -0.00037   1.89592
   A100       1.89823   0.00000  -0.00009  -0.00003  -0.00012   1.89811
   A101       1.89961  -0.00000  -0.00000   0.00002   0.00002   1.89963
   A102       1.91186  -0.00001   0.00006  -0.00001   0.00005   1.91192
   A103       1.86136   0.00000   0.00007  -0.00001   0.00007   1.86142
   A104       2.00494   0.00000  -0.00022  -0.00003  -0.00025   2.00469
   A105       1.88503   0.00001   0.00019   0.00006   0.00025   1.88528
   A106       1.93207   0.00002   0.00076   0.00011   0.00087   1.93295
   A107       1.92919   0.00003   0.00058   0.00014   0.00072   1.92991
   A108       1.86281  -0.00000   0.00057   0.00014   0.00071   1.86352
    D1       -0.01109   0.00000  -0.00033   0.00029  -0.00003  -0.01113
    D2        3.11166   0.00001  -0.00027   0.00061   0.00034   3.11200
    D3       -3.13682   0.00001   0.00011   0.00001   0.00012  -3.13670
    D4       -0.01406   0.00001   0.00017   0.00032   0.00049  -0.01357
    D5        0.01597   0.00000   0.00041  -0.00021   0.00020   0.01617
    D6       -3.12141   0.00001   0.00039   0.00001   0.00040  -3.12101
    D7       -3.14156  -0.00000  -0.00003   0.00007   0.00005  -3.14151
    D8        0.00425   0.00000  -0.00004   0.00029   0.00025   0.00450
    D9       -0.00437  -0.00001  -0.00015  -0.00011  -0.00025  -0.00462
   D10       -3.09135  -0.00000  -0.00004   0.00004  -0.00000  -3.09135
   D11       -3.12741  -0.00001  -0.00021  -0.00041  -0.00062  -3.12802
   D12        0.06880  -0.00001  -0.00010  -0.00027  -0.00037   0.06843
   D13        0.41323   0.00000   0.00042   0.00027   0.00069   0.41392
   D14       -2.72275   0.00001   0.00013   0.00073   0.00086  -2.72189
   D15       -2.74757   0.00001   0.00049   0.00058   0.00108  -2.74649
   D16        0.39965   0.00001   0.00021   0.00104   0.00124   0.40089
   D17        0.01440   0.00001   0.00052  -0.00016   0.00036   0.01476
   D18       -3.11735   0.00001  -0.00006   0.00035   0.00029  -3.11707
   D19        3.10148   0.00000   0.00040  -0.00031   0.00009   3.10157
   D20       -0.03027   0.00000  -0.00018   0.00020   0.00002  -0.03026
   D21       -0.00952  -0.00000  -0.00044   0.00025  -0.00019  -0.00971
   D22        3.13637  -0.00000  -0.00036   0.00023  -0.00013   3.13624
   D23        3.12390  -0.00000   0.00004  -0.00017  -0.00013   3.12377
   D24       -0.01340  -0.00000   0.00012  -0.00019  -0.00007  -0.01347
   D25       -3.13672   0.00000   0.00047  -0.00033   0.00014  -3.13659
   D26        1.08431  -0.00000   0.00046  -0.00035   0.00011   1.08442
   D27       -1.07087  -0.00000   0.00045  -0.00032   0.00013  -1.07074
   D28        0.01394   0.00000  -0.00007   0.00014   0.00007   0.01401
   D29       -2.04820  -0.00000  -0.00007   0.00012   0.00005  -2.04816
   D30        2.07980  -0.00000  -0.00009   0.00015   0.00006   2.07986
   D31       -0.00572  -0.00001  -0.00003  -0.00007  -0.00009  -0.00582
   D32        3.13162  -0.00001  -0.00001  -0.00029  -0.00030   3.13132
   D33        3.13049  -0.00000  -0.00013  -0.00004  -0.00017   3.13032
   D34       -0.01536  -0.00001  -0.00011  -0.00026  -0.00037  -0.01573
   D35        0.00662   0.00000  -0.00012   0.00016   0.00004   0.00666
   D36       -3.13506   0.00000  -0.00002   0.00011   0.00008  -3.13497
   D37       -3.13005   0.00000  -0.00003   0.00013   0.00010  -3.12995
   D38        0.01145   0.00000   0.00007   0.00008   0.00015   0.01160
   D39        3.13305  -0.00000  -0.00001  -0.00003  -0.00004   3.13302
   D40       -0.00990  -0.00000  -0.00001  -0.00004  -0.00005  -0.00995
   D41       -1.08732  -0.00000  -0.00001  -0.00002  -0.00004  -1.08736
   D42        2.05292  -0.00000  -0.00001  -0.00004  -0.00005   2.05286
   D43        1.06621   0.00000  -0.00002  -0.00004  -0.00007   1.06614
   D44       -2.07674  -0.00000  -0.00003  -0.00005  -0.00008  -2.07682
   D45        3.06903   0.00001  -0.00002   0.00004   0.00002   3.06906
   D46       -1.13503   0.00000  -0.00011   0.00006  -0.00005  -1.13508
   D47        0.96991   0.00001  -0.00003   0.00004   0.00001   0.96993
   D48        1.12128  -0.00001  -0.00008  -0.00000  -0.00008   1.12120
   D49       -3.08278  -0.00001  -0.00018   0.00002  -0.00016  -3.08294
   D50       -0.97783  -0.00001  -0.00009   0.00000  -0.00009  -0.97793
   D51       -1.04524   0.00000  -0.00002   0.00001  -0.00001  -1.04525
   D52        1.03389  -0.00000  -0.00012   0.00003  -0.00008   1.03380
   D53        3.13883   0.00000  -0.00003   0.00002  -0.00002   3.13881
   D54        1.13684  -0.00000  -0.00005   0.00007   0.00002   1.13685
   D55       -3.06844  -0.00001  -0.00014   0.00004  -0.00010  -3.06854
   D56       -0.96901  -0.00001  -0.00012   0.00003  -0.00009  -0.96910
   D57        3.08741   0.00001   0.00001   0.00011   0.00012   3.08753
   D58       -1.11786   0.00000  -0.00008   0.00008   0.00000  -1.11786
   D59        0.98157   0.00000  -0.00005   0.00007   0.00001   0.98158
   D60       -1.03054   0.00001  -0.00003   0.00010   0.00007  -1.03047
   D61        1.04737  -0.00000  -0.00012   0.00008  -0.00004   1.04733
   D62       -3.13638  -0.00000  -0.00010   0.00006  -0.00003  -3.13641
   D63        3.13883   0.00000   0.00003  -0.00002   0.00002   3.13885
   D64       -0.00147   0.00000   0.00003  -0.00001   0.00002  -0.00145
   D65       -0.00130   0.00000   0.00003  -0.00000   0.00003  -0.00127
   D66        3.14158   0.00000   0.00003   0.00000   0.00004  -3.14156
   D67        0.00266  -0.00000   0.00008  -0.00007   0.00001   0.00267
   D68       -3.13886  -0.00000  -0.00001  -0.00002  -0.00003  -3.13889
   D69       -3.14015  -0.00000   0.00008  -0.00008  -0.00000  -3.14016
   D70        0.00152  -0.00000  -0.00001  -0.00003  -0.00004   0.00147
   D71        0.00050  -0.00000  -0.00001   0.00000  -0.00000   0.00050
   D72       -3.14056   0.00000  -0.00001   0.00002   0.00001  -3.14055
   D73        3.14082  -0.00000  -0.00000  -0.00000  -0.00001   3.14081
   D74       -0.00024   0.00000  -0.00001   0.00001   0.00000  -0.00024
   D75        0.00013  -0.00000  -0.00005   0.00003  -0.00002   0.00011
   D76        3.14149  -0.00000  -0.00005   0.00004  -0.00001   3.14148
   D77        3.14120  -0.00000  -0.00005   0.00002  -0.00003   3.14117
   D78       -0.00063  -0.00000  -0.00005   0.00002  -0.00002  -0.00066
   D79        0.00005   0.00000   0.00008  -0.00006   0.00001   0.00006
   D80        3.14077   0.00000  -0.00009   0.00008  -0.00001   3.14077
   D81       -3.14131  -0.00000   0.00007  -0.00007   0.00000  -3.14130
   D82       -0.00058   0.00000  -0.00009   0.00008  -0.00001  -0.00060
   D83        3.14082   0.00000  -0.00016   0.00013  -0.00003   3.14079
   D84       -0.00087   0.00000  -0.00005   0.00007   0.00002  -0.00084
   D85        0.00010   0.00000   0.00001  -0.00002  -0.00001   0.00009
   D86       -3.14159   0.00000   0.00012  -0.00008   0.00004  -3.14155
   D87       -3.11954   0.00000  -0.00057   0.00039  -0.00018  -3.11971
   D88        0.07366   0.00001  -0.00066   0.00068   0.00002   0.07369
   D89        0.01679  -0.00000  -0.00030  -0.00003  -0.00033   0.01646
   D90       -3.07319   0.00001  -0.00039   0.00025  -0.00013  -3.07333
   D91        3.11518  -0.00001   0.00041  -0.00045  -0.00004   3.11513
   D92        0.04240   0.00000   0.00100  -0.00061   0.00039   0.04279
   D93       -0.02132  -0.00000   0.00015  -0.00004   0.00011  -0.02121
   D94       -3.09410   0.00001   0.00074  -0.00020   0.00054  -3.09355
   D95        0.00374   0.00000  -0.00000   0.00027   0.00027   0.00401
   D96       -3.09561   0.00000   0.00001  -0.00009  -0.00008  -3.09569
   D97        3.09975  -0.00000   0.00009   0.00000   0.00009   3.09984
   D98        0.00039  -0.00001   0.00010  -0.00036  -0.00025   0.00014
   D99        3.09958  -0.00001   0.00018  -0.00036  -0.00018   3.09940
   D100       0.00585   0.00000   0.00010  -0.00009   0.00001   0.00586
   D101       0.00452   0.00001   0.00035  -0.00014   0.00021   0.00474
   D102      -3.07462   0.00002   0.00076  -0.00022   0.00054  -3.07408
   D103       3.07845  -0.00001  -0.00025   0.00001  -0.00024   3.07822
   D104      -0.00069   0.00000   0.00017  -0.00007   0.00010  -0.00060
   D105      -0.02024  -0.00000   0.00046  -0.00041   0.00004  -0.02020
   D106       3.12001  -0.00000   0.00033  -0.00028   0.00005   3.12007
   D107       3.07379   0.00000   0.00042   0.00001   0.00043   3.07423
   D108      -0.06914   0.00000   0.00030   0.00014   0.00044  -0.06870
   D109      -0.00643   0.00001  -0.00025   0.00061   0.00036  -0.00607
   D110      -3.10405   0.00001  -0.00022   0.00023   0.00001  -3.10404
   D111       0.01676  -0.00000  -0.00063   0.00035  -0.00028   0.01648
   D112      -3.12353  -0.00000  -0.00051   0.00022  -0.00029  -3.12382
   D113       3.09506  -0.00001  -0.00106   0.00046  -0.00059   3.09446
   D114      -0.04523  -0.00001  -0.00093   0.00033  -0.00060  -0.04584
   D115      -0.46267   0.00000   0.00003  -0.00002   0.00001  -0.46266
   D116       2.70255   0.00000  -0.00043   0.00035  -0.00008   2.70247
   D117       2.67750   0.00000  -0.00011   0.00013   0.00002   2.67751
   D118      -0.44047   0.00000  -0.00057   0.00050  -0.00007  -0.44054
   D119      -0.00862   0.00000  -0.00022   0.00040   0.00018  -0.00844
   D120       0.00883  -0.00001   0.00028  -0.00060  -0.00032   0.00851
   D121      -3.10606  -0.00000  -0.00007  -0.00007  -0.00014  -3.10619
   D122       0.00995  -0.00001  -0.00031   0.00005  -0.00026   0.00969
   D123       0.01251  -0.00000   0.00038  -0.00044  -0.00006   0.01245
   D124       3.12852  -0.00000   0.00013  -0.00031  -0.00018   3.12834
   D125       3.12328   0.00001   0.00034  -0.00004   0.00030   3.12358
   D126      -0.06729   0.00001   0.00018   0.00015   0.00033  -0.06696
   D127       0.00422   0.00001  -0.00009   0.00031   0.00022   0.00444
   D128       3.09684   0.00001  -0.00025   0.00050   0.00025   3.09708
   D129      -0.01587  -0.00000  -0.00029   0.00022  -0.00007  -0.01594
   D130       3.11362  -0.00001  -0.00047   0.00012  -0.00035   3.11326
   D131      -3.13192   0.00000  -0.00004   0.00009   0.00005  -3.13186
   D132      -0.00243  -0.00000  -0.00023  -0.00000  -0.00023  -0.00266
   D133      -0.01802  -0.00001  -0.00030   0.00004  -0.00026  -0.01828
   D134       3.12331  -0.00001  -0.00034  -0.00004  -0.00039   3.12292
   D135      -3.11122  -0.00000  -0.00013  -0.00014  -0.00027  -3.11149
   D136       0.03010  -0.00001  -0.00017  -0.00022  -0.00040   0.02971
   D137       0.00221   0.00000  -0.00010   0.00014   0.00004   0.00225
   D138      -3.10506   0.00000   0.00016  -0.00014   0.00002  -3.10504
   D139      -3.12727   0.00001   0.00009   0.00023   0.00032  -3.12695
   D140       0.04865   0.00000   0.00035  -0.00005   0.00030   0.04895
   D141       0.01469   0.00000   0.00039  -0.00027   0.00013   0.01482
   D142       3.12218   0.00000   0.00013   0.00001   0.00014   3.12232
   D143      -3.12663   0.00001   0.00044  -0.00018   0.00025  -3.12638
   D144      -0.01914   0.00001   0.00017   0.00010   0.00026  -0.01888
   D145      -2.65343  -0.00002  -0.00538  -0.00133  -0.00671  -2.66014
   D146      -0.58797  -0.00001  -0.00528  -0.00126  -0.00654  -0.59451
   D147       1.52819  -0.00002  -0.00559  -0.00127  -0.00686   1.52133
   D148       0.52348  -0.00002  -0.00511  -0.00162  -0.00673   0.51676
   D149       2.58894  -0.00001  -0.00501  -0.00155  -0.00656   2.58238
   D150      -1.57808  -0.00002  -0.00532  -0.00156  -0.00688  -1.58497
   D151      -1.01787  -0.00000   0.00112  -0.00080   0.00032  -1.01755
   D152       1.00361  -0.00000   0.00116  -0.00082   0.00034   1.00395
   D153       3.06104   0.00000   0.00142  -0.00074   0.00068   3.06172
   D154       3.13271  -0.00001   0.00083  -0.00078   0.00005   3.13275
   D155      -1.12899  -0.00000   0.00087  -0.00080   0.00007  -1.12892
   D156       0.92844  -0.00000   0.00113  -0.00072   0.00041   0.92885
   D157       1.11060  -0.00000   0.00111  -0.00086   0.00025   1.11084
   D158       3.13208  -0.00000   0.00115  -0.00088   0.00027   3.13235
   D159      -1.09367   0.00000   0.00141  -0.00080   0.00061  -1.09306
   D160       1.28997  -0.00000   0.00810  -0.00072   0.00738   1.29735
   D161      -2.93294   0.00003   0.00964  -0.00039   0.00926  -2.92368
   D162      -0.85213  -0.00000   0.00833  -0.00065   0.00767  -0.84446
   D163       1.20814   0.00003   0.00987  -0.00032   0.00955   1.21770
   D164      -2.92670  -0.00001   0.00824  -0.00066   0.00757  -2.91913
   D165      -0.86643   0.00002   0.00978  -0.00033   0.00945  -0.85697
         Item               Value     Threshold  Converged?
 Maximum Force            0.000193     0.000450     YES
 RMS     Force            0.000029     0.000300     YES
 Maximum Displacement     0.019195     0.001800     NO 
 RMS     Displacement     0.002809     0.001200     NO 
 Predicted change in Energy=-1.113076D-06
 Lowest energy point so far.  Saving SCF results.
 GradGradGradGradGradGradGradGradGradGradGradGradGradGradGradGradGradGrad

 Leave Link  103 at Thu Mar 14 11:37:47 2024, MaxMem= 32212254720 cpu:               2.9 elap:               0.1
 (Enter /home/<user>/g16/l202.exe)
 Stoichiometry    C29H25N3S(1+,2)
 Framework group  C1[X(C29H25N3S)]
 Deg. of freedom   168
 Full point group                 C1      NOp   1
 RotChk:  IX=0 Diff= 1.08D-03
 Largest Abelian subgroup         C1      NOp   1
 Largest concise Abelian subgroup C1      NOp   1
                         Standard orientation:                         
 ---------------------------------------------------------------------
 Center     Atomic      Atomic             Coordinates (Angstroms)
 Number     Number       Type             X           Y           Z
 ---------------------------------------------------------------------
      1          6           0       -2.438335    1.613782   -0.418780
      2          6           0       -1.785481    0.370368   -0.157659
      3          6           0       -2.596036   -0.781172    0.080401
      4          6           0       -3.966081   -0.683327    0.061939
      5          6           0       -4.594174    0.565433   -0.212905
      6          6           0       -3.814785    1.711797   -0.456269
      7          1           0       -1.837361    2.492794   -0.605270
      8          1           0       -2.128356   -1.728411    0.327530
      9          1           0       -4.283522    2.666146   -0.676044
     10          6           0       -5.011161   -1.768547    0.316365
     11          6           0       -6.300424   -0.972897    0.128409
     12          6           0       -7.614948   -1.408082    0.220307
     13          6           0       -8.648413   -0.486516    0.008545
     14          6           0       -8.376138    0.859963   -0.293469
     15          6           0       -7.065363    1.307564   -0.388944
     16          6           0       -6.025254    0.385343   -0.177219
     17          1           0       -7.850558   -2.442707    0.453015
     18          1           0       -9.680678   -0.816847    0.079159
     19          1           0       -9.198720    1.550184   -0.452386
     20          1           0       -6.851580    2.346417   -0.622733
     21          6           0       -4.901666   -2.330614    1.753254
     22          1           0       -5.702902   -3.052706    1.942123
     23          1           0       -3.946354   -2.848304    1.893419
     24          1           0       -4.975114   -1.534725    2.500774
     25          6           0       -4.899810   -2.916030   -0.713981
     26          1           0       -3.945847   -3.443311   -0.602826
     27          1           0       -5.702036   -3.645481   -0.561125
     28          1           0       -4.969430   -2.541190   -1.739859
     29          6           0       -0.340106    0.257678   -0.153594
     30          6           0        0.563427    1.364894    0.085967
     31          6           0        0.299688   -0.972317   -0.396399
     32          6           0        2.006909    1.186113    0.048968
     33          6           0        1.684640   -1.140804   -0.436255
     34          1           0       -0.307872   -1.839159   -0.629112
     35          6           0        2.606431   -0.100206   -0.232650
     36          1           0        2.058542   -2.124453   -0.695927
     37          7           0        0.200303    2.607134    0.410771
     38          7           0        2.679654    2.299842    0.347342
     39         16           0        1.575036    3.473866    0.639311
     40          6           0        4.041785   -0.329410   -0.307343
     41          6           0        4.954768    0.698110   -0.655112
     42          6           0        4.572220   -1.621384   -0.055909
     43          6           0        6.311328    0.435565   -0.757628
     44          1           0        4.586612    1.693141   -0.866107
     45          6           0        5.931077   -1.865114   -0.142415
     46          1           0        3.914926   -2.427206    0.253563
     47          6           0        6.833915   -0.845816   -0.504140
     48          1           0        6.985235    1.235766   -1.051767
     49          1           0        6.311274   -2.860170    0.072498
     50          6           0        8.311460   -1.115278   -0.571205
     51          1           0        8.502391   -2.161049   -0.832381
     52          1           0        8.769166   -0.494831   -1.352289
     53          6           0        9.030236   -0.830103    0.772240
     54          1           0        8.857732    0.224852    1.050336
     55          1           0        8.569311   -1.441316    1.557116
     56          7           0       10.432439   -1.214594    0.666366
     57          1           0       10.950176   -0.540126    0.105822
     58          1           0       10.869366   -1.229795    1.585023
 ---------------------------------------------------------------------
 Rotational constants (GHZ):           0.3679029           0.0395085           0.0363984
 Leave Link  202 at Thu Mar 14 11:37:47 2024, MaxMem= 32212254720 cpu:               0.1 elap:               0.0
 (Enter /home/<user>/g16/l301.exe)
 Standard basis: 6-31G(d) (6D, 7F)
 Ernie: Thresh=  0.10000D-02 Tol=  0.10000D-05 Strict=F.
 There are   549 symmetry adapted cartesian basis functions of A   symmetry.
 There are   549 symmetry adapted basis functions of A   symmetry.
   549 basis functions,  1048 primitive gaussians,   549 cartesian basis functions
   118 alpha electrons      117 beta electrons
       nuclear repulsion energy      3079.6481133556 Hartrees.
 IExCor=  402 DFT=T Ex+Corr=B3LYP ExCW=0 ScaHFX=  0.200000
 ScaDFX=  0.800000  0.720000  1.000000  0.810000 ScalE2=  1.000000  1.000000
 IRadAn=      5 IRanWt=     -1 IRanGd=            0 ICorTp=0 IEmpDi=  4
 NAtoms=   58 NActive=   58 NUniq=   58 SFac= 1.00D+00 NAtFMM=   60 NAOKFM=F Big=F
 Integral buffers will be    131072 words long.
 Raffenetti 2 integral format.
 Two-electron integral symmetry is turned on.
 Leave Link  301 at Thu Mar 14 11:37:47 2024, MaxMem= 32212254720 cpu:               0.8 elap:               0.0
 (Enter /home/<user>/g16/l302.exe)
 NPDir=0 NMtPBC=     1 NCelOv=     1 NCel=       1 NClECP=     1 NCelD=      1
         NCelK=      1 NCelE2=     1 NClLst=     1 CellRange=     0.0.
 One-electron integrals computed using PRISM.
 One-electron integral symmetry used in STVInt
 NBasis=   549 RedAO= T EigKep=  2.65D-04  NBF=   549
 NBsUse=   549 1.00D-06 EigRej= -1.00D+00 NBFU=   549
 Precomputing XC quadrature grid using
 IXCGrd= 4 IRadAn=           5 IRanWt=          -1 IRanGd=           0 AccXCQ= 0.00D+00.
 Generated NRdTot=       0 NPtTot=           0 NUsed=           0 NTot=          32
 NSgBfM=   512   512   512   512   512 MxSgAt=    58 MxSgA2=    58.
 Leave Link  302 at Thu Mar 14 11:37:47 2024, MaxMem= 32212254720 cpu:              12.4 elap:               0.4
 (Enter /home/<user>/g16/l303.exe)
 DipDrv:  MaxL=1.
 Leave Link  303 at Thu Mar 14 11:37:48 2024, MaxMem= 32212254720 cpu:               1.4 elap:               0.1
 (Enter /home/<user>/g16/l401.exe)
 Initial guess from the checkpoint file:  "FBTP_H0opt.chk"
 B after Tr=    -0.000000   -0.000000    0.000000
         Rot=    1.000000    0.000215   -0.000002    0.000020 Ang=   0.02 deg.
 Guess basis will be translated and rotated to current coordinates.
 JPrj=2 DoOrth=T DoCkMO=T.
 Initial guess <Sx>= 0.0000 <Sy>= 0.0000 <Sz>= 0.5000 <S**2>= 0.7625 S= 0.5062
 Leave Link  401 at Thu Mar 14 11:37:48 2024, MaxMem= 32212254720 cpu:              16.8 elap:               0.6
 (Enter /home/<user>/g16/l502.exe)
 Integral symmetry usage will be decided dynamically.
 UHF open shell SCF:
 Using DIIS extrapolation, IDIIS=  1040.
 NGot= 32212254720 LenX= 32211628124 LenY= 32211326174
 Requested convergence on RMS density matrix=1.00D-08 within 128 cycles.
 Requested convergence on MAX density matrix=1.00D-06.
 Requested convergence on             energy=1.00D-06.
 No special actions if energy rises.
 Fock matrices will be formed incrementally for  20 cycles.

 Cycle   1  Pass 1  IDiag  1:
 FoFJK:  IHMeth= 1 ICntrl=       0 DoSepK=F KAlg= 0 I1Cent=           0 FoldK=F
 IRaf= 550000000 NMat=       1 IRICut=       1 DoRegI=T DoRafI=F ISym2E= 0 IDoP0=0 IntGTp=1.
 FoFCou: FMM=F IPFlag=           0 FMFlag=      100000 FMFlg1=           0
         NFxFlg=           0 DoJE=F BraDBF=F KetDBF=F FulRan=T
         wScrn=  0.000000 ICntrl=         0 IOpCl=  1 I1Cent=           0 NGrid=           0
         NMat0=    1 NMatS0=      1 NMatT0=    0 NMatD0=    1 NMtDS0=    0 NMtDT0=    0
 Symmetry not used in FoFCou.
 E= -1682.36787475117    
 DIIS: error= 1.77D-04 at cycle   1 NSaved=   1.
 NSaved= 1 IEnMin= 1 EnMin= -1682.36787475117     IErMin= 1 ErrMin= 1.77D-04
 ErrMax= 1.77D-04  0.00D+00 EMaxC= 1.00D-01 BMatC= 4.59D-05 BMatP= 4.59D-05
 IDIUse=3 WtCom= 9.98D-01 WtEn= 1.77D-03
 Coeff-Com:  0.100D+01
 Coeff-En:   0.100D+01
 Coeff:      0.100D+01
 Gap=     1.962 Goal=   None    Shift=    0.000
 Gap=     1.950 Goal=   None    Shift=    0.000
 RMSDP=1.11D-05 MaxDP=6.80D-04              OVMax= 1.82D-03

 Cycle   2  Pass 1  IDiag  1:
 RMSU=  1.11D-05    CP:  1.00D+00
 E= -1682.36789906249     Delta-E=       -0.000024311317 Rises=F Damp=F
 DIIS: error= 1.85D-05 at cycle   2 NSaved=   2.
 NSaved= 2 IEnMin= 2 EnMin= -1682.36789906249     IErMin= 2 ErrMin= 1.85D-05
 ErrMax= 1.85D-05  0.00D+00 EMaxC= 1.00D-01 BMatC= 6.38D-07 BMatP= 4.59D-05
 IDIUse=1 WtCom= 1.00D+00 WtEn= 0.00D+00
 Coeff-Com: -0.754D-01 0.108D+01
 Coeff:     -0.754D-01 0.108D+01
 Gap=     0.094 Goal=   None    Shift=    0.000
 Gap=     0.029 Goal=   None    Shift=    0.000
 RMSDP=2.18D-06 MaxDP=9.94D-05 DE=-2.43D-05 OVMax= 3.40D-04

 Cycle   3  Pass 1  IDiag  1:
 RMSU=  1.87D-06    CP:  1.00D+00  1.10D+00
 E= -1682.36789921885     Delta-E=       -0.000000156359 Rises=F Damp=F
 DIIS: error= 1.24D-05 at cycle   3 NSaved=   3.
 NSaved= 3 IEnMin= 3 EnMin= -1682.36789921885     IErMin= 3 ErrMin= 1.24D-05
 ErrMax= 1.24D-05  0.00D+00 EMaxC= 1.00D-01 BMatC= 6.01D-07 BMatP= 6.38D-07
 IDIUse=1 WtCom= 1.00D+00 WtEn= 0.00D+00
 Coeff-Com: -0.484D-01 0.600D+00 0.448D+00
 Coeff:     -0.484D-01 0.600D+00 0.448D+00
 Gap=     0.094 Goal=   None    Shift=    0.000
 Gap=     0.029 Goal=   None    Shift=    0.000
 RMSDP=1.29D-06 MaxDP=8.39D-05 DE=-1.56D-07 OVMax= 3.55D-04

 Cycle   4  Pass 1  IDiag  1:
 RMSU=  8.83D-07    CP:  1.00D+00  1.11D+00  5.00D-01
 E= -1682.36789935845     Delta-E=       -0.000000139604 Rises=F Damp=F
 DIIS: error= 7.26D-06 at cycle   4 NSaved=   4.
 NSaved= 4 IEnMin= 4 EnMin= -1682.36789935845     IErMin= 4 ErrMin= 7.26D-06
 ErrMax= 7.26D-06  0.00D+00 EMaxC= 1.00D-01 BMatC= 1.38D-07 BMatP= 6.01D-07
 IDIUse=1 WtCom= 1.00D+00 WtEn= 0.00D+00
 Coeff-Com: -0.213D-01 0.244D+00 0.317D+00 0.460D+00
 Coeff:     -0.213D-01 0.244D+00 0.317D+00 0.460D+00
 Gap=     0.094 Goal=   None    Shift=    0.000
 Gap=     0.029 Goal=   None    Shift=    0.000
 RMSDP=5.46D-07 MaxDP=4.71D-05 DE=-1.40D-07 OVMax= 1.46D-04

 Cycle   5  Pass 1  IDiag  1:
 RMSU=  3.61D-07    CP:  1.00D+00  1.12D+00  6.17D-01  6.08D-01
 E= -1682.36789939768     Delta-E=       -0.000000039225 Rises=F Damp=F
 DIIS: error= 2.31D-06 at cycle   5 NSaved=   5.
 NSaved= 5 IEnMin= 5 EnMin= -1682.36789939768     IErMin= 5 ErrMin= 2.31D-06
 ErrMax= 2.31D-06  0.00D+00 EMaxC= 1.00D-01 BMatC= 1.77D-08 BMatP= 1.38D-07
 IDIUse=1 WtCom= 1.00D+00 WtEn= 0.00D+00
 Coeff-Com: -0.629D-02 0.646D-01 0.140D+00 0.304D+00 0.497D+00
 Coeff:     -0.629D-02 0.646D-01 0.140D+00 0.304D+00 0.497D+00
 Gap=     0.094 Goal=   None    Shift=    0.000
 Gap=     0.029 Goal=   None    Shift=    0.000
 RMSDP=2.26D-07 MaxDP=1.13D-05 DE=-3.92D-08 OVMax= 1.10D-04

 Cycle   6  Pass 1  IDiag  1:
 RMSU=  1.61D-07    CP:  1.00D+00  1.12D+00  6.25D-01  7.27D-01  6.79D-01
 E= -1682.36789940225     Delta-E=       -0.000000004574 Rises=F Damp=F
 DIIS: error= 9.83D-07 at cycle   6 NSaved=   6.
 NSaved= 6 IEnMin= 6 EnMin= -1682.36789940225     IErMin= 6 ErrMin= 9.83D-07
 ErrMax= 9.83D-07  0.00D+00 EMaxC= 1.00D-01 BMatC= 3.60D-09 BMatP= 1.77D-08
 IDIUse=1 WtCom= 1.00D+00 WtEn= 0.00D+00
 Coeff-Com: -0.485D-03-0.255D-03 0.413D-01 0.127D+00 0.348D+00 0.484D+00
 Coeff:     -0.485D-03-0.255D-03 0.413D-01 0.127D+00 0.348D+00 0.484D+00
 Gap=     0.094 Goal=   None    Shift=    0.000
 Gap=     0.029 Goal=   None    Shift=    0.000
 RMSDP=1.11D-07 MaxDP=4.85D-06 DE=-4.57D-09 OVMax= 4.45D-05

 Cycle   7  Pass 1  IDiag  1:
 RMSU=  7.24D-08    CP:  1.00D+00  1.12D+00  6.33D-01  7.54D-01  8.41D-01
                    CP:  6.78D-01
 E= -1682.36789940334     Delta-E=       -0.000000001090 Rises=F Damp=F
 DIIS: error= 3.74D-07 at cycle   7 NSaved=   7.
 NSaved= 7 IEnMin= 7 EnMin= -1682.36789940334     IErMin= 7 ErrMin= 3.74D-07
 ErrMax= 3.74D-07  0.00D+00 EMaxC= 1.00D-01 BMatC= 5.60D-10 BMatP= 3.60D-09
 IDIUse=1 WtCom= 1.00D+00 WtEn= 0.00D+00
 Coeff-Com:  0.894D-03-0.131D-01 0.604D-03 0.254D-01 0.147D+00 0.318D+00
 Coeff-Com:  0.521D+00
 Coeff:      0.894D-03-0.131D-01 0.604D-03 0.254D-01 0.147D+00 0.318D+00
 Coeff:      0.521D+00
 Gap=     0.094 Goal=   None    Shift=    0.000
 Gap=     0.029 Goal=   None    Shift=    0.000
 RMSDP=4.45D-08 MaxDP=2.30D-06 DE=-1.09D-09 OVMax= 1.98D-05

 Cycle   8  Pass 1  IDiag  1:
 RMSU=  3.08D-08    CP:  1.00D+00  1.12D+00  6.40D-01  7.68D-01  8.52D-01
                    CP:  8.26D-01  8.41D-01
 E= -1682.36789940358     Delta-E=       -0.000000000239 Rises=F Damp=F
 DIIS: error= 1.53D-07 at cycle   8 NSaved=   8.
 NSaved= 8 IEnMin= 8 EnMin= -1682.36789940358     IErMin= 8 ErrMin= 1.53D-07
 ErrMax= 1.53D-07  0.00D+00 EMaxC= 1.00D-01 BMatC= 9.58D-11 BMatP= 5.60D-10
 IDIUse=1 WtCom= 1.00D+00 WtEn= 0.00D+00
 Coeff-Com:  0.589D-03-0.726D-02-0.668D-02-0.948D-02 0.231D-01 0.769D-01
 Coeff-Com:  0.300D+00 0.623D+00
 Coeff:      0.589D-03-0.726D-02-0.668D-02-0.948D-02 0.231D-01 0.769D-01
 Coeff:      0.300D+00 0.623D+00
 Gap=     0.094 Goal=   None    Shift=    0.000
 Gap=     0.029 Goal=   None    Shift=    0.000
 RMSDP=2.78D-08 MaxDP=1.84D-06 DE=-2.39D-10 OVMax= 1.58D-05

 Cycle   9  Pass 1  IDiag  1:
 RMSU=  1.48D-08    CP:  1.00D+00  1.12D+00  6.41D-01  7.79D-01  8.86D-01
                    CP:  8.72D-01  1.05D+00  9.66D-01
 E= -1682.36789940354     Delta-E=        0.000000000035 Rises=F Damp=F
 DIIS: error= 1.54D-07 at cycle   9 NSaved=   9.
 NSaved= 9 IEnMin= 8 EnMin= -1682.36789940358     IErMin= 8 ErrMin= 1.53D-07
 ErrMax= 1.54D-07  0.00D+00 EMaxC= 1.00D-01 BMatC= 5.35D-11 BMatP= 9.58D-11
 IDIUse=1 WtCom= 1.00D+00 WtEn= 0.00D+00
 Coeff-Com:  0.171D-03-0.145D-02-0.497D-02-0.150D-01-0.239D-01-0.441D-01
 Coeff-Com:  0.673D-01 0.484D+00 0.538D+00
 Coeff:      0.171D-03-0.145D-02-0.497D-02-0.150D-01-0.239D-01-0.441D-01
 Coeff:      0.673D-01 0.484D+00 0.538D+00
 Gap=     0.094 Goal=   None    Shift=    0.000
 Gap=     0.029 Goal=   None    Shift=    0.000
 RMSDP=1.66D-08 MaxDP=1.24D-06 DE= 3.55D-11 OVMax= 7.98D-06

 Cycle  10  Pass 1  IDiag  1:
 RMSU=  8.17D-09    CP:  1.00D+00  1.12D+00  6.43D-01  7.85D-01  9.04D-01
                    CP:  9.06D-01  1.14D+00  1.19D+00  7.35D-01
 E= -1682.36789940360     Delta-E=       -0.000000000055 Rises=F Damp=F
 DIIS: error= 7.27D-08 at cycle  10 NSaved=  10.
 NSaved=10 IEnMin=10 EnMin= -1682.36789940360     IErMin=10 ErrMin= 7.27D-08
 ErrMax= 7.27D-08  0.00D+00 EMaxC= 1.00D-01 BMatC= 1.77D-11 BMatP= 5.35D-11
 IDIUse=1 WtCom= 1.00D+00 WtEn= 0.00D+00
 Coeff-Com: -0.916D-04 0.173D-02-0.156D-02-0.969D-02-0.301D-01-0.740D-01
 Coeff-Com: -0.697D-01 0.161D+00 0.435D+00 0.587D+00
 Coeff:     -0.916D-04 0.173D-02-0.156D-02-0.969D-02-0.301D-01-0.740D-01
 Coeff:     -0.697D-01 0.161D+00 0.435D+00 0.587D+00
 Gap=     0.094 Goal=   None    Shift=    0.000
 Gap=     0.029 Goal=   None    Shift=    0.000
 RMSDP=1.09D-08 MaxDP=7.24D-07 DE=-5.55D-11 OVMax= 4.70D-06

 Cycle  11  Pass 1  IDiag  1:
 RMSU=  5.29D-09    CP:  1.00D+00  1.12D+00  6.44D-01  7.88D-01  9.14D-01
                    CP:  9.28D-01  1.20D+00  1.32D+00  9.67D-01  7.46D-01
 E= -1682.36789940363     Delta-E=       -0.000000000034 Rises=F Damp=F
 DIIS: error= 3.93D-08 at cycle  11 NSaved=  11.
 NSaved=11 IEnMin=11 EnMin= -1682.36789940363     IErMin=11 ErrMin= 3.93D-08
 ErrMax= 3.93D-08  0.00D+00 EMaxC= 1.00D-01 BMatC= 4.20D-12 BMatP= 1.77D-11
 IDIUse=1 WtCom= 1.00D+00 WtEn= 0.00D+00
 Coeff-Com: -0.114D-03 0.155D-02 0.791D-03-0.113D-02-0.964D-02-0.313D-01
 Coeff-Com: -0.633D-01-0.582D-01 0.897D-01 0.401D+00 0.671D+00
 Coeff:     -0.114D-03 0.155D-02 0.791D-03-0.113D-02-0.964D-02-0.313D-01
 Coeff:     -0.633D-01-0.582D-01 0.897D-01 0.401D+00 0.671D+00
 Gap=     0.094 Goal=   None    Shift=    0.000
 Gap=     0.029 Goal=   None    Shift=    0.000
 RMSDP=5.02D-09 MaxDP=3.60D-07 DE=-3.37D-11 OVMax= 1.51D-06

 SCF Done:  E(UB3LYP) =  -1682.36789940     A.U. after   11 cycles
            NFock= 11  Conv=0.50D-08     -V/T= 2.0082
 <Sx>= 0.0000 <Sy>= 0.0000 <Sz>= 0.5000 <S**2>= 0.7625 S= 0.5062
 <L.S>= 0.000000000000E+00
 KE= 1.668651600139D+03 PE=-1.005498453088D+04 EE= 3.624316917984D+03
 Annihilation of the first spin contaminant:
 S**2 before annihilation     0.7625,   after     0.7501
 Leave Link  502 at Thu Mar 14 11:38:20 2024, MaxMem= 32212254720 cpu:             949.9 elap:              31.7
 (Enter /home/<user>/g16/l701.exe)
 ... and contract with generalized density number  0.
 Compute integral first derivatives.
 Leave Link  701 at Thu Mar 14 11:38:20 2024, MaxMem= 32212254720 cpu:               5.0 elap:               0.2
 (Enter /home/<user>/g16/l702.exe)
 L702 exits ... SP integral derivatives will be done elsewhere.
 Leave Link  702 at Thu Mar 14 11:38:20 2024, MaxMem= 32212254720 cpu:               0.7 elap:               0.0
 (Enter /home/<user>/g16/l703.exe)
 Integral derivatives from FoFJK, PRISM(SPDF).
 Compute integral first derivatives, UseDBF=F ICtDFT=           0.
 Calling FoFJK, ICntrl=      2127 FMM=F ISym2X=0 I1Cent= 0 IOpClX= 1 NMat=1 NMatS=1 NMatT=0.
 FoFJK:  IHMeth= 1 ICntrl=    2127 DoSepK=F KAlg= 0 I1Cent=           0 FoldK=F
 IRaf=         0 NMat=       1 IRICut=       1 DoRegI=T DoRafI=F ISym2E= 0 IDoP0=0 IntGTp=1.
 FoFCou: FMM=F IPFlag=           0 FMFlag=      100000 FMFlg1=         800
         NFxFlg=           0 DoJE=F BraDBF=F KetDBF=F FulRan=T
         wScrn=  0.000000 ICntrl=      2127 IOpCl=  1 I1Cent=           0 NGrid=           0
         NMat0=    1 NMatS0=      1 NMatT0=    0 NMatD0=    1 NMtDS0=    0 NMtDT0=    0
 Symmetry not used in FoFCou.
 Leave Link  703 at Thu Mar 14 11:38:27 2024, MaxMem= 32212254720 cpu:             202.7 elap:               6.8
 (Enter /home/<user>/g16/l716.exe)
 Dipole        =-8.37583922D-01-1.88632221D-01-5.96453090D-02
 ***** Axes restored to original set *****
 -------------------------------------------------------------------
 Center     Atomic                   Forces (Hartrees/Bohr)
 Number     Number              X              Y              Z
 -------------------------------------------------------------------
      1        6          -0.000072510    0.000045366   -0.000019521
      2        6           0.000034934   -0.000016612    0.000021602
      3        6          -0.000073678    0.000009875   -0.000006712
      4        6           0.000051254   -0.000089998    0.000015349
      5        6          -0.000098093   -0.000026479    0.000007909
      6        6           0.000091691    0.000043840   -0.000004147
      7        1           0.000005521   -0.000014777   -0.000005511
      8        1           0.000023200    0.000006822   -0.000008539
      9        1          -0.000025672   -0.000013026   -0.000005064
     10        6          -0.000008707    0.000068264   -0.000011148
     11        6          -0.000043436   -0.000059413    0.000014984
     12        6           0.000028225    0.000005560   -0.000001124
     13        6          -0.000003691   -0.000019511    0.000005177
     14        6           0.000037255    0.000039889   -0.000009854
     15        6          -0.000071856    0.000005044   -0.000003937
     16        6           0.000117442    0.000034904   -0.000005800
     17        1          -0.000010007    0.000000633    0.000000266
     18        1          -0.000000901    0.000001484   -0.000000162
     19        1          -0.000008722   -0.000009915    0.000001876
     20        1           0.000009664   -0.000000236   -0.000000110
     21        6           0.000003452   -0.000007118    0.000009859
     22        1          -0.000000889    0.000000189    0.000001409
     23        1          -0.000000143    0.000000790   -0.000001721
     24        1          -0.000000945    0.000002126   -0.000000324
     25        6           0.000003132   -0.000014630   -0.000012363
     26        1          -0.000000326    0.000002000    0.000003680
     27        1          -0.000001714    0.000001289    0.000003556
     28        1          -0.000000686    0.000002713    0.000002559
     29        6          -0.000000734    0.000017767   -0.000000966
     30        6           0.000010950   -0.000020287   -0.000010619
     31        6           0.000066099   -0.000044448   -0.000005123
     32        6          -0.000017386    0.000007284   -0.000026931
     33        6          -0.000081605   -0.000015421   -0.000002832
     34        1          -0.000015031    0.000012081    0.000008144
     35        6          -0.000011475   -0.000001666    0.000002965
     36        1           0.000013761    0.000013208    0.000001018
     37        7          -0.000029498   -0.000026003    0.000021980
     38        7           0.000017578   -0.000037016    0.000027483
     39       16           0.000017283    0.000100702   -0.000000302
     40        6           0.000012012   -0.000007783   -0.000003079
     41        6           0.000034746    0.000009752   -0.000004782
     42        6           0.000020877   -0.000007534   -0.000001044
     43        6          -0.000025504    0.000031294    0.000009104
     44        1          -0.000002161   -0.000008975   -0.000002863
     45        6          -0.000003090   -0.000006479   -0.000010510
     46        1          -0.000002020    0.000010579   -0.000001910
     47        6          -0.000014734   -0.000030306    0.000007179
     48        1           0.000010788   -0.000008284   -0.000000805
     49        1           0.000010988    0.000005274    0.000000329
     50        6          -0.000008787   -0.000000797   -0.000006543
     51        1           0.000002514    0.000000438    0.000015870
     52        1          -0.000000424    0.000000755   -0.000007210
     53        6           0.000054485   -0.000004059   -0.000008637
     54        1          -0.000007349    0.000005757    0.000005880
     55        1          -0.000007372   -0.000003132   -0.000007630
     56        7          -0.000024744    0.000023374    0.000030372
     57        1          -0.000005594   -0.000014850   -0.000010418
     58        1           0.000001634   -0.000000298   -0.000010308
 -------------------------------------------------------------------
 Cartesian Forces:  Max     0.000117442 RMS     0.000027108
 Leave Link  716 at Thu Mar 14 11:38:27 2024, MaxMem= 32212254720 cpu:               0.7 elap:               0.0
 (Enter /home/<user>/g16/l103.exe)

 GradGradGradGradGradGradGradGradGradGradGradGradGradGradGradGradGradGrad
 Berny optimization.
 Using GEDIIS/GDIIS optimizer.
 FormGI is forming the generalized inverse of G from B-inverse, IUseBI=4.
 Internal  Forces:  Max     0.000064014 RMS     0.000012393
 Search for a local minimum.
 Step number   9 out of a maximum of  346
 All quantities printed in internal units (Hartrees-Bohrs-Radians)
 RMS Force = .12393D-04 SwitMx=.10000D-02 MixMth= 2
 Mixed Optimization -- En-DIIS/RFO-DIIS
 Swapping is turned off.
 Update second derivatives using D2CorX and points    2    3    4    5    6
                                                      7    8    9
 DE= -1.41D-06 DEPred=-1.11D-06 R= 1.27D+00
 TightC=F SS=  1.41D+00  RLast= 2.69D-02 DXNew= 1.0781D+00 8.0761D-02
 Trust test= 1.27D+00 RLast= 2.69D-02 DXMaxT set to 6.41D-01
 ITU=  1  1  1  1  1  0  1  1  0
     Eigenvalues ---    0.00154   0.00230   0.00230   0.00255   0.00673
     Eigenvalues ---    0.00757   0.00962   0.01080   0.01251   0.01453
     Eigenvalues ---    0.01476   0.01608   0.01629   0.01640   0.01660
     Eigenvalues ---    0.01685   0.01728   0.01738   0.01835   0.01887
     Eigenvalues ---    0.01913   0.02005   0.02020   0.02041   0.02073
     Eigenvalues ---    0.02080   0.02088   0.02094   0.02096   0.02106
     Eigenvalues ---    0.02112   0.02119   0.02128   0.02132   0.02134
     Eigenvalues ---    0.02142   0.02146   0.02149   0.02155   0.02161
     Eigenvalues ---    0.02165   0.02266   0.02321   0.02609   0.04042
     Eigenvalues ---    0.04095   0.04349   0.04353   0.05391   0.05397
     Eigenvalues ---    0.05453   0.05535   0.05539   0.05595   0.06039
     Eigenvalues ---    0.08112   0.08869   0.09223   0.11556   0.12529
     Eigenvalues ---    0.12800   0.15053   0.15857   0.15956   0.15971
     Eigenvalues ---    0.15991   0.15995   0.15999   0.16000   0.16000
     Eigenvalues ---    0.16000   0.16000   0.16000   0.16000   0.16000
     Eigenvalues ---    0.16000   0.16007   0.16011   0.16019   0.16041
     Eigenvalues ---    0.16059   0.16080   0.19058   0.21070   0.21911
     Eigenvalues ---    0.21950   0.22008   0.22104   0.22473   0.22519
     Eigenvalues ---    0.22953   0.23008   0.23640   0.24177   0.24563
     Eigenvalues ---    0.24669   0.24940   0.24948   0.24959   0.24993
     Eigenvalues ---    0.25000   0.25146   0.28055   0.28134   0.28193
     Eigenvalues ---    0.28562   0.28986   0.29495   0.31228   0.32532
     Eigenvalues ---    0.33129   0.33648   0.33797   0.33986   0.34019
     Eigenvalues ---    0.34091   0.34101   0.34105   0.34124   0.34135
     Eigenvalues ---    0.34280   0.34295   0.34975   0.35038   0.35054
     Eigenvalues ---    0.35090   0.35154   0.35168   0.35179   0.35192
     Eigenvalues ---    0.35210   0.35232   0.35246   0.35332   0.35531
     Eigenvalues ---    0.36005   0.36129   0.37479   0.37819   0.38794
     Eigenvalues ---    0.40191   0.41190   0.41314   0.41585   0.41977
     Eigenvalues ---    0.42280   0.42401   0.42901   0.43076   0.44239
     Eigenvalues ---    0.44467   0.44515   0.44659   0.44847   0.45404
     Eigenvalues ---    0.45670   0.45750   0.45831   0.46120   0.46344
     Eigenvalues ---    0.46978   0.47203   0.47608   0.47925   0.50251
     Eigenvalues ---    0.54401   0.54917   0.60659
 En-DIIS/RFO-DIIS/Sim-DIIS IScMMF=       -3 using points:     9    8    7    6    5    4    3    2
 RFO step:  Lambda=-5.28670387D-07.
 NNeg= 0 NGDIIS= 8 SimSw=  2.50D-01 Rises=F DC= -1.41D-06 SmlDif=  1.00D-05
 NRisDI= 0 DoIntr=F SqrtH=F CThrHd= 10.0 CDAdj=  3.0
 RMS Error=  0.4779050075D-03 NUsed= 8 OKEnD=F EnDIS=F
 InvSVX:  RCond= 2.47D-07 Info=           0 Equed=N FErr=  1.89D-12 BErr=  9.63D-17
 DidBck=F Rises=F RFO-DIIS coefs:    1.15015    0.35830   -0.60541   -0.06547    0.11993
                  RFO-DIIS coefs:    0.01987    0.01553    0.00709
 Iteration  1 RMS(Cart)=  0.00149072 RMS(Int)=  0.00000102
 Iteration  2 RMS(Cart)=  0.00000140 RMS(Int)=  0.00000027
 Iteration  3 RMS(Cart)=  0.00000000 RMS(Int)=  0.00000027
 ITry= 1 IFail=0 DXMaxC= 9.79D-03 DCOld= 1.00D+10 DXMaxT= 6.41D-01 DXLimC= 3.00D+00 Rises=F
 Variable       Old X    -DE/DX   Delta X   Delta X   Delta X     New X
                                 (Linear)    (Quad)   (Total)
    R1        2.69939   0.00004   0.00009   0.00002   0.00011   2.69949
    R2        2.60866  -0.00004  -0.00004  -0.00006  -0.00010   2.60856
    R3        2.04284  -0.00001  -0.00003   0.00001  -0.00002   2.04282
    R4        2.69888   0.00002  -0.00011   0.00016   0.00004   2.69892
    R5        2.73966   0.00002  -0.00000   0.00006   0.00006   2.73972
    R6        2.59584  -0.00003   0.00007  -0.00012  -0.00005   2.59579
    R7        2.05021   0.00000  -0.00002   0.00001  -0.00001   2.05020
    R8        2.69208   0.00003   0.00026  -0.00013   0.00013   2.69221
    R9        2.88740  -0.00001  -0.00004  -0.00002  -0.00006   2.88734
   R10        2.65963   0.00004   0.00021  -0.00008   0.00014   2.65977
   R11        2.72651  -0.00006  -0.00038   0.00013  -0.00026   2.72626
   R12        2.05172   0.00000  -0.00007   0.00006  -0.00001   2.05171
   R13        2.88490  -0.00001   0.00004  -0.00006  -0.00002   2.88489
   R14        2.92301   0.00001  -0.00011   0.00012   0.00001   2.92302
   R15        2.92189   0.00001   0.00001   0.00003   0.00003   2.92193
   R16        2.62244  -0.00002  -0.00003  -0.00002  -0.00005   2.62238
   R17        2.68178   0.00003   0.00020  -0.00007   0.00013   2.68191
   R18        2.64708   0.00000   0.00004  -0.00003   0.00001   2.64710
   R19        2.05287   0.00000  -0.00004   0.00003  -0.00000   2.05286
   R20        2.65797   0.00002   0.00008  -0.00002   0.00006   2.65803
   R21        2.05249   0.00000  -0.00000  -0.00000  -0.00000   2.05248
   R22        2.62365  -0.00003  -0.00005  -0.00002  -0.00008   2.62358
   R23        2.05129   0.00000  -0.00003   0.00002  -0.00001   2.05128
   R24        2.65716   0.00004   0.00016  -0.00004   0.00012   2.65728
   R25        2.05240   0.00000  -0.00005   0.00005  -0.00001   2.05239
   R26        2.06928   0.00000  -0.00001   0.00001   0.00000   2.06929
   R27        2.07032  -0.00000  -0.00002   0.00001  -0.00000   2.07032
   R28        2.06804   0.00000  -0.00003   0.00003  -0.00000   2.06803
   R29        2.07046  -0.00000  -0.00000   0.00000  -0.00000   2.07046
   R30        2.06925   0.00000  -0.00000   0.00000   0.00000   2.06926
   R31        2.06817  -0.00000  -0.00003   0.00002  -0.00001   2.06816
   R32        2.73827   0.00001  -0.00015   0.00013  -0.00002   2.73825
   R33        2.65987   0.00002  -0.00010   0.00015   0.00004   2.65991
   R34        2.74952  -0.00001  -0.00047   0.00037  -0.00011   2.74941
   R35        2.52157   0.00002   0.00004  -0.00002   0.00002   2.52159
   R36        2.63755  -0.00004   0.00013  -0.00020  -0.00007   2.63748
   R37        2.04815  -0.00000   0.00003  -0.00005  -0.00001   2.04814
   R38        2.73414   0.00002   0.00004   0.00001   0.00004   2.73418
   R39        2.52263   0.00002   0.00001  -0.00000   0.00000   2.52263
   R40        2.65505   0.00003   0.00001   0.00005   0.00006   2.65510
   R41        2.04824  -0.00001  -0.00002  -0.00000  -0.00002   2.04821
   R42        2.75041   0.00005   0.00005   0.00006   0.00011   2.75052
   R43        3.10131   0.00006   0.00011   0.00001   0.00012   3.10143
   R44        3.09578   0.00005   0.00018  -0.00006   0.00013   3.09591
   R45        2.67933   0.00002   0.00005   0.00001   0.00006   2.67940
   R46        2.68167   0.00001  -0.00008   0.00009   0.00001   2.68168
   R47        2.61827  -0.00002  -0.00002  -0.00004  -0.00005   2.61822
   R48        2.04418  -0.00001  -0.00002   0.00001  -0.00002   2.04416
   R49        2.61396  -0.00000   0.00007  -0.00006   0.00001   2.61397
   R50        2.05029  -0.00001  -0.00003   0.00001  -0.00003   2.05027
   R51        2.65860   0.00001   0.00010  -0.00004   0.00007   2.65867
   R52        2.05363   0.00000  -0.00004   0.00003  -0.00000   2.05363
   R53        2.66239  -0.00002  -0.00001  -0.00002  -0.00003   2.66236
   R54        2.05353  -0.00000  -0.00003   0.00002  -0.00001   2.05352
   R55        2.84104   0.00000   0.00003  -0.00004  -0.00001   2.84102
   R56        2.06863  -0.00000  -0.00004   0.00001  -0.00003   2.06860
   R57        2.07400   0.00001  -0.00001   0.00003   0.00001   2.07402
   R58        2.92926   0.00001   0.00012  -0.00000   0.00012   2.92938
   R59        2.08729   0.00001  -0.00005   0.00005  -0.00000   2.08729
   R60        2.07187  -0.00000  -0.00000  -0.00001  -0.00001   2.07186
   R61        2.75487  -0.00003  -0.00010  -0.00004  -0.00014   2.75473
   R62        1.92452  -0.00001  -0.00006   0.00002  -0.00004   1.92448
   R63        1.92257  -0.00001  -0.00006   0.00001  -0.00005   1.92253
    A1        2.12056  -0.00001  -0.00022   0.00015  -0.00008   2.12048
    A2        2.07745  -0.00001   0.00002  -0.00008  -0.00005   2.07740
    A3        2.08507   0.00002   0.00019  -0.00007   0.00013   2.08520
    A4        2.06341  -0.00000   0.00047  -0.00038   0.00009   2.06351
    A5        2.12213   0.00002  -0.00018   0.00014  -0.00004   2.12209
    A6        2.09749  -0.00002  -0.00029   0.00024  -0.00006   2.09744
    A7        2.10177   0.00002  -0.00024   0.00026   0.00002   2.10179
    A8        2.09127  -0.00004  -0.00041   0.00016  -0.00025   2.09102
    A9        2.08885   0.00001   0.00064  -0.00042   0.00022   2.08907
   A10        2.09991  -0.00002  -0.00011  -0.00001  -0.00011   2.09979
   A11        2.25151   0.00004   0.00029  -0.00008   0.00022   2.25173
   A12        1.93173  -0.00001  -0.00018   0.00008  -0.00010   1.93163
   A13        2.09808   0.00001   0.00020  -0.00011   0.00009   2.09817
   A14        1.89983   0.00001   0.00010  -0.00003   0.00007   1.89989
   A15        2.28526  -0.00002  -0.00029   0.00014  -0.00015   2.28511
   A16        2.08247   0.00000  -0.00011   0.00010  -0.00001   2.08246
   A17        2.09253   0.00003   0.00019  -0.00000   0.00019   2.09272
   A18        2.10817  -0.00003  -0.00008  -0.00010  -0.00018   2.10799
   A19        1.75886   0.00001   0.00017  -0.00007   0.00009   1.75896
   A20        1.94373  -0.00000  -0.00005   0.00003  -0.00002   1.94371
   A21        1.94645  -0.00000  -0.00001   0.00000  -0.00001   1.94643
   A22        1.94286  -0.00000  -0.00001   0.00001   0.00001   1.94287
   A23        1.94503  -0.00000  -0.00008   0.00005  -0.00003   1.94500
   A24        1.92224   0.00000  -0.00000  -0.00002  -0.00002   1.92222
   A25        2.25026   0.00001   0.00019  -0.00010   0.00009   2.25035
   A26        1.94076  -0.00001  -0.00020   0.00009  -0.00010   1.94066
   A27        2.09217   0.00000   0.00001   0.00000   0.00001   2.09218
   A28        2.07434   0.00000  -0.00002   0.00001  -0.00002   2.07433
   A29        2.11566   0.00001   0.00014  -0.00005   0.00009   2.11575
   A30        2.09319  -0.00001  -0.00012   0.00005  -0.00008   2.09311
   A31        2.11700   0.00001   0.00005  -0.00001   0.00005   2.11704
   A32        2.08435  -0.00000  -0.00002   0.00001  -0.00001   2.08433
   A33        2.08184  -0.00001  -0.00003   0.00000  -0.00003   2.08181
   A34        2.10151  -0.00000   0.00001  -0.00002  -0.00001   2.10150
   A35        2.08685  -0.00001  -0.00008  -0.00000  -0.00008   2.08676
   A36        2.09483   0.00001   0.00007   0.00002   0.00009   2.09492
   A37        2.06754   0.00000  -0.00002   0.00002   0.00000   2.06754
   A38        2.10483   0.00001  -0.00002   0.00006   0.00004   2.10487
   A39        2.11082  -0.00001   0.00003  -0.00008  -0.00004   2.11078
   A40        1.89348   0.00001   0.00012  -0.00007   0.00004   1.89352
   A41        2.27589   0.00001  -0.00009   0.00007  -0.00001   2.27588
   A42        2.11382  -0.00001  -0.00003  -0.00000  -0.00003   2.11378
   A43        1.92629   0.00000  -0.00008   0.00008  -0.00000   1.92628
   A44        1.93080  -0.00000  -0.00003   0.00001  -0.00002   1.93079
   A45        1.94498  -0.00000   0.00008  -0.00007   0.00001   1.94499
   A46        1.88007   0.00000  -0.00001   0.00001  -0.00000   1.88007
   A47        1.88879   0.00000   0.00001  -0.00001  -0.00000   1.88879
   A48        1.89103   0.00000   0.00004  -0.00002   0.00001   1.89104
   A49        1.93077  -0.00000  -0.00001  -0.00000  -0.00002   1.93076
   A50        1.92687  -0.00000  -0.00002  -0.00001  -0.00003   1.92685
   A51        1.94537  -0.00000   0.00006  -0.00006  -0.00000   1.94537
   A52        1.87878   0.00000  -0.00008   0.00007  -0.00001   1.87877
   A53        1.89158   0.00000   0.00005  -0.00002   0.00004   1.89162
   A54        1.88852   0.00000  -0.00001   0.00002   0.00002   1.88854
   A55        2.16847   0.00002  -0.00048   0.00037  -0.00011   2.16837
   A56        2.11836  -0.00002  -0.00017   0.00013  -0.00004   2.11832
   A57        1.99634   0.00000   0.00064  -0.00050   0.00015   1.99648
   A58        2.11826  -0.00000  -0.00022   0.00017  -0.00005   2.11820
   A59        2.19188   0.00001   0.00016  -0.00015   0.00001   2.19189
   A60        1.97204  -0.00000   0.00006  -0.00004   0.00002   1.97207
   A61        2.16693  -0.00000  -0.00041   0.00032  -0.00009   2.16684
   A62        2.07275  -0.00002  -0.00018   0.00004  -0.00014   2.07262
   A63        2.04155   0.00002   0.00055  -0.00033   0.00022   2.04177
   A64        2.12384  -0.00000  -0.00019   0.00014  -0.00005   2.12379
   A65        1.97336  -0.00000  -0.00005   0.00007   0.00002   1.97338
   A66        2.18514   0.00000   0.00024  -0.00022   0.00001   2.18516
   A67        2.16213   0.00001  -0.00031   0.00025  -0.00005   2.16208
   A68        2.04732   0.00002   0.00044  -0.00024   0.00020   2.04752
   A69        2.07207  -0.00002  -0.00016   0.00001  -0.00015   2.07193
   A70        1.99854  -0.00000   0.00049  -0.00039   0.00010   1.99864
   A71        2.16354  -0.00000  -0.00048   0.00033  -0.00014   2.16340
   A72        2.12110   0.00000  -0.00001   0.00005   0.00004   2.12114
   A73        1.87298   0.00002   0.00013  -0.00011   0.00002   1.87300
   A74        1.87332   0.00002   0.00018  -0.00016   0.00002   1.87334
   A75        1.73303  -0.00004  -0.00033   0.00023  -0.00009   1.73294
   A76        2.13352   0.00001  -0.00018   0.00013  -0.00005   2.13347
   A77        2.09776   0.00000  -0.00011   0.00011   0.00001   2.09776
   A78        2.05168  -0.00001   0.00029  -0.00024   0.00005   2.05173
   A79        2.10747   0.00000  -0.00018   0.00014  -0.00004   2.10743
   A80        2.08899  -0.00000   0.00002  -0.00004  -0.00002   2.08897
   A81        2.08644   0.00000   0.00015  -0.00009   0.00006   2.08650
   A82        2.11360   0.00001  -0.00016   0.00015  -0.00001   2.11359
   A83        2.09472  -0.00001  -0.00021   0.00011  -0.00011   2.09462
   A84        2.07385   0.00000   0.00037  -0.00026   0.00011   2.07396
   A85        2.12110  -0.00000  -0.00003   0.00002  -0.00002   2.12108
   A86        2.08019   0.00001   0.00018  -0.00007   0.00012   2.08031
   A87        2.08183  -0.00001  -0.00015   0.00005  -0.00010   2.08173
   A88        2.11542  -0.00001  -0.00004  -0.00001  -0.00004   2.11538
   A89        2.08596   0.00002   0.00017  -0.00005   0.00012   2.08608
   A90        2.08180  -0.00001  -0.00014   0.00006  -0.00008   2.08172
   A91        2.05689   0.00001   0.00012  -0.00006   0.00006   2.05695
   A92        2.11796  -0.00002  -0.00008  -0.00001  -0.00009   2.11787
   A93        2.10782   0.00001  -0.00003   0.00007   0.00003   2.10785
   A94        1.93188   0.00000   0.00001   0.00003   0.00004   1.93192
   A95        1.91802  -0.00000  -0.00001   0.00000  -0.00001   1.91801
   A96        1.96501   0.00001   0.00011  -0.00005   0.00005   1.96506
   A97        1.87290   0.00000  -0.00001   0.00005   0.00004   1.87294
   A98        1.87723  -0.00001  -0.00002  -0.00001  -0.00003   1.87720
   A99        1.89592  -0.00000  -0.00008  -0.00002  -0.00010   1.89582
   A100       1.89811  -0.00000  -0.00001  -0.00003  -0.00004   1.89808
   A101       1.89963  -0.00001   0.00002  -0.00008  -0.00006   1.89957
   A102       1.91192   0.00000  -0.00007   0.00008   0.00001   1.91193
   A103       1.86142   0.00000   0.00004  -0.00004   0.00000   1.86142
   A104       2.00469   0.00000  -0.00004   0.00007   0.00002   2.00471
   A105       1.88528   0.00000   0.00006  -0.00001   0.00006   1.88534
   A106       1.93295   0.00000   0.00023  -0.00002   0.00021   1.93316
   A107       1.92991   0.00001   0.00028  -0.00005   0.00023   1.93014
   A108       1.86352   0.00000   0.00019   0.00002   0.00021   1.86373
    D1       -0.01113   0.00001  -0.00009   0.00033   0.00024  -0.01089
    D2        3.11200  -0.00000   0.00016  -0.00006   0.00010   3.11211
    D3       -3.13670   0.00001   0.00026   0.00011   0.00038  -3.13633
    D4       -0.01357   0.00000   0.00052  -0.00028   0.00024  -0.01333
    D5        0.01617   0.00000   0.00036  -0.00029   0.00007   0.01624
    D6       -3.12101   0.00000   0.00053  -0.00034   0.00018  -3.12082
    D7       -3.14151  -0.00000   0.00000  -0.00008  -0.00008  -3.14159
    D8        0.00450  -0.00000   0.00017  -0.00012   0.00004   0.00454
    D9       -0.00462  -0.00001  -0.00037  -0.00003  -0.00039  -0.00502
   D10       -3.09135  -0.00001  -0.00022  -0.00004  -0.00025  -3.09161
   D11       -3.12802  -0.00000  -0.00063   0.00036  -0.00026  -3.12829
   D12        0.06843  -0.00000  -0.00048   0.00035  -0.00012   0.06831
   D13        0.41392   0.00001   0.00073   0.00028   0.00100   0.41493
   D14       -2.72189   0.00001   0.00069   0.00025   0.00094  -2.72095
   D15       -2.74649   0.00001   0.00100  -0.00013   0.00087  -2.74562
   D16        0.40089   0.00000   0.00096  -0.00016   0.00080   0.40169
   D17        0.01476   0.00000   0.00055  -0.00030   0.00024   0.01500
   D18       -3.11707   0.00001   0.00023   0.00010   0.00033  -3.11674
   D19        3.10157   0.00000   0.00037  -0.00028   0.00009   3.10166
   D20       -0.03026   0.00000   0.00005   0.00013   0.00017  -0.03008
   D21       -0.00971   0.00000  -0.00028   0.00035   0.00007  -0.00964
   D22        3.13624   0.00000  -0.00017   0.00020   0.00003   3.13627
   D23        3.12377   0.00000  -0.00001   0.00001   0.00000   3.12377
   D24       -0.01347  -0.00000   0.00010  -0.00013  -0.00004  -0.01350
   D25       -3.13659  -0.00000   0.00022  -0.00028  -0.00006  -3.13665
   D26        1.08442  -0.00000   0.00016  -0.00027  -0.00011   1.08432
   D27       -1.07074  -0.00000   0.00022  -0.00027  -0.00005  -1.07080
   D28        0.01401   0.00000  -0.00007   0.00009   0.00002   0.01403
   D29       -2.04816  -0.00000  -0.00013   0.00010  -0.00003  -2.04819
   D30        2.07986   0.00000  -0.00008   0.00010   0.00002   2.07988
   D31       -0.00582  -0.00000  -0.00018  -0.00004  -0.00023  -0.00604
   D32        3.13132  -0.00001  -0.00035   0.00001  -0.00034   3.13098
   D33        3.13032  -0.00000  -0.00032   0.00014  -0.00018   3.13014
   D34       -0.01573  -0.00000  -0.00048   0.00019  -0.00029  -0.01602
   D35        0.00666   0.00000  -0.00008   0.00012   0.00004   0.00670
   D36       -3.13497   0.00000  -0.00002   0.00005   0.00004  -3.13494
   D37       -3.12995  -0.00000   0.00004  -0.00004  -0.00001  -3.12996
   D38        0.01160  -0.00000   0.00011  -0.00011  -0.00000   0.01160
   D39        3.13302  -0.00000   0.00003  -0.00004  -0.00000   3.13301
   D40       -0.00995  -0.00000   0.00002  -0.00001   0.00000  -0.00994
   D41       -1.08736   0.00000   0.00006  -0.00004   0.00002  -1.08733
   D42        2.05286   0.00000   0.00005  -0.00001   0.00003   2.05290
   D43        1.06614  -0.00000  -0.00001  -0.00002  -0.00002   1.06612
   D44       -2.07682  -0.00000  -0.00002   0.00001  -0.00002  -2.07684
   D45        3.06906   0.00000   0.00003   0.00001   0.00003   3.06909
   D46       -1.13508   0.00000  -0.00006   0.00008   0.00002  -1.13506
   D47        0.96993   0.00000   0.00002   0.00001   0.00003   0.96996
   D48        1.12120  -0.00000  -0.00014   0.00007  -0.00007   1.12113
   D49       -3.08294  -0.00000  -0.00023   0.00015  -0.00009  -3.08302
   D50       -0.97793  -0.00000  -0.00015   0.00008  -0.00007  -0.97800
   D51       -1.04525  -0.00000  -0.00003   0.00001  -0.00002  -1.04526
   D52        1.03380   0.00000  -0.00012   0.00009  -0.00003   1.03377
   D53        3.13881  -0.00000  -0.00004   0.00002  -0.00002   3.13879
   D54        1.13685  -0.00000  -0.00007   0.00006  -0.00001   1.13685
   D55       -3.06854  -0.00000  -0.00019   0.00014  -0.00004  -3.06858
   D56       -0.96910  -0.00000  -0.00017   0.00013  -0.00004  -0.96914
   D57        3.08753   0.00000   0.00008  -0.00000   0.00008   3.08761
   D58       -1.11786   0.00000  -0.00004   0.00008   0.00004  -1.11782
   D59        0.98158   0.00000  -0.00002   0.00006   0.00004   0.98162
   D60       -1.03047   0.00000   0.00001   0.00004   0.00005  -1.03042
   D61        1.04733   0.00000  -0.00011   0.00012   0.00001   1.04734
   D62       -3.13641   0.00000  -0.00009   0.00010   0.00001  -3.13640
   D63        3.13885  -0.00000   0.00003  -0.00001   0.00001   3.13886
   D64       -0.00145  -0.00000   0.00003  -0.00001   0.00002  -0.00143
   D65       -0.00127   0.00000   0.00004  -0.00004   0.00001  -0.00127
   D66       -3.14156   0.00000   0.00005  -0.00004   0.00001  -3.14156
   D67        0.00267  -0.00000   0.00004  -0.00006  -0.00003   0.00264
   D68       -3.13889  -0.00000  -0.00002  -0.00000  -0.00003  -3.13892
   D69       -3.14016  -0.00000   0.00002  -0.00004  -0.00002  -3.14018
   D70        0.00147  -0.00000  -0.00004   0.00002  -0.00002   0.00145
   D71        0.00050   0.00000  -0.00000   0.00001   0.00001   0.00051
   D72       -3.14055   0.00000   0.00000   0.00001   0.00001  -3.14054
   D73        3.14081   0.00000  -0.00001   0.00001   0.00000   3.14082
   D74       -0.00024   0.00000  -0.00000   0.00001   0.00001  -0.00023
   D75        0.00011   0.00000  -0.00004   0.00004  -0.00000   0.00011
   D76        3.14148  -0.00000  -0.00004   0.00003  -0.00001   3.14147
   D77        3.14117   0.00000  -0.00005   0.00004  -0.00001   3.14116
   D78       -0.00066  -0.00000  -0.00005   0.00003  -0.00001  -0.00067
   D79        0.00006  -0.00000   0.00005  -0.00006  -0.00001   0.00005
   D80        3.14077   0.00000  -0.00004   0.00005   0.00001   3.14078
   D81       -3.14130  -0.00000   0.00005  -0.00005  -0.00000  -3.14131
   D82       -0.00060   0.00000  -0.00005   0.00006   0.00001  -0.00058
   D83        3.14079   0.00000  -0.00008   0.00011   0.00002   3.14082
   D84       -0.00084   0.00000  -0.00001   0.00003   0.00002  -0.00082
   D85        0.00009  -0.00000   0.00001  -0.00000   0.00000   0.00009
   D86       -3.14155  -0.00000   0.00008  -0.00008   0.00000  -3.14155
   D87       -3.11971   0.00000  -0.00008   0.00013   0.00006  -3.11966
   D88        0.07369   0.00001  -0.00006   0.00047   0.00041   0.07410
   D89        0.01646   0.00000  -0.00004   0.00016   0.00012   0.01658
   D90       -3.07333   0.00001  -0.00003   0.00050   0.00047  -3.07285
   D91        3.11513  -0.00000  -0.00013   0.00001  -0.00012   3.11502
   D92        0.04279  -0.00000   0.00045  -0.00043   0.00001   0.04280
   D93       -0.02121  -0.00001  -0.00016  -0.00002  -0.00018  -0.02139
   D94       -3.09355  -0.00001   0.00041  -0.00046  -0.00005  -3.09360
   D95        0.00401  -0.00000   0.00010  -0.00012  -0.00001   0.00400
   D96       -3.09569   0.00001   0.00021   0.00019   0.00040  -3.09529
   D97        3.09984  -0.00001   0.00009  -0.00042  -0.00032   3.09952
   D98        0.00014   0.00000   0.00020  -0.00011   0.00009   0.00023
   D99        3.09940   0.00000  -0.00005   0.00008   0.00003   3.09943
   D100       0.00586   0.00001  -0.00003   0.00039   0.00036   0.00621
   D101       0.00474   0.00000   0.00033  -0.00020   0.00013   0.00487
   D102      -3.07408   0.00000   0.00076  -0.00051   0.00025  -3.07383
   D103       3.07822   0.00000  -0.00026   0.00025  -0.00001   3.07821
   D104      -0.00060   0.00000   0.00017  -0.00006   0.00011  -0.00049
   D105      -0.02020  -0.00000   0.00004  -0.00008  -0.00005  -0.02024
   D106       3.12007   0.00000   0.00010  -0.00008   0.00002   3.12009
   D107       3.07423  -0.00001  -0.00009  -0.00042  -0.00051   3.07371
   D108      -0.06870  -0.00001  -0.00002  -0.00042  -0.00044  -0.06914
   D109      -0.00607  -0.00001  -0.00026  -0.00023  -0.00049  -0.00656
   D110      -3.10404  -0.00000  -0.00014   0.00008  -0.00006  -3.10410
   D111       0.01648   0.00000  -0.00025   0.00024  -0.00001   0.01647
   D112      -3.12382  -0.00000  -0.00031   0.00023  -0.00008  -3.12389
   D113       3.09446   0.00000  -0.00067   0.00055  -0.00011   3.09435
   D114      -0.04584  -0.00000  -0.00073   0.00055  -0.00018  -0.04602
   D115      -0.46266  -0.00001  -0.00074  -0.00002  -0.00076  -0.46342
   D116       2.70247  -0.00001  -0.00096   0.00003  -0.00093   2.70153
   D117       2.67751  -0.00001  -0.00067  -0.00002  -0.00069   2.67683
   D118      -0.44054  -0.00001  -0.00089   0.00003  -0.00086  -0.44140
   D119      -0.00844  -0.00001  -0.00010  -0.00047  -0.00058  -0.00902
   D120       0.00851   0.00001   0.00022   0.00041   0.00063   0.00914
   D121      -3.10619  -0.00000  -0.00013  -0.00000  -0.00013  -3.10632
   D122       0.00969  -0.00000  -0.00035   0.00008  -0.00026   0.00943
   D123       0.01245  -0.00000   0.00009  -0.00005   0.00004   0.01249
   D124       3.12834  -0.00000  -0.00013   0.00004  -0.00010   3.12824
   D125       3.12358   0.00000   0.00038  -0.00012   0.00026   3.12384
   D126      -0.06696   0.00000   0.00033  -0.00020   0.00013  -0.06683
   D127       0.00444   0.00000   0.00017  -0.00007   0.00010   0.00454
   D128       3.09708  -0.00000   0.00013  -0.00016  -0.00003   3.09705
   D129      -0.01594  -0.00000  -0.00022   0.00011  -0.00011  -0.01605
   D130       3.11326  -0.00000  -0.00037   0.00023  -0.00015   3.11312
   D131      -3.13186   0.00000   0.00000   0.00002   0.00002  -3.13184
   D132      -0.00266   0.00000  -0.00015   0.00014  -0.00001  -0.00267
   D133      -0.01828  -0.00000  -0.00029   0.00014  -0.00015  -0.01843
   D134       3.12292  -0.00000  -0.00041   0.00021  -0.00020   3.12272
   D135      -3.11149   0.00000  -0.00024   0.00021  -0.00003  -3.11152
   D136       0.02971   0.00000  -0.00035   0.00028  -0.00007   0.02964
   D137       0.00225   0.00000   0.00010  -0.00005   0.00005   0.00230
   D138      -3.10504   0.00000   0.00009  -0.00002   0.00007  -3.10497
   D139      -3.12695   0.00000   0.00025  -0.00016   0.00009  -3.12686
   D140       0.04895   0.00000   0.00025  -0.00014   0.00011   0.04906
   D141       0.01482   0.00000   0.00016  -0.00008   0.00008   0.01490
   D142       3.12232   0.00000   0.00016  -0.00011   0.00006   3.12238
   D143      -3.12638   0.00000   0.00027  -0.00015   0.00012  -3.12625
   D144      -0.01888   0.00000   0.00028  -0.00018   0.00010  -0.01878
   D145      -2.66014  -0.00001  -0.00187  -0.00084  -0.00271  -2.66284
   D146      -0.59451  -0.00001  -0.00188  -0.00076  -0.00264  -0.59715
   D147       1.52133  -0.00001  -0.00192  -0.00081  -0.00274   1.51859
   D148       0.51676  -0.00001  -0.00188  -0.00081  -0.00269   0.51407
   D149       2.58238  -0.00001  -0.00189  -0.00073  -0.00262   2.57976
   D150      -1.58497  -0.00001  -0.00193  -0.00078  -0.00272  -1.58768
   D151      -1.01755   0.00000  -0.00017  -0.00002  -0.00019  -1.01774
   D152       1.00395  -0.00000  -0.00011  -0.00013  -0.00024   1.00372
   D153       3.06172  -0.00000  -0.00006  -0.00014  -0.00020   3.06152
   D154       3.13275   0.00000  -0.00024  -0.00002  -0.00025   3.13250
   D155      -1.12892  -0.00000  -0.00018  -0.00013  -0.00030  -1.12923
   D156       0.92885  -0.00000  -0.00013  -0.00014  -0.00027   0.92858
   D157       1.11084   0.00000  -0.00017  -0.00006  -0.00023   1.11061
   D158       3.13235  -0.00000  -0.00012  -0.00017  -0.00028   3.13207
   D159      -1.09306  -0.00000  -0.00007  -0.00018  -0.00024  -1.09331
   D160       1.29735  -0.00001   0.00085  -0.00044   0.00041   1.29776
   D161      -2.92368   0.00000   0.00140  -0.00046   0.00094  -2.92273
   D162      -0.84446  -0.00001   0.00094  -0.00051   0.00043  -0.84403
   D163       1.21770   0.00000   0.00150  -0.00053   0.00097   1.21866
   D164      -2.91913  -0.00001   0.00087  -0.00049   0.00038  -2.91876
   D165      -0.85697  -0.00000   0.00143  -0.00052   0.00091  -0.85606
         Item               Value     Threshold  Converged?
 Maximum Force            0.000064     0.000450     YES
 RMS     Force            0.000012     0.000300     YES
 Maximum Displacement     0.009785     0.001800     NO 
 RMS     Displacement     0.001491     0.001200     NO 
 Predicted change in Energy=-2.589970D-07
 Lowest energy point so far.  Saving SCF results.
 GradGradGradGradGradGradGradGradGradGradGradGradGradGradGradGradGradGrad

 Leave Link  103 at Thu Mar 14 11:38:27 2024, MaxMem= 32212254720 cpu:               2.2 elap:               0.1
 (Enter /home/<user>/g16/l202.exe)
 Stoichiometry    C29H25N3S(1+,2)
 Framework group  C1[X(C29H25N3S)]
 Deg. of freedom   168
 Full point group                 C1      NOp   1
 RotChk:  IX=0 Diff= 8.67D-04
 Largest Abelian subgroup         C1      NOp   1
 Largest concise Abelian subgroup C1      NOp   1
                         Standard orientation:                         
 ---------------------------------------------------------------------
 Center     Atomic      Atomic             Coordinates (Angstroms)
 Number     Number       Type             X           Y           Z
 ---------------------------------------------------------------------
      1          6           0       -2.438039    1.613350   -0.420460
      2          6           0       -1.785438    0.369918   -0.158485
      3          6           0       -2.596153   -0.781425    0.080113
      4          6           0       -3.966161   -0.683398    0.061826
      5          6           0       -4.594007    0.565417   -0.213691
      6          6           0       -3.814423    1.711545   -0.457968
      7          1           0       -1.836827    2.492028   -0.607688
      8          1           0       -2.128352   -1.728497    0.327620
      9          1           0       -4.283202    2.665682   -0.678536
     10          6           0       -5.011572   -1.768049    0.317123
     11          6           0       -6.300646   -0.972172    0.128900
     12          6           0       -7.615286   -1.406809    0.221297
     13          6           0       -8.648440   -0.484987    0.009095
     14          6           0       -8.375759    0.861232   -0.293860
     15          6           0       -7.064884    1.308307   -0.389849
     16          6           0       -6.025007    0.385833   -0.177669
     17          1           0       -7.851333   -2.441172    0.454718
     18          1           0       -9.680814   -0.814890    0.080102
     19          1           0       -9.198195    1.551552   -0.453084
     20          1           0       -6.850742    2.346922   -0.624350
     21          6           0       -4.901966   -2.329259    1.754346
     22          1           0       -5.703405   -3.050965    1.943827
     23          1           0       -3.946801   -2.847188    1.894612
     24          1           0       -4.974989   -1.532888    2.501392
     25          6           0       -4.900790   -2.916244   -0.712518
     26          1           0       -3.946990   -3.443776   -0.601169
     27          1           0       -5.703235   -3.645319   -0.559017
     28          1           0       -4.970483   -2.542042   -1.738619
     29          6           0       -0.340053    0.256982   -0.154257
     30          6           0        0.563506    1.364045    0.085844
     31          6           0        0.299526   -0.973095   -0.397344
     32          6           0        2.006916    1.185130    0.048931
     33          6           0        1.684428   -1.141699   -0.437184
     34          1           0       -0.308303   -1.839654   -0.630386
     35          6           0        2.606272   -0.101196   -0.233126
     36          1           0        2.058443   -2.125178   -0.697283
     37          7           0        0.200444    2.606100    0.411468
     38          7           0        2.679770    2.298534    0.348287
     39         16           0        1.575261    3.472745    0.640297
     40          6           0        4.041688   -0.330409   -0.307702
     41          6           0        4.954627    0.697072   -0.655831
     42          6           0        4.572171   -1.622238   -0.055589
     43          6           0        6.311186    0.434565   -0.758070
     44          1           0        4.586362    1.691928   -0.867416
     45          6           0        5.931074   -1.865884   -0.141680
     46          1           0        3.914806   -2.427870    0.254181
     47          6           0        6.833827   -0.846681   -0.503816
     48          1           0        6.985162    1.234558   -1.052611
     49          1           0        6.311451   -2.860720    0.073904
     50          6           0        8.311417   -1.115945   -0.570528
     51          1           0        8.502593   -2.162466   -0.828438
     52          1           0        8.768691   -0.497800   -1.353696
     53          6           0        9.030675   -0.826276    0.771767
     54          1           0        8.858144    0.229573    1.046426
     55          1           0        8.570023   -1.434936    1.558774
     56          7           0       10.432807   -1.210965    0.666673
     57          1           0       10.950530   -0.538222    0.104092
     58          1           0       10.870022   -1.224030    1.585198
 ---------------------------------------------------------------------
 Rotational constants (GHZ):           0.3680431           0.0395072           0.0363996
 Leave Link  202 at Thu Mar 14 11:38:27 2024, MaxMem= 32212254720 cpu:               0.0 elap:               0.0
 (Enter /home/<user>/g16/l301.exe)
 Standard basis: 6-31G(d) (6D, 7F)
 Ernie: Thresh=  0.10000D-02 Tol=  0.10000D-05 Strict=F.
 There are   549 symmetry adapted cartesian basis functions of A   symmetry.
 There are   549 symmetry adapted basis functions of A   symmetry.
   549 basis functions,  1048 primitive gaussians,   549 cartesian basis functions
   118 alpha electrons      117 beta electrons
       nuclear repulsion energy      3079.6532698211 Hartrees.
 IExCor=  402 DFT=T Ex+Corr=B3LYP ExCW=0 ScaHFX=  0.200000
 ScaDFX=  0.800000  0.720000  1.000000  0.810000 ScalE2=  1.000000  1.000000
 IRadAn=      5 IRanWt=     -1 IRanGd=            0 ICorTp=0 IEmpDi=  4
 NAtoms=   58 NActive=   58 NUniq=   58 SFac= 1.00D+00 NAtFMM=   60 NAOKFM=F Big=F
 Integral buffers will be    131072 words long.
 Raffenetti 2 integral format.
 Two-electron integral symmetry is turned on.
 Leave Link  301 at Thu Mar 14 11:38:27 2024, MaxMem= 32212254720 cpu:               0.8 elap:               0.0
 (Enter /home/<user>/g16/l302.exe)
 NPDir=0 NMtPBC=     1 NCelOv=     1 NCel=       1 NClECP=     1 NCelD=      1
         NCelK=      1 NCelE2=     1 NClLst=     1 CellRange=     0.0.
 One-electron integrals computed using PRISM.
 One-electron integral symmetry used in STVInt
 NBasis=   549 RedAO= T EigKep=  2.65D-04  NBF=   549
 NBsUse=   549 1.00D-06 EigRej= -1.00D+00 NBFU=   549
 Precomputing XC quadrature grid using
 IXCGrd= 4 IRadAn=           5 IRanWt=          -1 IRanGd=           0 AccXCQ= 0.00D+00.
 Generated NRdTot=       0 NPtTot=           0 NUsed=           0 NTot=          32
 NSgBfM=   512   512   512   512   512 MxSgAt=    58 MxSgA2=    58.
 Leave Link  302 at Thu Mar 14 11:38:28 2024, MaxMem= 32212254720 cpu:              12.5 elap:               0.4
 (Enter /home/<user>/g16/l303.exe)
 DipDrv:  MaxL=1.
 Leave Link  303 at Thu Mar 14 11:38:28 2024, MaxMem= 32212254720 cpu:               1.4 elap:               0.1
 (Enter /home/<user>/g16/l401.exe)
 Initial guess from the checkpoint file:  "FBTP_H0opt.chk"
 B after Tr=    -0.000000    0.000000   -0.000000
         Rot=    1.000000    0.000131   -0.000001    0.000010 Ang=   0.02 deg.
 Guess basis will be translated and rotated to current coordinates.
 JPrj=2 DoOrth=T DoCkMO=T.
 Initial guess <Sx>= 0.0000 <Sy>= 0.0000 <Sz>= 0.5000 <S**2>= 0.7625 S= 0.5062
 Leave Link  401 at Thu Mar 14 11:38:28 2024, MaxMem= 32212254720 cpu:              16.9 elap:               0.6
 (Enter /home/<user>/g16/l502.exe)
 Integral symmetry usage will be decided dynamically.
 UHF open shell SCF:
 Using DIIS extrapolation, IDIIS=  1040.
 NGot= 32212254720 LenX= 32211628124 LenY= 32211326174
 Requested convergence on RMS density matrix=1.00D-08 within 128 cycles.
 Requested convergence on MAX density matrix=1.00D-06.
 Requested convergence on             energy=1.00D-06.
 No special actions if energy rises.
 Fock matrices will be formed incrementally for  20 cycles.

 Cycle   1  Pass 1  IDiag  1:
 FoFJK:  IHMeth= 1 ICntrl=       0 DoSepK=F KAlg= 0 I1Cent=           0 FoldK=F
 IRaf= 550000000 NMat=       1 IRICut=       1 DoRegI=T DoRafI=F ISym2E= 0 IDoP0=0 IntGTp=1.
 FoFCou: FMM=F IPFlag=           0 FMFlag=      100000 FMFlg1=           0
         NFxFlg=           0 DoJE=F BraDBF=F KetDBF=F FulRan=T
         wScrn=  0.000000 ICntrl=         0 IOpCl=  1 I1Cent=           0 NGrid=           0
         NMat0=    1 NMatS0=      1 NMatT0=    0 NMatD0=    1 NMtDS0=    0 NMtDT0=    0
 Symmetry not used in FoFCou.
 E= -1682.36789153598    
 DIIS: error= 9.52D-05 at cycle   1 NSaved=   1.
 NSaved= 1 IEnMin= 1 EnMin= -1682.36789153598     IErMin= 1 ErrMin= 9.52D-05
 ErrMax= 9.52D-05  0.00D+00 EMaxC= 1.00D-01 BMatC= 1.56D-05 BMatP= 1.56D-05
 IDIUse=1 WtCom= 1.00D+00 WtEn= 0.00D+00
 Coeff-Com:  0.100D+01
 Coeff:      0.100D+01
 Gap=     1.962 Goal=   None    Shift=    0.000
 Gap=     1.950 Goal=   None    Shift=    0.000
 RMSDP=6.27D-06 MaxDP=3.59D-04              OVMax= 6.96D-04

 Cycle   2  Pass 1  IDiag  1:
 RMSU=  6.27D-06    CP:  1.00D+00
 E= -1682.36789962654     Delta-E=       -0.000008090554 Rises=F Damp=F
 DIIS: error= 1.05D-05 at cycle   2 NSaved=   2.
 NSaved= 2 IEnMin= 2 EnMin= -1682.36789962654     IErMin= 2 ErrMin= 1.05D-05
 ErrMax= 1.05D-05  0.00D+00 EMaxC= 1.00D-01 BMatC= 2.10D-07 BMatP= 1.56D-05
 IDIUse=1 WtCom= 1.00D+00 WtEn= 0.00D+00
 Coeff-Com: -0.785D-01 0.108D+01
 Coeff:     -0.785D-01 0.108D+01
 Gap=     0.094 Goal=   None    Shift=    0.000
 Gap=     0.029 Goal=   None    Shift=    0.000
 RMSDP=1.09D-06 MaxDP=5.24D-05 DE=-8.09D-06 OVMax= 2.26D-04

 Cycle   3  Pass 1  IDiag  1:
 RMSU=  9.14D-07    CP:  1.00D+00  1.09D+00
 E= -1682.36789969125     Delta-E=       -0.000000064716 Rises=F Damp=F
 DIIS: error= 7.79D-06 at cycle   3 NSaved=   3.
 NSaved= 3 IEnMin= 3 EnMin= -1682.36789969125     IErMin= 3 ErrMin= 7.79D-06
 ErrMax= 7.79D-06  0.00D+00 EMaxC= 1.00D-01 BMatC= 1.65D-07 BMatP= 2.10D-07
 IDIUse=1 WtCom= 1.00D+00 WtEn= 0.00D+00
 Coeff-Com: -0.477D-01 0.583D+00 0.465D+00
 Coeff:     -0.477D-01 0.583D+00 0.465D+00
 Gap=     0.094 Goal=   None    Shift=    0.000
 Gap=     0.029 Goal=   None    Shift=    0.000
 RMSDP=5.96D-07 MaxDP=3.90D-05 DE=-6.47D-08 OVMax= 1.97D-04

 Cycle   4  Pass 1  IDiag  1:
 RMSU=  4.26D-07    CP:  1.00D+00  1.10D+00  5.49D-01
 E= -1682.36789972375     Delta-E=       -0.000000032496 Rises=F Damp=F
 DIIS: error= 3.44D-06 at cycle   4 NSaved=   4.
 NSaved= 4 IEnMin= 4 EnMin= -1682.36789972375     IErMin= 4 ErrMin= 3.44D-06
 ErrMax= 3.44D-06  0.00D+00 EMaxC= 1.00D-01 BMatC= 3.15D-08 BMatP= 1.65D-07
 IDIUse=1 WtCom= 1.00D+00 WtEn= 0.00D+00
 Coeff-Com: -0.178D-01 0.204D+00 0.308D+00 0.506D+00
 Coeff:     -0.178D-01 0.204D+00 0.308D+00 0.506D+00
 Gap=     0.094 Goal=   None    Shift=    0.000
 Gap=     0.029 Goal=   None    Shift=    0.000
 RMSDP=2.95D-07 MaxDP=1.49D-05 DE=-3.25D-08 OVMax= 1.15D-04

 Cycle   5  Pass 1  IDiag  1:
 RMSU=  1.94D-07    CP:  1.00D+00  1.10D+00  6.71D-01  5.50D-01
 E= -1682.36789973042     Delta-E=       -0.000000006668 Rises=F Damp=F
 DIIS: error= 1.67D-06 at cycle   5 NSaved=   5.
 NSaved= 5 IEnMin= 5 EnMin= -1682.36789973042     IErMin= 5 ErrMin= 1.67D-06
 ErrMax= 1.67D-06  0.00D+00 EMaxC= 1.00D-01 BMatC= 7.89D-09 BMatP= 3.15D-08
 IDIUse=1 WtCom= 1.00D+00 WtEn= 0.00D+00
 Coeff-Com: -0.580D-02 0.597D-01 0.157D+00 0.372D+00 0.418D+00
 Coeff:     -0.580D-02 0.597D-01 0.157D+00 0.372D+00 0.418D+00
 Gap=     0.094 Goal=   None    Shift=    0.000
 Gap=     0.029 Goal=   None    Shift=    0.000
 RMSDP=1.36D-07 MaxDP=8.89D-06 DE=-6.67D-09 OVMax= 5.90D-05

 Cycle   6  Pass 1  IDiag  1:
 RMSU=  7.49D-08    CP:  1.00D+00  1.11D+00  6.65D-01  6.95D-01  5.16D-01
 E= -1682.36789973282     Delta-E=       -0.000000002400 Rises=F Damp=F
 DIIS: error= 4.68D-07 at cycle   6 NSaved=   6.
 NSaved= 6 IEnMin= 6 EnMin= -1682.36789973282     IErMin= 6 ErrMin= 4.68D-07
 ErrMax= 4.68D-07  0.00D+00 EMaxC= 1.00D-01 BMatC= 8.08D-10 BMatP= 7.89D-09
 IDIUse=1 WtCom= 1.00D+00 WtEn= 0.00D+00
 Coeff-Com: -0.728D-04-0.462D-02 0.380D-01 0.134D+00 0.277D+00 0.555D+00
 Coeff:     -0.728D-04-0.462D-02 0.380D-01 0.134D+00 0.277D+00 0.555D+00
 Gap=     0.094 Goal=   None    Shift=    0.000
 Gap=     0.029 Goal=   None    Shift=    0.000
 RMSDP=4.22D-08 MaxDP=2.23D-06 DE=-2.40D-09 OVMax= 1.08D-05

 Cycle   7  Pass 1  IDiag  1:
 RMSU=  2.97D-08    CP:  1.00D+00  1.11D+00  6.79D-01  6.99D-01  6.03D-01
                    CP:  7.11D-01
 E= -1682.36789973301     Delta-E=       -0.000000000188 Rises=F Damp=F
 DIIS: error= 1.62D-07 at cycle   7 NSaved=   7.
 NSaved= 7 IEnMin= 7 EnMin= -1682.36789973301     IErMin= 7 ErrMin= 1.62D-07
 ErrMax= 1.62D-07  0.00D+00 EMaxC= 1.00D-01 BMatC= 1.37D-10 BMatP= 8.08D-10
 IDIUse=1 WtCom= 1.00D+00 WtEn= 0.00D+00
 Coeff-Com:  0.708D-03-0.110D-01 0.567D-02 0.410D-01 0.137D+00 0.357D+00
 Coeff-Com:  0.470D+00
 Coeff:      0.708D-03-0.110D-01 0.567D-02 0.410D-01 0.137D+00 0.357D+00
 Coeff:      0.470D+00
 Gap=     0.094 Goal=   None    Shift=    0.000
 Gap=     0.029 Goal=   None    Shift=    0.000
 RMSDP=1.74D-08 MaxDP=1.12D-06 DE=-1.88D-10 OVMax= 5.08D-06

 Cycle   8  Pass 1  IDiag  1:
 RMSU=  1.42D-08    CP:  1.00D+00  1.11D+00  6.82D-01  7.04D-01  6.10D-01
                    CP:  7.88D-01  7.54D-01
 E= -1682.36789973309     Delta-E=       -0.000000000084 Rises=F Damp=F
 DIIS: error= 8.66D-08 at cycle   8 NSaved=   8.
 NSaved= 8 IEnMin= 8 EnMin= -1682.36789973309     IErMin= 8 ErrMin= 8.66D-08
 ErrMax= 8.66D-08  0.00D+00 EMaxC= 1.00D-01 BMatC= 2.68D-11 BMatP= 1.37D-10
 IDIUse=1 WtCom= 1.00D+00 WtEn= 0.00D+00
 Coeff-Com:  0.443D-03-0.588D-02-0.284D-02 0.961D-03 0.425D-01 0.115D+00
 Coeff-Com:  0.299D+00 0.550D+00
 Coeff:      0.443D-03-0.588D-02-0.284D-02 0.961D-03 0.425D-01 0.115D+00
 Coeff:      0.299D+00 0.550D+00
 Gap=     0.094 Goal=   None    Shift=    0.000
 Gap=     0.029 Goal=   None    Shift=    0.000
 RMSDP=1.03D-08 MaxDP=6.20D-07 DE=-8.37D-11 OVMax= 3.87D-06

 Cycle   9  Pass 1  IDiag  1:
 RMSU=  7.21D-09    CP:  1.00D+00  1.11D+00  6.83D-01  7.07D-01  6.19D-01
                    CP:  8.25D-01  9.58D-01  8.65D-01
 E= -1682.36789973304     Delta-E=        0.000000000049 Rises=F Damp=F
 DIIS: error= 5.99D-08 at cycle   9 NSaved=   9.
 NSaved= 9 IEnMin= 8 EnMin= -1682.36789973309     IErMin= 9 ErrMin= 5.99D-08
 ErrMax= 5.99D-08  0.00D+00 EMaxC= 1.00D-01 BMatC= 1.38D-11 BMatP= 2.68D-11
 IDIUse=1 WtCom= 1.00D+00 WtEn= 0.00D+00
 Coeff-Com:  0.101D-03-0.771D-03-0.399D-02-0.140D-01-0.986D-02-0.376D-01
 Coeff-Com:  0.724D-01 0.456D+00 0.538D+00
 Coeff:      0.101D-03-0.771D-03-0.399D-02-0.140D-01-0.986D-02-0.376D-01
 Coeff:      0.724D-01 0.456D+00 0.538D+00
 Gap=     0.094 Goal=   None    Shift=    0.000
 Gap=     0.029 Goal=   None    Shift=    0.000
 RMSDP=6.85D-09 MaxDP=4.59D-07 DE= 4.91D-11 OVMax= 2.35D-06

 SCF Done:  E(UB3LYP) =  -1682.36789973     A.U. after    9 cycles
            NFock=  9  Conv=0.69D-08     -V/T= 2.0082
 <Sx>= 0.0000 <Sy>= 0.0000 <Sz>= 0.5000 <S**2>= 0.7625 S= 0.5062
 <L.S>= 0.000000000000E+00
 KE= 1.668650872013D+03 PE=-1.005499574324D+04 EE= 3.624323701671D+03
 Annihilation of the first spin contaminant:
 S**2 before annihilation     0.7625,   after     0.7501
 Leave Link  502 at Thu Mar 14 11:38:55 2024, MaxMem= 32212254720 cpu:             793.0 elap:              26.4
 (Enter /home/<user>/g16/l701.exe)
 ... and contract with generalized density number  0.
 Compute integral first derivatives.
 Leave Link  701 at Thu Mar 14 11:38:55 2024, MaxMem= 32212254720 cpu:               4.9 elap:               0.2
 (Enter /home/<user>/g16/l702.exe)
 L702 exits ... SP integral derivatives will be done elsewhere.
 Leave Link  702 at Thu Mar 14 11:38:55 2024, MaxMem= 32212254720 cpu:               0.7 elap:               0.0
 (Enter /home/<user>/g16/l703.exe)
 Integral derivatives from FoFJK, PRISM(SPDF).
 Compute integral first derivatives, UseDBF=F ICtDFT=           0.
 Calling FoFJK, ICntrl=      2127 FMM=F ISym2X=0 I1Cent= 0 IOpClX= 1 NMat=1 NMatS=1 NMatT=0.
 FoFJK:  IHMeth= 1 ICntrl=    2127 DoSepK=F KAlg= 0 I1Cent=           0 FoldK=F
 IRaf=         0 NMat=       1 IRICut=       1 DoRegI=T DoRafI=F ISym2E= 0 IDoP0=0 IntGTp=1.
 FoFCou: FMM=F IPFlag=           0 FMFlag=      100000 FMFlg1=         800
         NFxFlg=           0 DoJE=F BraDBF=F KetDBF=F FulRan=T
         wScrn=  0.000000 ICntrl=      2127 IOpCl=  1 I1Cent=           0 NGrid=           0
         NMat0=    1 NMatS0=      1 NMatT0=    0 NMatD0=    1 NMtDS0=    0 NMtDT0=    0
 Symmetry not used in FoFCou.
 Leave Link  703 at Thu Mar 14 11:39:02 2024, MaxMem= 32212254720 cpu:             204.1 elap:               6.8
 (Enter /home/<user>/g16/l716.exe)
 Dipole        =-8.37408783D-01-1.88316378D-01-6.15332759D-02
 ***** Axes restored to original set *****
 -------------------------------------------------------------------
 Center     Atomic                   Forces (Hartrees/Bohr)
 Number     Number              X              Y              Z
 -------------------------------------------------------------------
      1        6          -0.000020034   -0.000008998   -0.000000885
      2        6           0.000025271   -0.000002523    0.000001837
      3        6          -0.000019045    0.000030587   -0.000002558
      4        6          -0.000000058   -0.000011249   -0.000001618
      5        6           0.000007837   -0.000005922    0.000001685
      6        6           0.000027038   -0.000006847    0.000001874
      7        1           0.000008432    0.000000645   -0.000001724
      8        1           0.000006623   -0.000006785    0.000000320
      9        1          -0.000012176   -0.000000806   -0.000001323
     10        6          -0.000005054    0.000028139   -0.000009444
     11        6           0.000000178    0.000001785   -0.000000398
     12        6           0.000000989    0.000007948   -0.000001397
     13        6          -0.000000523   -0.000003739    0.000001168
     14        6           0.000009125    0.000002190   -0.000000475
     15        6          -0.000016228   -0.000015041    0.000003672
     16        6          -0.000001474    0.000006382   -0.000001129
     17        1          -0.000001667   -0.000002873    0.000001136
     18        1          -0.000001058    0.000000559   -0.000000173
     19        1          -0.000004734   -0.000002499    0.000000107
     20        1           0.000007287    0.000002515   -0.000001027
     21        6           0.000000914   -0.000010425    0.000007663
     22        1          -0.000000964    0.000000547    0.000001268
     23        1           0.000000976    0.000001380   -0.000000330
     24        1          -0.000000310    0.000003567   -0.000000224
     25        6           0.000000956   -0.000014364   -0.000001136
     26        1           0.000000860    0.000002646    0.000000785
     27        1          -0.000001581    0.000001210    0.000001398
     28        1           0.000000262    0.000002508    0.000000039
     29        6          -0.000030044    0.000008797    0.000001310
     30        6          -0.000003855   -0.000013489    0.000012694
     31        6           0.000023386    0.000004469   -0.000002048
     32        6           0.000006370   -0.000014338    0.000013050
     33        6          -0.000012921    0.000016984   -0.000000257
     34        1          -0.000004823   -0.000001471    0.000003863
     35        6           0.000007557    0.000000199    0.000000806
     36        1           0.000008429   -0.000005518    0.000004424
     37        7          -0.000039945   -0.000003560   -0.000036835
     38        7           0.000028998   -0.000006080   -0.000039063
     39       16           0.000007376    0.000011760    0.000045449
     40        6           0.000003118   -0.000001784    0.000003374
     41        6           0.000005083   -0.000016813    0.000000625
     42        6          -0.000003971    0.000022185   -0.000005738
     43        6          -0.000001182    0.000005341    0.000008551
     44        1          -0.000003595    0.000002536   -0.000002257
     45        6           0.000009405    0.000004982   -0.000014860
     46        1          -0.000006595   -0.000003737    0.000001441
     47        6          -0.000011811   -0.000016998    0.000009122
     48        1           0.000002784    0.000001562   -0.000000274
     49        1           0.000000532   -0.000000974   -0.000000578
     50        6           0.000002391    0.000004244    0.000005867
     51        1           0.000001490   -0.000000547    0.000009248
     52        1           0.000000284   -0.000001180   -0.000010268
     53        6           0.000025017   -0.000000454   -0.000018901
     54        1          -0.000005873    0.000007169    0.000009517
     55        1          -0.000004271   -0.000004945   -0.000004405
     56        7          -0.000013965   -0.000005012    0.000019422
     57        1          -0.000003291   -0.000004657   -0.000010573
     58        1           0.000002080    0.000010791   -0.000001818
 -------------------------------------------------------------------
 Cartesian Forces:  Max     0.000045449 RMS     0.000010932
 Leave Link  716 at Thu Mar 14 11:39:02 2024, MaxMem= 32212254720 cpu:               0.7 elap:               0.0
 (Enter /home/<user>/g16/l103.exe)

 GradGradGradGradGradGradGradGradGradGradGradGradGradGradGradGradGradGrad
 Berny optimization.
 Using GEDIIS/GDIIS optimizer.
 FormGI is forming the generalized inverse of G from B-inverse, IUseBI=4.
 GSVD:  received Info=                   1 from GESDD.
 Internal  Forces:  Max     0.000027537 RMS     0.000005564
 Search for a local minimum.
 Step number  10 out of a maximum of  346
 All quantities printed in internal units (Hartrees-Bohrs-Radians)
 RMS Force = .55641D-05 SwitMx=.10000D-02 MixMth= 2
 Mixed Optimization -- En-DIIS/RFO-DIIS
 Swapping is turned off.
 Update second derivatives using D2CorX and points    2    3    4    5    6
                                                      7    8    9   10
 DE= -3.29D-07 DEPred=-2.59D-07 R= 1.27D+00
 Trust test= 1.27D+00 RLast= 7.62D-03 DXMaxT set to 6.41D-01
 ITU=  0  1  1  1  1  1  0  1  1  0
     Eigenvalues ---    0.00128   0.00230   0.00230   0.00251   0.00501
     Eigenvalues ---    0.00757   0.01005   0.01081   0.01251   0.01452
     Eigenvalues ---    0.01477   0.01608   0.01625   0.01640   0.01662
     Eigenvalues ---    0.01685   0.01730   0.01739   0.01872   0.01895
     Eigenvalues ---    0.01920   0.02005   0.02037   0.02042   0.02075
     Eigenvalues ---    0.02080   0.02088   0.02094   0.02102   0.02109
     Eigenvalues ---    0.02112   0.02119   0.02133   0.02134   0.02135
     Eigenvalues ---    0.02142   0.02146   0.02149   0.02151   0.02161
     Eigenvalues ---    0.02167   0.02275   0.02343   0.03443   0.04055
     Eigenvalues ---    0.04138   0.04349   0.04354   0.05392   0.05397
     Eigenvalues ---    0.05451   0.05536   0.05544   0.05597   0.06040
     Eigenvalues ---    0.08091   0.08862   0.09227   0.11558   0.12529
     Eigenvalues ---    0.12798   0.14878   0.15815   0.15946   0.15971
     Eigenvalues ---    0.15991   0.15999   0.16000   0.16000   0.16000
     Eigenvalues ---    0.16000   0.16000   0.16000   0.16000   0.16000
     Eigenvalues ---    0.16006   0.16010   0.16018   0.16020   0.16043
     Eigenvalues ---    0.16076   0.16084   0.19118   0.21024   0.21936
     Eigenvalues ---    0.21975   0.22010   0.22120   0.22446   0.22530
     Eigenvalues ---    0.22875   0.22999   0.23560   0.24210   0.24520
     Eigenvalues ---    0.24714   0.24914   0.24951   0.24973   0.24995
     Eigenvalues ---    0.25003   0.25190   0.28058   0.28126   0.28289
     Eigenvalues ---    0.28643   0.28995   0.29853   0.31225   0.32843
     Eigenvalues ---    0.33147   0.33761   0.33978   0.34025   0.34091
     Eigenvalues ---    0.34100   0.34105   0.34111   0.34164   0.34280
     Eigenvalues ---    0.34294   0.34520   0.35039   0.35055   0.35088
     Eigenvalues ---    0.35114   0.35154   0.35177   0.35186   0.35194
     Eigenvalues ---    0.35234   0.35255   0.35265   0.35451   0.35690
     Eigenvalues ---    0.36001   0.36193   0.37709   0.37915   0.39436
     Eigenvalues ---    0.40580   0.41205   0.41371   0.41609   0.41794
     Eigenvalues ---    0.42202   0.42343   0.43095   0.43585   0.44278
     Eigenvalues ---    0.44480   0.44528   0.44736   0.44952   0.45513
     Eigenvalues ---    0.45631   0.45754   0.45890   0.46146   0.46649
     Eigenvalues ---    0.46971   0.47246   0.47986   0.48477   0.50244
     Eigenvalues ---    0.54083   0.54599   0.61962
 En-DIIS/RFO-DIIS/Sim-DIIS IScMMF=       -3 using points:    10    9    8    7    6    5    4    3    2
 RFO step:  Lambda=-2.75721575D-07.
 NNeg= 0 NGDIIS= 9 SimSw=  2.50D-01 Rises=F DC= -3.29D-07 SmlDif=  1.00D-05
 NRisDI= 0 DoIntr=F SqrtH=F CThrHd= 10.0 CDAdj=  3.0
 RMS Error=  0.4542482663D-03 NUsed= 9 OKEnD=F EnDIS=F
 InvSVX:  RCond= 1.76D-07 Info=           0 Equed=N FErr=  2.41D-12 BErr=  7.19D-17
 DidBck=F Rises=F RFO-DIIS coefs:    1.03029    0.16312   -0.00426   -0.33522    0.03423
                  RFO-DIIS coefs:    0.11443   -0.00619   -0.00171    0.00531
 Iteration  1 RMS(Cart)=  0.00077419 RMS(Int)=  0.00000031
 Iteration  2 RMS(Cart)=  0.00000038 RMS(Int)=  0.00000011
 ITry= 1 IFail=0 DXMaxC= 5.48D-03 DCOld= 1.00D+10 DXMaxT= 6.41D-01 DXLimC= 3.00D+00 Rises=F
 Variable       Old X    -DE/DX   Delta X   Delta X   Delta X     New X
                                 (Linear)    (Quad)   (Total)
    R1        2.69949  -0.00001   0.00011  -0.00007   0.00004   2.69953
    R2        2.60856  -0.00001  -0.00008   0.00003  -0.00005   2.60852
    R3        2.04282   0.00001  -0.00002   0.00002   0.00000   2.04282
    R4        2.69892  -0.00001  -0.00003   0.00004   0.00001   2.69893
    R5        2.73972  -0.00001  -0.00002   0.00001  -0.00001   2.73971
    R6        2.59579  -0.00000  -0.00001  -0.00001  -0.00002   2.59577
    R7        2.05020   0.00001  -0.00000   0.00001   0.00001   2.05020
    R8        2.69221  -0.00001   0.00019  -0.00014   0.00005   2.69226
    R9        2.88734  -0.00001  -0.00004   0.00000  -0.00003   2.88731
   R10        2.65977  -0.00000   0.00017  -0.00011   0.00006   2.65983
   R11        2.72626   0.00001  -0.00032   0.00023  -0.00009   2.72617
   R12        2.05171   0.00000  -0.00003   0.00003  -0.00000   2.05171
   R13        2.88489  -0.00000   0.00002  -0.00003  -0.00001   2.88488
   R14        2.92302   0.00001  -0.00003   0.00004   0.00001   2.92304
   R15        2.92193   0.00001   0.00005  -0.00002   0.00002   2.92195
   R16        2.62238   0.00000  -0.00004   0.00002  -0.00002   2.62236
   R17        2.68191  -0.00001   0.00015  -0.00010   0.00005   2.68195
   R18        2.64710  -0.00001   0.00001  -0.00001   0.00000   2.64710
   R19        2.05286   0.00000  -0.00002   0.00002   0.00000   2.05286
   R20        2.65803  -0.00000   0.00005  -0.00003   0.00002   2.65806
   R21        2.05248   0.00000  -0.00000   0.00000   0.00000   2.05248
   R22        2.62358  -0.00000  -0.00007   0.00004  -0.00003   2.62355
   R23        2.05128   0.00000  -0.00001   0.00001  -0.00000   2.05128
   R24        2.65728  -0.00000   0.00014  -0.00010   0.00005   2.65733
   R25        2.05239   0.00000  -0.00003   0.00003   0.00000   2.05239
   R26        2.06929   0.00000   0.00000  -0.00000   0.00000   2.06929
   R27        2.07032   0.00000  -0.00001   0.00001  -0.00000   2.07032
   R28        2.06803   0.00000  -0.00002   0.00002  -0.00000   2.06803
   R29        2.07046  -0.00000   0.00000  -0.00000  -0.00000   2.07045
   R30        2.06926   0.00000   0.00001  -0.00001   0.00000   2.06926
   R31        2.06816   0.00000  -0.00002   0.00002  -0.00000   2.06816
   R32        2.73825  -0.00001  -0.00006   0.00003  -0.00003   2.73822
   R33        2.65991   0.00000   0.00001   0.00001   0.00002   2.65993
   R34        2.74941   0.00002  -0.00026   0.00022  -0.00004   2.74937
   R35        2.52159   0.00000   0.00003  -0.00002   0.00001   2.52160
   R36        2.63748  -0.00000   0.00003  -0.00006  -0.00002   2.63746
   R37        2.04814   0.00000   0.00002  -0.00002   0.00000   2.04814
   R38        2.73418  -0.00001   0.00003  -0.00003   0.00000   2.73418
   R39        2.52263   0.00000   0.00001  -0.00001  -0.00000   2.52263
   R40        2.65510  -0.00001   0.00004  -0.00002   0.00002   2.65512
   R41        2.04821   0.00001  -0.00000   0.00000  -0.00000   2.04821
   R42        2.75052  -0.00000  -0.00000   0.00003   0.00003   2.75055
   R43        3.10143   0.00003   0.00012  -0.00004   0.00008   3.10151
   R44        3.09591   0.00002   0.00014  -0.00007   0.00007   3.09598
   R45        2.67940  -0.00001   0.00004  -0.00003   0.00001   2.67941
   R46        2.68168  -0.00002  -0.00004   0.00003  -0.00001   2.68166
   R47        2.61822  -0.00000  -0.00003   0.00001  -0.00002   2.61820
   R48        2.04416   0.00000  -0.00001   0.00002   0.00000   2.04416
   R49        2.61397   0.00001   0.00002  -0.00001   0.00001   2.61398
   R50        2.05027   0.00001  -0.00001   0.00001  -0.00000   2.05027
   R51        2.65867   0.00000   0.00005  -0.00003   0.00002   2.65870
   R52        2.05363   0.00000  -0.00001   0.00001  -0.00000   2.05363
   R53        2.66236  -0.00001  -0.00001  -0.00001  -0.00002   2.66234
   R54        2.05352   0.00000  -0.00001   0.00001  -0.00000   2.05351
   R55        2.84102   0.00000   0.00002  -0.00001   0.00001   2.84103
   R56        2.06860  -0.00000  -0.00002   0.00001  -0.00001   2.06859
   R57        2.07402   0.00001   0.00000   0.00001   0.00001   2.07403
   R58        2.92938  -0.00001   0.00007  -0.00006   0.00002   2.92939
   R59        2.08729   0.00001  -0.00002   0.00004   0.00001   2.08730
   R60        2.07186   0.00000   0.00001  -0.00001   0.00000   2.07186
   R61        2.75473  -0.00002  -0.00008   0.00003  -0.00006   2.75467
   R62        1.92448   0.00000  -0.00003   0.00002  -0.00001   1.92447
   R63        1.92253  -0.00000  -0.00003   0.00002  -0.00001   1.92251
    A1        2.12048   0.00000  -0.00013   0.00009  -0.00003   2.12045
    A2        2.07740  -0.00001  -0.00003  -0.00000  -0.00004   2.07736
    A3        2.08520   0.00001   0.00016  -0.00009   0.00007   2.08527
    A4        2.06351  -0.00001   0.00023  -0.00019   0.00003   2.06354
    A5        2.12209   0.00000  -0.00002  -0.00002  -0.00004   2.12206
    A6        2.09744   0.00001  -0.00021   0.00021   0.00000   2.09744
    A7        2.10179   0.00001  -0.00007   0.00009   0.00002   2.10181
    A8        2.09102  -0.00001  -0.00035   0.00023  -0.00012   2.09090
    A9        2.08907  -0.00000   0.00042  -0.00032   0.00010   2.08917
   A10        2.09979  -0.00001  -0.00010   0.00005  -0.00005   2.09974
   A11        2.25173   0.00001   0.00025  -0.00015   0.00010   2.25183
   A12        1.93163  -0.00000  -0.00015   0.00011  -0.00005   1.93158
   A13        2.09817  -0.00000   0.00011  -0.00008   0.00003   2.09820
   A14        1.89989   0.00000   0.00009  -0.00006   0.00003   1.89992
   A15        2.28511   0.00000  -0.00020   0.00014  -0.00006   2.28505
   A16        2.08246   0.00001  -0.00004   0.00004   0.00000   2.08247
   A17        2.09272   0.00001   0.00018  -0.00009   0.00010   2.09282
   A18        2.10799  -0.00001  -0.00014   0.00004  -0.00010   2.10789
   A19        1.75896   0.00000   0.00013  -0.00008   0.00005   1.75901
   A20        1.94371  -0.00000  -0.00005   0.00004  -0.00001   1.94370
   A21        1.94643  -0.00000   0.00000  -0.00001  -0.00000   1.94643
   A22        1.94287  -0.00000  -0.00001   0.00002   0.00000   1.94287
   A23        1.94500  -0.00000  -0.00005   0.00004  -0.00001   1.94499
   A24        1.92222  -0.00000  -0.00001  -0.00000  -0.00002   1.92220
   A25        2.25035  -0.00000   0.00015  -0.00011   0.00004   2.25039
   A26        1.94066  -0.00000  -0.00015   0.00011  -0.00005   1.94061
   A27        2.09218   0.00000   0.00001   0.00000   0.00001   2.09219
   A28        2.07433   0.00000  -0.00001   0.00001  -0.00000   2.07432
   A29        2.11575  -0.00000   0.00012  -0.00008   0.00004   2.11579
   A30        2.09311  -0.00000  -0.00010   0.00007  -0.00004   2.09307
   A31        2.11704  -0.00000   0.00005  -0.00004   0.00001   2.11706
   A32        2.08433   0.00000  -0.00001   0.00001   0.00000   2.08434
   A33        2.08181   0.00000  -0.00004   0.00003  -0.00001   2.08179
   A34        2.10150  -0.00000  -0.00000  -0.00000  -0.00000   2.10150
   A35        2.08676  -0.00000  -0.00009   0.00005  -0.00004   2.08672
   A36        2.09492   0.00001   0.00009  -0.00005   0.00005   2.09497
   A37        2.06754   0.00001  -0.00000   0.00001   0.00001   2.06755
   A38        2.10487   0.00000   0.00001   0.00001   0.00003   2.10490
   A39        2.11078  -0.00001  -0.00001  -0.00002  -0.00004   2.11074
   A40        1.89352  -0.00000   0.00008  -0.00007   0.00002   1.89354
   A41        2.27588   0.00001  -0.00005   0.00005   0.00001   2.27589
   A42        2.11378  -0.00001  -0.00004   0.00001  -0.00002   2.11376
   A43        1.92628   0.00000  -0.00003   0.00003  -0.00000   1.92628
   A44        1.93079  -0.00000  -0.00002   0.00000  -0.00001   1.93078
   A45        1.94499  -0.00000   0.00005  -0.00005  -0.00000   1.94499
   A46        1.88007   0.00000  -0.00001   0.00002   0.00001   1.88007
   A47        1.88879   0.00000  -0.00000   0.00001   0.00000   1.88879
   A48        1.89104   0.00000   0.00002  -0.00001   0.00001   1.89105
   A49        1.93076  -0.00000  -0.00000  -0.00001  -0.00001   1.93075
   A50        1.92685  -0.00000  -0.00000  -0.00001  -0.00001   1.92683
   A51        1.94537  -0.00000   0.00002  -0.00003  -0.00001   1.94536
   A52        1.87877   0.00000  -0.00005   0.00006   0.00001   1.87877
   A53        1.89162   0.00000   0.00004  -0.00002   0.00002   1.89164
   A54        1.88854   0.00000  -0.00000   0.00001   0.00001   1.88855
   A55        2.16837  -0.00000  -0.00016   0.00009  -0.00007   2.16830
   A56        2.11832   0.00001  -0.00016   0.00018   0.00002   2.11834
   A57        1.99648  -0.00001   0.00033  -0.00027   0.00005   1.99654
   A58        2.11820   0.00001  -0.00012   0.00011  -0.00002   2.11819
   A59        2.19189  -0.00001   0.00010  -0.00011  -0.00001   2.19187
   A60        1.97207   0.00001   0.00002   0.00001   0.00003   1.97210
   A61        2.16684   0.00001  -0.00021   0.00016  -0.00004   2.16680
   A62        2.07262  -0.00001  -0.00021   0.00015  -0.00006   2.07255
   A63        2.04177   0.00000   0.00040  -0.00030   0.00010   2.04187
   A64        2.12379   0.00000  -0.00009   0.00007  -0.00002   2.12377
   A65        1.97338   0.00001  -0.00001   0.00003   0.00002   1.97340
   A66        2.18516  -0.00001   0.00010  -0.00010   0.00000   2.18516
   A67        2.16208   0.00001  -0.00017   0.00015  -0.00002   2.16206
   A68        2.04752   0.00000   0.00036  -0.00027   0.00010   2.04761
   A69        2.07193  -0.00001  -0.00021   0.00013  -0.00008   2.07185
   A70        1.99864  -0.00001   0.00026  -0.00021   0.00004   1.99869
   A71        2.16340   0.00001  -0.00023   0.00018  -0.00006   2.16334
   A72        2.12114  -0.00000  -0.00002   0.00004   0.00001   2.12116
   A73        1.87300  -0.00001   0.00009  -0.00011  -0.00002   1.87298
   A74        1.87334  -0.00001   0.00011  -0.00012  -0.00001   1.87333
   A75        1.73294   0.00001  -0.00021   0.00019  -0.00001   1.73292
   A76        2.13347   0.00001  -0.00006   0.00004  -0.00002   2.13345
   A77        2.09776  -0.00001  -0.00010   0.00009  -0.00001   2.09776
   A78        2.05173  -0.00000   0.00016  -0.00013   0.00003   2.05175
   A79        2.10743   0.00000  -0.00010   0.00008  -0.00002   2.10741
   A80        2.08897  -0.00000  -0.00000  -0.00001  -0.00002   2.08895
   A81        2.08650   0.00000   0.00010  -0.00007   0.00003   2.08654
   A82        2.11359   0.00000  -0.00008   0.00008  -0.00001   2.11358
   A83        2.09462  -0.00000  -0.00018   0.00013  -0.00005   2.09456
   A84        2.07396   0.00000   0.00027  -0.00021   0.00006   2.07402
   A85        2.12108  -0.00000  -0.00003   0.00002  -0.00001   2.12107
   A86        2.08031   0.00000   0.00015  -0.00010   0.00005   2.08036
   A87        2.08173  -0.00000  -0.00013   0.00009  -0.00004   2.08168
   A88        2.11538  -0.00000  -0.00003   0.00001  -0.00002   2.11536
   A89        2.08608   0.00000   0.00014  -0.00009   0.00005   2.08613
   A90        2.08172   0.00000  -0.00011   0.00008  -0.00003   2.08169
   A91        2.05695  -0.00000   0.00009  -0.00006   0.00003   2.05698
   A92        2.11787  -0.00001  -0.00005  -0.00000  -0.00005   2.11782
   A93        2.10785   0.00001  -0.00004   0.00006   0.00002   2.10787
   A94        1.93192   0.00000  -0.00000   0.00002   0.00002   1.93194
   A95        1.91801  -0.00000  -0.00004   0.00002  -0.00002   1.91799
   A96        1.96506  -0.00000   0.00007  -0.00006   0.00001   1.96508
   A97        1.87294   0.00000   0.00002  -0.00000   0.00002   1.87295
   A98        1.87720   0.00000  -0.00004   0.00003  -0.00001   1.87719
   A99        1.89582   0.00000  -0.00002  -0.00001  -0.00003   1.89579
   A100       1.89808  -0.00000  -0.00001   0.00000  -0.00001   1.89807
   A101       1.89957  -0.00000   0.00003  -0.00006  -0.00003   1.89954
   A102       1.91193   0.00000  -0.00004   0.00005   0.00000   1.91193
   A103       1.86142  -0.00000   0.00002  -0.00003  -0.00001   1.86142
   A104       2.00471   0.00000  -0.00003   0.00007   0.00003   2.00475
   A105       1.88534  -0.00000   0.00005  -0.00003   0.00001   1.88535
   A106       1.93316  -0.00000   0.00010  -0.00006   0.00004   1.93320
   A107       1.93014  -0.00000   0.00016  -0.00009   0.00007   1.93021
   A108       1.86373   0.00000   0.00009  -0.00004   0.00006   1.86379
    D1       -0.01089   0.00000   0.00008   0.00000   0.00009  -0.01081
    D2        3.11211   0.00000   0.00020  -0.00014   0.00006   3.11217
    D3       -3.13633   0.00000   0.00024  -0.00010   0.00014  -3.13619
    D4       -0.01333   0.00000   0.00036  -0.00024   0.00011  -0.01321
    D5        0.01624  -0.00000   0.00011  -0.00008   0.00003   0.01627
    D6       -3.12082  -0.00000   0.00030  -0.00022   0.00008  -3.12075
    D7       -3.14159  -0.00000  -0.00005   0.00003  -0.00002   3.14158
    D8        0.00454  -0.00000   0.00014  -0.00012   0.00002   0.00456
    D9       -0.00502  -0.00000  -0.00029   0.00015  -0.00014  -0.00516
   D10       -3.09161  -0.00000  -0.00027   0.00016  -0.00011  -3.09172
   D11       -3.12829   0.00000  -0.00041   0.00029  -0.00012  -3.12841
   D12        0.06831  -0.00000  -0.00039   0.00031  -0.00009   0.06822
   D13        0.41493   0.00000   0.00042  -0.00011   0.00031   0.41524
   D14       -2.72095   0.00000   0.00036  -0.00005   0.00031  -2.72065
   D15       -2.74562   0.00000   0.00055  -0.00026   0.00029  -2.74533
   D16        0.40169   0.00000   0.00049  -0.00020   0.00028   0.40197
   D17        0.01500  -0.00000   0.00030  -0.00022   0.00008   0.01508
   D18       -3.11674   0.00000   0.00016  -0.00004   0.00012  -3.11662
   D19        3.10166   0.00000   0.00026  -0.00022   0.00004   3.10170
   D20       -0.03008   0.00000   0.00011  -0.00003   0.00008  -0.03001
   D21       -0.00964   0.00000  -0.00010   0.00015   0.00004  -0.00960
   D22        3.13627   0.00000  -0.00001   0.00005   0.00004   3.13631
   D23        3.12377   0.00000   0.00002  -0.00001   0.00001   3.12378
   D24       -0.01350   0.00000   0.00011  -0.00010   0.00001  -0.01349
   D25       -3.13665  -0.00000   0.00004  -0.00009  -0.00005  -3.13670
   D26        1.08432  -0.00000   0.00000  -0.00008  -0.00008   1.08424
   D27       -1.07080   0.00000   0.00005  -0.00010  -0.00004  -1.07084
   D28        0.01403  -0.00000  -0.00009   0.00008  -0.00002   0.01402
   D29       -2.04819  -0.00000  -0.00013   0.00009  -0.00004  -2.04823
   D30        2.07988   0.00000  -0.00008   0.00007  -0.00001   2.07988
   D31       -0.00604  -0.00000  -0.00011   0.00001  -0.00010  -0.00614
   D32        3.13098  -0.00000  -0.00030   0.00015  -0.00014   3.13084
   D33        3.13014  -0.00000  -0.00022   0.00012  -0.00010   3.13004
   D34       -0.01602  -0.00000  -0.00041   0.00027  -0.00014  -0.01616
   D35        0.00670  -0.00000  -0.00008   0.00008  -0.00000   0.00670
   D36       -3.13494  -0.00000  -0.00003   0.00003  -0.00001  -3.13494
   D37       -3.12996  -0.00000   0.00003  -0.00003  -0.00000  -3.12996
   D38        0.01160  -0.00000   0.00007  -0.00008  -0.00001   0.01159
   D39        3.13301   0.00000   0.00006  -0.00004   0.00002   3.13303
   D40       -0.00994   0.00000   0.00004  -0.00003   0.00001  -0.00993
   D41       -1.08733   0.00000   0.00007  -0.00004   0.00003  -1.08730
   D42        2.05290   0.00000   0.00005  -0.00003   0.00003   2.05293
   D43        1.06612  -0.00000   0.00001  -0.00001  -0.00000   1.06612
   D44       -2.07684  -0.00000  -0.00001   0.00001  -0.00000  -2.07684
   D45        3.06909   0.00000   0.00002  -0.00000   0.00002   3.06911
   D46       -1.13506   0.00000  -0.00002   0.00004   0.00002  -1.13504
   D47        0.96996   0.00000   0.00002  -0.00000   0.00002   0.96998
   D48        1.12113  -0.00000  -0.00011   0.00007  -0.00004   1.12109
   D49       -3.08302  -0.00000  -0.00015   0.00011  -0.00004  -3.08306
   D50       -0.97800  -0.00000  -0.00011   0.00007  -0.00004  -0.97804
   D51       -1.04526  -0.00000  -0.00002   0.00001  -0.00001  -1.04527
   D52        1.03377   0.00000  -0.00007   0.00006  -0.00001   1.03376
   D53        3.13879  -0.00000  -0.00003   0.00002  -0.00001   3.13878
   D54        1.13685  -0.00000  -0.00007   0.00004  -0.00003   1.13682
   D55       -3.06858  -0.00000  -0.00014   0.00011  -0.00003  -3.06861
   D56       -0.96914  -0.00000  -0.00013   0.00010  -0.00003  -0.96917
   D57        3.08761   0.00000   0.00007  -0.00004   0.00002   3.08763
   D58       -1.11782   0.00000  -0.00001   0.00002   0.00002  -1.11780
   D59        0.98162   0.00000   0.00000   0.00001   0.00002   0.98164
   D60       -1.03042  -0.00000   0.00000   0.00000   0.00000  -1.03041
   D61        1.04734   0.00000  -0.00007   0.00007  -0.00000   1.04734
   D62       -3.13640   0.00000  -0.00006   0.00006  -0.00000  -3.13641
   D63        3.13886  -0.00000   0.00002  -0.00001   0.00000   3.13886
   D64       -0.00143  -0.00000   0.00001  -0.00001   0.00000  -0.00143
   D65       -0.00127  -0.00000   0.00003  -0.00003   0.00000  -0.00126
   D66       -3.14156  -0.00000   0.00003  -0.00003   0.00000  -3.14155
   D67        0.00264   0.00000   0.00002  -0.00003  -0.00001   0.00263
   D68       -3.13892   0.00000  -0.00002   0.00002  -0.00001  -3.13892
   D69       -3.14018  -0.00000   0.00000  -0.00001  -0.00001  -3.14019
   D70        0.00145  -0.00000  -0.00004   0.00003  -0.00001   0.00145
   D71        0.00051  -0.00000  -0.00000   0.00001   0.00000   0.00051
   D72       -3.14054  -0.00000  -0.00000   0.00000   0.00000  -3.14054
   D73        3.14082  -0.00000  -0.00000   0.00000  -0.00000   3.14082
   D74       -0.00023  -0.00000  -0.00000   0.00000   0.00000  -0.00023
   D75        0.00011   0.00000  -0.00002   0.00002  -0.00000   0.00011
   D76        3.14147   0.00000  -0.00002   0.00002  -0.00000   3.14146
   D77        3.14116   0.00000  -0.00003   0.00002  -0.00000   3.14116
   D78       -0.00067   0.00000  -0.00003   0.00002  -0.00001  -0.00068
   D79        0.00005  -0.00000   0.00002  -0.00002  -0.00000   0.00005
   D80        3.14078   0.00000  -0.00001   0.00002   0.00000   3.14078
   D81       -3.14131  -0.00000   0.00002  -0.00002   0.00000  -3.14131
   D82       -0.00058   0.00000  -0.00001   0.00002   0.00001  -0.00057
   D83        3.14082   0.00000  -0.00004   0.00005   0.00001   3.14083
   D84       -0.00082   0.00000   0.00001  -0.00000   0.00001  -0.00082
   D85        0.00009  -0.00000  -0.00001   0.00001   0.00000   0.00010
   D86       -3.14155  -0.00000   0.00004  -0.00004  -0.00000  -3.14155
   D87       -3.11966   0.00000   0.00006   0.00005   0.00011  -3.11955
   D88        0.07410  -0.00000   0.00010   0.00002   0.00012   0.07422
   D89        0.01658   0.00000   0.00012  -0.00000   0.00012   0.01669
   D90       -3.07285   0.00000   0.00016  -0.00003   0.00013  -3.07272
   D91        3.11502  -0.00000  -0.00020   0.00006  -0.00014   3.11488
   D92        0.04280  -0.00000   0.00008  -0.00013  -0.00006   0.04275
   D93       -0.02139  -0.00000  -0.00026   0.00011  -0.00015  -0.02154
   D94       -3.09360  -0.00000   0.00002  -0.00008  -0.00006  -3.09367
   D95        0.00400  -0.00000   0.00008  -0.00008  -0.00000   0.00400
   D96       -3.09529  -0.00000   0.00004  -0.00000   0.00003  -3.09526
   D97        3.09952   0.00000   0.00005  -0.00006  -0.00001   3.09950
   D98        0.00023  -0.00000   0.00001   0.00002   0.00002   0.00025
   D99        3.09943  -0.00001  -0.00008  -0.00014  -0.00022   3.09920
   D100       0.00621  -0.00002  -0.00004  -0.00017  -0.00021   0.00600
   D101       0.00487  -0.00000   0.00019  -0.00014   0.00005   0.00492
   D102      -3.07383  -0.00000   0.00045  -0.00033   0.00011  -3.07372
   D103       3.07821  -0.00000  -0.00010   0.00007  -0.00004   3.07817
   D104      -0.00049  -0.00000   0.00015  -0.00013   0.00003  -0.00047
   D105      -0.02024  -0.00000  -0.00015   0.00006  -0.00009  -0.02034
   D106       3.12009  -0.00000  -0.00005  -0.00002  -0.00007   3.12002
   D107       3.07371   0.00000  -0.00011  -0.00002  -0.00013   3.07358
   D108      -0.06914   0.00000  -0.00001  -0.00010  -0.00011  -0.06925
   D109      -0.00656   0.00002   0.00003   0.00014   0.00018  -0.00638
   D110      -3.10410   0.00001  -0.00000   0.00022   0.00022  -3.10388
   D111       0.01647   0.00000   0.00003   0.00005   0.00007   0.01654
   D112      -3.12389   0.00000  -0.00007   0.00012   0.00005  -3.12385
   D113       3.09435   0.00000  -0.00021   0.00023   0.00001   3.09436
   D114      -0.04602   0.00000  -0.00031   0.00030  -0.00001  -0.04603
   D115      -0.46342  -0.00000  -0.00036   0.00009  -0.00026  -0.46369
   D116       2.70153   0.00000  -0.00045   0.00017  -0.00028   2.70125
   D117       2.67683  -0.00000  -0.00025   0.00001  -0.00024   2.67659
   D118      -0.44140   0.00000  -0.00034   0.00008  -0.00025  -0.44166
   D119      -0.00902   0.00002   0.00006   0.00022   0.00028  -0.00873
   D120       0.00914  -0.00002  -0.00005  -0.00022  -0.00027   0.00887
   D121      -3.10632   0.00000  -0.00012   0.00009  -0.00003  -3.10636
   D122       0.00943   0.00000  -0.00021   0.00013  -0.00008   0.00935
   D123       0.01249  -0.00000  -0.00004   0.00002  -0.00002   0.01247
   D124       3.12824  -0.00000  -0.00012   0.00006  -0.00007   3.12818
   D125       3.12384  -0.00000   0.00020  -0.00013   0.00008   3.12391
   D126      -0.06683  -0.00000   0.00027  -0.00023   0.00005  -0.06678
   D127       0.00454   0.00000   0.00012  -0.00006   0.00006   0.00460
   D128       3.09705   0.00000   0.00019  -0.00016   0.00003   3.09708
   D129      -0.01605   0.00000  -0.00006   0.00003  -0.00003  -0.01608
   D130       3.11312   0.00000  -0.00018   0.00014  -0.00004   3.11307
   D131      -3.13184   0.00000   0.00002  -0.00001   0.00002  -3.13182
   D132      -0.00267   0.00000  -0.00009   0.00010   0.00001  -0.00267
   D133      -0.01843   0.00000  -0.00011   0.00005  -0.00006  -0.01849
   D134       3.12272   0.00000  -0.00022   0.00015  -0.00007   3.12265
   D135      -3.11152  -0.00000  -0.00016   0.00014  -0.00002  -3.11154
   D136       0.02964  -0.00000  -0.00028   0.00024  -0.00004   0.02959
   D137       0.00230   0.00000   0.00008  -0.00004   0.00004   0.00234
   D138      -3.10497  -0.00000   0.00002   0.00001   0.00003  -3.10494
   D139      -3.12686   0.00000   0.00020  -0.00015   0.00005  -3.12681
   D140       0.04906  -0.00000   0.00013  -0.00010   0.00004   0.04910
   D141       0.01490  -0.00000   0.00000   0.00000   0.00001   0.01491
   D142       3.12238  -0.00000   0.00007  -0.00005   0.00001   3.12239
   D143      -3.12625  -0.00000   0.00012  -0.00009   0.00002  -3.12623
   D144      -0.01878  -0.00000   0.00018  -0.00015   0.00003  -0.01874
   D145      -2.66284  -0.00001  -0.00097  -0.00034  -0.00131  -2.66415
   D146      -0.59715  -0.00001  -0.00097  -0.00031  -0.00129  -0.59844
   D147       1.51859  -0.00001  -0.00097  -0.00035  -0.00132   1.51727
   D148       0.51407  -0.00001  -0.00104  -0.00028  -0.00132   0.51275
   D149       2.57976  -0.00001  -0.00104  -0.00026  -0.00130   2.57846
   D150      -1.58768  -0.00001  -0.00104  -0.00029  -0.00133  -1.58901
   D151      -1.01774   0.00000  -0.00039   0.00029  -0.00010  -1.01784
   D152       1.00372  -0.00000  -0.00035   0.00022  -0.00013   1.00359
   D153       3.06152   0.00000  -0.00031   0.00017  -0.00013   3.06139
   D154       3.13250   0.00000  -0.00041   0.00028  -0.00012   3.13237
   D155      -1.12923  -0.00000  -0.00037   0.00022  -0.00016  -1.12939
   D156       0.92858  -0.00000  -0.00033   0.00017  -0.00016   0.92842
   D157       1.11061   0.00000  -0.00040   0.00027  -0.00013   1.11048
   D158       3.13207  -0.00000  -0.00037   0.00021  -0.00016   3.13191
   D159      -1.09331  -0.00000  -0.00032   0.00016  -0.00016  -1.09347
   D160       1.29776  -0.00001  -0.00032  -0.00014  -0.00046   1.29730
   D161      -2.92273  -0.00001  -0.00004  -0.00028  -0.00032  -2.92305
   D162      -0.84403  -0.00001  -0.00024  -0.00023  -0.00047  -0.84450
   D163       1.21866  -0.00001   0.00004  -0.00036  -0.00033   1.21833
   D164      -2.91876  -0.00001  -0.00028  -0.00021  -0.00049  -2.91924
   D165      -0.85606  -0.00001   0.00000  -0.00035  -0.00035  -0.85641
         Item               Value     Threshold  Converged?
 Maximum Force            0.000028     0.000450     YES
 RMS     Force            0.000006     0.000300     YES
 Maximum Displacement     0.005480     0.001800     NO 
 RMS     Displacement     0.000774     0.001200     YES
 Predicted change in Energy=-9.318680D-08
 Lowest energy point so far.  Saving SCF results.
 GradGradGradGradGradGradGradGradGradGradGradGradGradGradGradGradGradGrad

 Leave Link  103 at Thu Mar 14 11:39:02 2024, MaxMem= 32212254720 cpu:               2.7 elap:               0.1
 (Enter /home/<user>/g16/l202.exe)
 Stoichiometry    C29H25N3S(1+,2)
 Framework group  C1[X(C29H25N3S)]
 Deg. of freedom   168
 Full point group                 C1      NOp   1
 RotChk:  IX=0 Diff= 4.46D-04
 Largest Abelian subgroup         C1      NOp   1
 Largest concise Abelian subgroup C1      NOp   1
                         Standard orientation:                         
 ---------------------------------------------------------------------
 Center     Atomic      Atomic             Coordinates (Angstroms)
 Number     Number       Type             X           Y           Z
 ---------------------------------------------------------------------
      1          6           0       -2.437807    1.613051   -0.421187
      2          6           0       -1.785386    0.369602   -0.158746
      3          6           0       -2.596237   -0.781598    0.080108
      4          6           0       -3.966224   -0.683440    0.061799
      5          6           0       -4.593893    0.565409   -0.214106
      6          6           0       -3.814154    1.711382   -0.458789
      7          1           0       -1.836426    2.491548   -0.608732
      8          1           0       -2.128432   -1.728610    0.327851
      9          1           0       -4.282914    2.665433   -0.679768
     10          6           0       -5.011842   -1.767784    0.317451
     11          6           0       -6.300790   -0.971763    0.129028
     12          6           0       -7.615503   -1.406109    0.221608
     13          6           0       -8.648481   -0.484150    0.009142
     14          6           0       -8.375555    0.861930   -0.294261
     15          6           0       -7.064615    1.308720   -0.390438
     16          6           0       -6.024877    0.386111   -0.177991
     17          1           0       -7.851785   -2.440342    0.455369
     18          1           0       -9.680918   -0.813824    0.080291
     19          1           0       -9.197899    1.552316   -0.453675
     20          1           0       -6.850255    2.347214   -0.625277
     21          6           0       -4.902281   -2.328591    1.754842
     22          1           0       -5.703851   -3.050086    1.944571
     23          1           0       -3.947208   -2.846658    1.895210
     24          1           0       -4.975122   -1.531982    2.501651
     25          6           0       -4.901305   -2.916331   -0.711841
     26          1           0       -3.947596   -3.443996   -0.600349
     27          1           0       -5.703880   -3.645207   -0.558072
     28          1           0       -4.970971   -2.542431   -1.738052
     29          6           0       -0.340015    0.256529   -0.154342
     30          6           0        0.563530    1.363561    0.085875
     31          6           0        0.299503   -0.973609   -0.397338
     32          6           0        2.006919    1.184621    0.049020
     33          6           0        1.684392   -1.142234   -0.437149
     34          1           0       -0.308424   -1.840096   -0.630389
     35          6           0        2.606231   -0.101715   -0.233093
     36          1           0        2.058493   -2.125674   -0.697269
     37          7           0        0.200439    2.605590    0.411576
     38          7           0        2.679805    2.297967    0.348517
     39         16           0        1.575287    3.472139    0.640865
     40          6           0        4.041666   -0.330892   -0.307687
     41          6           0        4.954533    0.696567   -0.656095
     42          6           0        4.572199   -1.622637   -0.055288
     43          6           0        6.311091    0.434100   -0.758301
     44          1           0        4.586177    1.691331   -0.867954
     45          6           0        5.931121   -1.866232   -0.141302
     46          1           0        3.914823   -2.428189    0.254664
     47          6           0        6.833795   -0.847067   -0.503702
     48          1           0        6.985060    1.234006   -1.053091
     49          1           0        6.311602   -2.860966    0.074558
     50          6           0        8.311411   -1.116214   -0.570364
     51          1           0        8.502698   -2.163096   -0.826697
     52          1           0        8.768388   -0.499188   -1.354596
     53          6           0        9.030983   -0.824344    0.771295
     54          1           0        8.858447    0.231941    1.044292
     55          1           0        8.570518   -1.431757    1.559375
     56          7           0       10.433073   -1.209150    0.666499
     57          1           0       10.950586   -0.537562    0.102356
     58          1           0       10.870639   -1.220440    1.584873
 ---------------------------------------------------------------------
 Rotational constants (GHZ):           0.3681251           0.0395063           0.0364000
 Leave Link  202 at Thu Mar 14 11:39:02 2024, MaxMem= 32212254720 cpu:               0.1 elap:               0.0
 (Enter /home/<user>/g16/l301.exe)
 Standard basis: 6-31G(d) (6D, 7F)
 Ernie: Thresh=  0.10000D-02 Tol=  0.10000D-05 Strict=F.
 There are   549 symmetry adapted cartesian basis functions of A   symmetry.
 There are   549 symmetry adapted basis functions of A   symmetry.
   549 basis functions,  1048 primitive gaussians,   549 cartesian basis functions
   118 alpha electrons      117 beta electrons
       nuclear repulsion energy      3079.6614321392 Hartrees.
 IExCor=  402 DFT=T Ex+Corr=B3LYP ExCW=0 ScaHFX=  0.200000
 ScaDFX=  0.800000  0.720000  1.000000  0.810000 ScalE2=  1.000000  1.000000
 IRadAn=      5 IRanWt=     -1 IRanGd=            0 ICorTp=0 IEmpDi=  4
 NAtoms=   58 NActive=   58 NUniq=   58 SFac= 1.00D+00 NAtFMM=   60 NAOKFM=F Big=F
 Integral buffers will be    131072 words long.
 Raffenetti 2 integral format.
 Two-electron integral symmetry is turned on.
 Leave Link  301 at Thu Mar 14 11:39:02 2024, MaxMem= 32212254720 cpu:               0.8 elap:               0.0
 (Enter /home/<user>/g16/l302.exe)
 NPDir=0 NMtPBC=     1 NCelOv=     1 NCel=       1 NClECP=     1 NCelD=      1
         NCelK=      1 NCelE2=     1 NClLst=     1 CellRange=     0.0.
 One-electron integrals computed using PRISM.
 One-electron integral symmetry used in STVInt
 NBasis=   549 RedAO= T EigKep=  2.65D-04  NBF=   549
 NBsUse=   549 1.00D-06 EigRej= -1.00D+00 NBFU=   549
 Precomputing XC quadrature grid using
 IXCGrd= 4 IRadAn=           5 IRanWt=          -1 IRanGd=           0 AccXCQ= 0.00D+00.
 Generated NRdTot=       0 NPtTot=           0 NUsed=           0 NTot=          32
 NSgBfM=   512   512   512   512   512 MxSgAt=    58 MxSgA2=    58.
 Leave Link  302 at Thu Mar 14 11:39:03 2024, MaxMem= 32212254720 cpu:              13.4 elap:               0.5
 (Enter /home/<user>/g16/l303.exe)
 DipDrv:  MaxL=1.
 Leave Link  303 at Thu Mar 14 11:39:03 2024, MaxMem= 32212254720 cpu:               1.3 elap:               0.1
 (Enter /home/<user>/g16/l401.exe)
 Initial guess from the checkpoint file:  "FBTP_H0opt.chk"
 B after Tr=    -0.000000    0.000000    0.000000
         Rot=    1.000000    0.000067   -0.000000    0.000005 Ang=   0.01 deg.
 Guess basis will be translated and rotated to current coordinates.
 JPrj=2 DoOrth=T DoCkMO=T.
 Initial guess <Sx>= 0.0000 <Sy>= 0.0000 <Sz>= 0.5000 <S**2>= 0.7625 S= 0.5062
 Leave Link  401 at Thu Mar 14 11:39:03 2024, MaxMem= 32212254720 cpu:              16.9 elap:               0.6
 (Enter /home/<user>/g16/l502.exe)
 Integral symmetry usage will be decided dynamically.
 UHF open shell SCF:
 Using DIIS extrapolation, IDIIS=  1040.
 NGot= 32212254720 LenX= 32211628124 LenY= 32211326174
 Requested convergence on RMS density matrix=1.00D-08 within 128 cycles.
 Requested convergence on MAX density matrix=1.00D-06.
 Requested convergence on             energy=1.00D-06.
 No special actions if energy rises.
 Fock matrices will be formed incrementally for  20 cycles.

 Cycle   1  Pass 1  IDiag  1:
 FoFJK:  IHMeth= 1 ICntrl=       0 DoSepK=F KAlg= 0 I1Cent=           0 FoldK=F
 IRaf= 550000000 NMat=       1 IRICut=       1 DoRegI=T DoRafI=F ISym2E= 0 IDoP0=0 IntGTp=1.
 FoFCou: FMM=F IPFlag=           0 FMFlag=      100000 FMFlg1=           0
         NFxFlg=           0 DoJE=F BraDBF=F KetDBF=F FulRan=T
         wScrn=  0.000000 ICntrl=         0 IOpCl=  1 I1Cent=           0 NGrid=           0
         NMat0=    1 NMatS0=      1 NMatT0=    0 NMatD0=    1 NMtDS0=    0 NMtDT0=    0
 Symmetry not used in FoFCou.
 E= -1682.36789766395    
 DIIS: error= 5.03D-05 at cycle   1 NSaved=   1.
 NSaved= 1 IEnMin= 1 EnMin= -1682.36789766395     IErMin= 1 ErrMin= 5.03D-05
 ErrMax= 5.03D-05  0.00D+00 EMaxC= 1.00D-01 BMatC= 4.25D-06 BMatP= 4.25D-06
 IDIUse=1 WtCom= 1.00D+00 WtEn= 0.00D+00
 Coeff-Com:  0.100D+01
 Coeff:      0.100D+01
 Gap=     1.962 Goal=   None    Shift=    0.000
 Gap=     1.950 Goal=   None    Shift=    0.000
 RMSDP=3.21D-06 MaxDP=2.63D-04              OVMax= 4.57D-04

 Cycle   2  Pass 1  IDiag  1:
 RMSU=  3.21D-06    CP:  1.00D+00
 E= -1682.36789982376     Delta-E=       -0.000002159807 Rises=F Damp=F
 DIIS: error= 6.20D-06 at cycle   2 NSaved=   2.
 NSaved= 2 IEnMin= 2 EnMin= -1682.36789982376     IErMin= 2 ErrMin= 6.20D-06
 ErrMax= 6.20D-06  0.00D+00 EMaxC= 1.00D-01 BMatC= 5.30D-08 BMatP= 4.25D-06
 IDIUse=1 WtCom= 1.00D+00 WtEn= 0.00D+00
 Coeff-Com: -0.793D-01 0.108D+01
 Coeff:     -0.793D-01 0.108D+01
 Gap=     0.094 Goal=   None    Shift=    0.000
 Gap=     0.029 Goal=   None    Shift=    0.000
 RMSDP=5.72D-07 MaxDP=3.64D-05 DE=-2.16D-06 OVMax= 1.09D-04

 Cycle   3  Pass 1  IDiag  1:
 RMSU=  4.87D-07    CP:  1.00D+00  1.09D+00
 E= -1682.36789984218     Delta-E=       -0.000000018418 Rises=F Damp=F
 DIIS: error= 3.24D-06 at cycle   3 NSaved=   3.
 NSaved= 3 IEnMin= 3 EnMin= -1682.36789984218     IErMin= 3 ErrMin= 3.24D-06
 ErrMax= 3.24D-06  0.00D+00 EMaxC= 1.00D-01 BMatC= 3.32D-08 BMatP= 5.30D-08
 IDIUse=1 WtCom= 1.00D+00 WtEn= 0.00D+00
 Coeff-Com: -0.460D-01 0.558D+00 0.488D+00
 Coeff:     -0.460D-01 0.558D+00 0.488D+00
 Gap=     0.094 Goal=   None    Shift=    0.000
 Gap=     0.029 Goal=   None    Shift=    0.000
 RMSDP=3.07D-07 MaxDP=1.92D-05 DE=-1.84D-08 OVMax= 1.16D-04

 Cycle   4  Pass 1  IDiag  1:
 RMSU=  2.19D-07    CP:  1.00D+00  1.11D+00  5.67D-01
 E= -1682.36789984819     Delta-E=       -0.000000006009 Rises=F Damp=F
 DIIS: error= 1.80D-06 at cycle   4 NSaved=   4.
 NSaved= 4 IEnMin= 4 EnMin= -1682.36789984819     IErMin= 4 ErrMin= 1.80D-06
 ErrMax= 1.80D-06  0.00D+00 EMaxC= 1.00D-01 BMatC= 9.16D-09 BMatP= 3.32D-08
 IDIUse=1 WtCom= 1.00D+00 WtEn= 0.00D+00
 Coeff-Com: -0.204D-01 0.233D+00 0.343D+00 0.445D+00
 Coeff:     -0.204D-01 0.233D+00 0.343D+00 0.445D+00
 Gap=     0.094 Goal=   None    Shift=    0.000
 Gap=     0.029 Goal=   None    Shift=    0.000
 RMSDP=1.53D-07 MaxDP=8.09D-06 DE=-6.01D-09 OVMax= 6.57D-05

 Cycle   5  Pass 1  IDiag  1:
 RMSU=  9.41D-08    CP:  1.00D+00  1.11D+00  6.62D-01  4.90D-01
 E= -1682.36789985055     Delta-E=       -0.000000002363 Rises=F Damp=F
 DIIS: error= 7.43D-07 at cycle   5 NSaved=   5.
 NSaved= 5 IEnMin= 5 EnMin= -1682.36789985055     IErMin= 5 ErrMin= 7.43D-07
 ErrMax= 7.43D-07  0.00D+00 EMaxC= 1.00D-01 BMatC= 1.44D-09 BMatP= 9.16D-09
 IDIUse=1 WtCom= 1.00D+00 WtEn= 0.00D+00
 Coeff-Com: -0.608D-02 0.623D-01 0.155D+00 0.313D+00 0.477D+00
 Coeff:     -0.608D-02 0.623D-01 0.155D+00 0.313D+00 0.477D+00
 Gap=     0.094 Goal=   None    Shift=    0.000
 Gap=     0.029 Goal=   None    Shift=    0.000
 RMSDP=6.04D-08 MaxDP=3.99D-06 DE=-2.36D-09 OVMax= 2.47D-05

 Cycle   6  Pass 1  IDiag  1:
 RMSU=  3.41D-08    CP:  1.00D+00  1.11D+00  6.63D-01  6.29D-01  5.82D-01
 E= -1682.36789985098     Delta-E=       -0.000000000429 Rises=F Damp=F
 DIIS: error= 2.41D-07 at cycle   6 NSaved=   6.
 NSaved= 6 IEnMin= 6 EnMin= -1682.36789985098     IErMin= 6 ErrMin= 2.41D-07
 ErrMax= 2.41D-07  0.00D+00 EMaxC= 1.00D-01 BMatC= 2.15D-10 BMatP= 1.44D-09
 IDIUse=1 WtCom= 1.00D+00 WtEn= 0.00D+00
 Coeff-Com: -0.984D-04-0.415D-02 0.373D-01 0.119D+00 0.322D+00 0.527D+00
 Coeff:     -0.984D-04-0.415D-02 0.373D-01 0.119D+00 0.322D+00 0.527D+00
 Gap=     0.094 Goal=   None    Shift=    0.000
 Gap=     0.029 Goal=   None    Shift=    0.000
 RMSDP=1.95D-08 MaxDP=1.31D-06 DE=-4.29D-10 OVMax= 3.48D-06

 Cycle   7  Pass 1  IDiag  1:
 RMSU=  1.11D-08    CP:  1.00D+00  1.11D+00  6.76D-01  6.26D-01  6.51D-01
                    CP:  6.12D-01
 E= -1682.36789985096     Delta-E=        0.000000000015 Rises=F Damp=F
 DIIS: error= 5.81D-08 at cycle   7 NSaved=   7.
 NSaved= 7 IEnMin= 6 EnMin= -1682.36789985098     IErMin= 7 ErrMin= 5.81D-08
 ErrMax= 5.81D-08  0.00D+00 EMaxC= 1.00D-01 BMatC= 2.04D-11 BMatP= 2.15D-10
 IDIUse=1 WtCom= 1.00D+00 WtEn= 0.00D+00
 Coeff-Com:  0.538D-03-0.860D-02 0.763D-02 0.378D-01 0.149D+00 0.305D+00
 Coeff-Com:  0.509D+00
 Coeff:      0.538D-03-0.860D-02 0.763D-02 0.378D-01 0.149D+00 0.305D+00
 Coeff:      0.509D+00
 Gap=     0.094 Goal=   None    Shift=    0.000
 Gap=     0.029 Goal=   None    Shift=    0.000
 RMSDP=7.23D-09 MaxDP=4.91D-07 DE= 1.46D-11 OVMax= 1.86D-06

 SCF Done:  E(UB3LYP) =  -1682.36789985     A.U. after    7 cycles
            NFock=  7  Conv=0.72D-08     -V/T= 2.0082
 <Sx>= 0.0000 <Sy>= 0.0000 <Sz>= 0.5000 <S**2>= 0.7625 S= 0.5062
 <L.S>= 0.000000000000E+00
 KE= 1.668650698185D+03 PE=-1.005501206702D+04 EE= 3.624332036842D+03
 Annihilation of the first spin contaminant:
 S**2 before annihilation     0.7625,   after     0.7501
 Leave Link  502 at Thu Mar 14 11:39:24 2024, MaxMem= 32212254720 cpu:             623.1 elap:              20.8
 (Enter /home/<user>/g16/l701.exe)
 ... and contract with generalized density number  0.
 Compute integral first derivatives.
 Leave Link  701 at Thu Mar 14 11:39:24 2024, MaxMem= 32212254720 cpu:               4.9 elap:               0.2
 (Enter /home/<user>/g16/l702.exe)
 L702 exits ... SP integral derivatives will be done elsewhere.
 Leave Link  702 at Thu Mar 14 11:39:24 2024, MaxMem= 32212254720 cpu:               0.7 elap:               0.0
 (Enter /home/<user>/g16/l703.exe)
 Integral derivatives from FoFJK, PRISM(SPDF).
 Compute integral first derivatives, UseDBF=F ICtDFT=           0.
 Calling FoFJK, ICntrl=      2127 FMM=F ISym2X=0 I1Cent= 0 IOpClX= 1 NMat=1 NMatS=1 NMatT=0.
 FoFJK:  IHMeth= 1 ICntrl=    2127 DoSepK=F KAlg= 0 I1Cent=           0 FoldK=F
 IRaf=         0 NMat=       1 IRICut=       1 DoRegI=T DoRafI=F ISym2E= 0 IDoP0=0 IntGTp=1.
 FoFCou: FMM=F IPFlag=           0 FMFlag=      100000 FMFlg1=         800
         NFxFlg=           0 DoJE=F BraDBF=F KetDBF=F FulRan=T
         wScrn=  0.000000 ICntrl=      2127 IOpCl=  1 I1Cent=           0 NGrid=           0
         NMat0=    1 NMatS0=      1 NMatT0=    0 NMatD0=    1 NMtDS0=    0 NMtDT0=    0
 Symmetry not used in FoFCou.
 Leave Link  703 at Thu Mar 14 11:39:31 2024, MaxMem= 32212254720 cpu:             197.8 elap:               6.6
 (Enter /home/<user>/g16/l716.exe)
 Dipole        =-8.37974966D-01-1.87985638D-01-6.24883009D-02
 ***** Axes restored to original set *****
 -------------------------------------------------------------------
 Center     Atomic                   Forces (Hartrees/Bohr)
 Number     Number              X              Y              Z
 -------------------------------------------------------------------
      1        6          -0.000000077   -0.000025462    0.000002521
      2        6           0.000015329    0.000003223   -0.000002898
      3        6           0.000003795    0.000029814   -0.000000952
      4        6          -0.000020134    0.000020572   -0.000009127
      5        6           0.000047165    0.000003653    0.000000107
      6        6          -0.000003789   -0.000024866    0.000003790
      7        1           0.000003302    0.000004278   -0.000000582
      8        1          -0.000003113   -0.000010103    0.000003499
      9        1          -0.000003741    0.000004351    0.000000342
     10        6          -0.000002539    0.000004567   -0.000005632
     11        6           0.000018339    0.000025206   -0.000006086
     12        6          -0.000009164    0.000006472   -0.000001001
     13        6           0.000001398    0.000003024   -0.000000587
     14        6          -0.000003260   -0.000011997    0.000003086
     15        6           0.000008663   -0.000018926    0.000005107
     16        6          -0.000047571   -0.000006386    0.000000430
     17        1           0.000002397   -0.000003643    0.000001312
     18        1          -0.000000593    0.000000070   -0.000000132
     19        1          -0.000001710    0.000001308   -0.000000744
     20        1           0.000004261    0.000003192   -0.000001279
     21        6          -0.000000445   -0.000009572    0.000005607
     22        1          -0.000000555    0.000000703    0.000001217
     23        1           0.000001114    0.000001343    0.000000528
     24        1           0.000000006    0.000003337    0.000000095
     25        6           0.000000182   -0.000011110    0.000003354
     26        1           0.000001062    0.000002272   -0.000000429
     27        1          -0.000001139    0.000001106    0.000000440
     28        1           0.000000630    0.000001651   -0.000000960
     29        6          -0.000035528    0.000002524   -0.000002793
     30        6          -0.000006864   -0.000006264    0.000002894
     31        6           0.000005171    0.000020879   -0.000002543
     32        6           0.000011849   -0.000016384    0.000007297
     33        6           0.000010331    0.000024260   -0.000000156
     34        1           0.000001721   -0.000006546    0.000003293
     35        6           0.000013174    0.000002174   -0.000003009
     36        1           0.000001170   -0.000010023    0.000006102
     37        7          -0.000022683   -0.000002098   -0.000007357
     38        7           0.000019020    0.000000805   -0.000011471
     39       16           0.000004320   -0.000007880    0.000007437
     40        6          -0.000002289   -0.000001225    0.000002967
     41        6          -0.000002599   -0.000020996    0.000001354
     42        6          -0.000009816    0.000026598   -0.000005327
     43        6           0.000007449   -0.000003092    0.000008200
     44        1          -0.000001705    0.000005065   -0.000001378
     45        6           0.000011616    0.000007402   -0.000014910
     46        1          -0.000003099   -0.000007776    0.000003149
     47        6          -0.000007937   -0.000012672    0.000008801
     48        1          -0.000001244    0.000005223   -0.000000217
     49        1          -0.000003691   -0.000003080   -0.000000656
     50        6           0.000005662    0.000004524    0.000009765
     51        1           0.000000382   -0.000000508    0.000005875
     52        1           0.000000470   -0.000002303   -0.000010557
     53        6           0.000009042    0.000002991   -0.000018851
     54        1          -0.000004110    0.000006522    0.000009134
     55        1          -0.000002230   -0.000004513   -0.000002406
     56        7          -0.000007868   -0.000014421    0.000011033
     57        1          -0.000001452    0.000000283   -0.000008769
     58        1           0.000001926    0.000012456    0.000002075
 -------------------------------------------------------------------
 Cartesian Forces:  Max     0.000047571 RMS     0.000010371
 Leave Link  716 at Thu Mar 14 11:39:31 2024, MaxMem= 32212254720 cpu:               0.7 elap:               0.0
 (Enter /home/<user>/g16/l103.exe)

 GradGradGradGradGradGradGradGradGradGradGradGradGradGradGradGradGradGrad
 Berny optimization.
 Using GEDIIS/GDIIS optimizer.
 FormGI is forming the generalized inverse of G from B-inverse, IUseBI=4.
 GSVD:  received Info=                   1 from GESDD.
 Internal  Forces:  Max     0.000034573 RMS     0.000005993
 Search for a local minimum.
 Step number  11 out of a maximum of  346
 All quantities printed in internal units (Hartrees-Bohrs-Radians)
 RMS Force = .59935D-05 SwitMx=.10000D-02 MixMth= 2
 Mixed Optimization -- En-DIIS/RFO-DIIS
 Swapping is turned off.
 Update second derivatives using D2CorX and points    2    3    4    5    6
                                                      7    8    9   10   11
 DE= -1.18D-07 DEPred=-9.32D-08 R= 1.27D+00
 Trust test= 1.27D+00 RLast= 3.62D-03 DXMaxT set to 6.41D-01
 ITU=  0  0  1  1  1  1  1  0  1  1  0
     Eigenvalues ---    0.00129   0.00230   0.00230   0.00245   0.00329
     Eigenvalues ---    0.00757   0.01030   0.01086   0.01252   0.01453
     Eigenvalues ---    0.01477   0.01608   0.01629   0.01641   0.01662
     Eigenvalues ---    0.01683   0.01737   0.01755   0.01874   0.01892
     Eigenvalues ---    0.01928   0.02010   0.02041   0.02048   0.02075
     Eigenvalues ---    0.02081   0.02088   0.02094   0.02109   0.02110
     Eigenvalues ---    0.02112   0.02119   0.02133   0.02135   0.02137
     Eigenvalues ---    0.02143   0.02146   0.02150   0.02159   0.02161
     Eigenvalues ---    0.02170   0.02302   0.02337   0.04037   0.04112
     Eigenvalues ---    0.04347   0.04354   0.04629   0.05392   0.05397
     Eigenvalues ---    0.05452   0.05536   0.05542   0.05596   0.06038
     Eigenvalues ---    0.08137   0.08875   0.09239   0.11561   0.12528
     Eigenvalues ---    0.12797   0.15767   0.15881   0.15956   0.15972
     Eigenvalues ---    0.15991   0.15999   0.16000   0.16000   0.16000
     Eigenvalues ---    0.16000   0.16000   0.16000   0.16000   0.16001
     Eigenvalues ---    0.16007   0.16009   0.16019   0.16029   0.16037
     Eigenvalues ---    0.16089   0.16416   0.19363   0.20890   0.21920
     Eigenvalues ---    0.21999   0.22035   0.22106   0.22457   0.22538
     Eigenvalues ---    0.22849   0.23014   0.23655   0.24248   0.24540
     Eigenvalues ---    0.24720   0.24905   0.24950   0.24992   0.24998
     Eigenvalues ---    0.25049   0.25127   0.28059   0.28127   0.28354
     Eigenvalues ---    0.28698   0.29002   0.29888   0.31235   0.32900
     Eigenvalues ---    0.33140   0.33768   0.34007   0.34070   0.34092
     Eigenvalues ---    0.34100   0.34105   0.34110   0.34187   0.34280
     Eigenvalues ---    0.34294   0.34945   0.35039   0.35056   0.35091
     Eigenvalues ---    0.35154   0.35163   0.35186   0.35192   0.35211
     Eigenvalues ---    0.35238   0.35270   0.35281   0.35492   0.35874
     Eigenvalues ---    0.36021   0.36234   0.37712   0.37946   0.39326
     Eigenvalues ---    0.41113   0.41325   0.41483   0.41576   0.42131
     Eigenvalues ---    0.42228   0.42337   0.43189   0.43712   0.44314
     Eigenvalues ---    0.44488   0.44593   0.44849   0.45123   0.45460
     Eigenvalues ---    0.45632   0.45737   0.45958   0.46161   0.46791
     Eigenvalues ---    0.46994   0.47279   0.48141   0.48671   0.50689
     Eigenvalues ---    0.54388   0.55047   0.62921
 En-DIIS/RFO-DIIS/Sim-DIIS IScMMF=       -3 using points:    11   10    9    8    7    6    5    4    3    2
 RFO step:  Lambda=-1.73321938D-07.
 NNeg= 0 NGDIIS=10 SimSw=  2.50D-01 Rises=F DC= -1.18D-07 SmlDif=  1.00D-05
 NRisDI= 0 DoIntr=F SqrtH=F CThrHd= 10.0 CDAdj=  3.0
 RMS Error=  0.4110263070D-03 NUsed=10 OKEnD=F EnDIS=F
 InvSVX:  RCond= 3.11D-08 Info=           0 Equed=N FErr=  1.19D-12 BErr=  1.04D-16
 DIIS inversion failure, remove point  10.
 InvSVX:  RCond= 3.49D-08 Info=           0 Equed=N FErr=  1.02D-12 BErr=  8.79D-17
 DIIS inversion failure, remove point   9.
 InvSVX:  RCond= 4.10D-08 Info=           0 Equed=N FErr=  9.71D-13 BErr=  6.61D-17
 DIIS inversion failure, remove point   8.
 InvSVX:  RCond= 5.11D-08 Info=           0 Equed=N FErr=  7.80D-13 BErr=  1.69D-16
 DIIS inversion failure, remove point   7.
 InvSVX:  RCond= 5.95D-08 Info=           0 Equed=N FErr=  6.62D-13 BErr=  8.73D-17
 DIIS inversion failure, remove point   6.
 InvSVX:  RCond= 8.62D-08 Info=           0 Equed=N FErr=  4.46D-13 BErr=  5.99D-17
 DIIS inversion failure, remove point   5.
 InvSVX:  RCond= 1.30D-07 Info=           0 Equed=N FErr=  2.74D-13 BErr=  4.27D-17
 RFO-DIIS uses    4 points instead of   10
 DidBck=F Rises=F RFO-DIIS coefs:    2.55923   -1.35967   -0.23881    0.03926    0.00000
                  RFO-DIIS coefs:    0.00000    0.00000    0.00000    0.00000    0.00000
 Iteration  1 RMS(Cart)=  0.00122675 RMS(Int)=  0.00000104
 Iteration  2 RMS(Cart)=  0.00000136 RMS(Int)=  0.00000000
 Iteration  3 RMS(Cart)=  0.00000000 RMS(Int)=  0.00000000
 ITry= 1 IFail=0 DXMaxC= 9.61D-03 DCOld= 1.00D+10 DXMaxT= 6.41D-01 DXLimC= 3.00D+00 Rises=F
 Variable       Old X    -DE/DX   Delta X   Delta X   Delta X     New X
                                 (Linear)    (Quad)   (Total)
    R1        2.69953  -0.00002   0.00007  -0.00006   0.00001   2.69954
    R2        2.60852   0.00001  -0.00009   0.00005  -0.00003   2.60848
    R3        2.04282   0.00001  -0.00000   0.00001   0.00001   2.04283
    R4        2.69893  -0.00001   0.00002  -0.00003  -0.00002   2.69891
    R5        2.73971  -0.00001  -0.00000  -0.00004  -0.00004   2.73967
    R6        2.59577   0.00000  -0.00004   0.00003  -0.00001   2.59576
    R7        2.05020   0.00001   0.00001   0.00002   0.00003   2.05023
    R8        2.69226  -0.00003   0.00009  -0.00009   0.00000   2.69226
    R9        2.88731  -0.00000  -0.00006   0.00003  -0.00004   2.88727
   R10        2.65983  -0.00002   0.00011  -0.00009   0.00002   2.65985
   R11        2.72617   0.00003  -0.00018   0.00016  -0.00001   2.72615
   R12        2.05171   0.00001  -0.00000   0.00001   0.00001   2.05172
   R13        2.88488  -0.00000  -0.00003   0.00000  -0.00003   2.88485
   R14        2.92304   0.00001   0.00002   0.00001   0.00003   2.92307
   R15        2.92195   0.00000   0.00004  -0.00001   0.00004   2.92198
   R16        2.62236   0.00001  -0.00004   0.00003  -0.00001   2.62236
   R17        2.68195  -0.00002   0.00009  -0.00008   0.00001   2.68196
   R18        2.64710  -0.00001   0.00000  -0.00001  -0.00001   2.64709
   R19        2.05286   0.00000   0.00000   0.00001   0.00001   2.05287
   R20        2.65806  -0.00001   0.00004  -0.00004   0.00001   2.65806
   R21        2.05248   0.00000   0.00000   0.00000   0.00000   2.05249
   R22        2.62355   0.00001  -0.00006   0.00004  -0.00002   2.62353
   R23        2.05128   0.00000  -0.00000   0.00001   0.00000   2.05129
   R24        2.65733  -0.00002   0.00009  -0.00008   0.00002   2.65735
   R25        2.05239   0.00000   0.00000   0.00001   0.00001   2.05240
   R26        2.06929   0.00000   0.00000  -0.00000   0.00000   2.06929
   R27        2.07032   0.00000  -0.00000   0.00000  -0.00000   2.07032
   R28        2.06803   0.00000   0.00000   0.00000   0.00000   2.06804
   R29        2.07045  -0.00000  -0.00000   0.00000  -0.00000   2.07045
   R30        2.06926  -0.00000   0.00000  -0.00000  -0.00000   2.06926
   R31        2.06816   0.00000  -0.00001   0.00001   0.00000   2.06816
   R32        2.73822  -0.00000  -0.00004   0.00002  -0.00002   2.73821
   R33        2.65993  -0.00000   0.00004  -0.00003   0.00001   2.65995
   R34        2.74937   0.00003  -0.00007   0.00009   0.00002   2.74940
   R35        2.52160  -0.00000   0.00001  -0.00001   0.00000   2.52160
   R36        2.63746   0.00001  -0.00005   0.00004  -0.00002   2.63745
   R37        2.04814   0.00000  -0.00000   0.00001   0.00001   2.04815
   R38        2.73418  -0.00001   0.00001  -0.00004  -0.00003   2.73416
   R39        2.52263  -0.00000   0.00000  -0.00000  -0.00000   2.52263
   R40        2.65512  -0.00002   0.00004  -0.00005  -0.00001   2.65511
   R41        2.04821   0.00001  -0.00000   0.00002   0.00002   2.04823
   R42        2.75055  -0.00001   0.00006  -0.00008  -0.00002   2.75053
   R43        3.10151   0.00001   0.00014  -0.00005   0.00010   3.10160
   R44        3.09598   0.00000   0.00014  -0.00006   0.00008   3.09606
   R45        2.67941  -0.00001   0.00002  -0.00003  -0.00001   2.67940
   R46        2.68166  -0.00002  -0.00002  -0.00003  -0.00005   2.68162
   R47        2.61820   0.00000  -0.00004   0.00002  -0.00002   2.61818
   R48        2.04416   0.00001  -0.00000   0.00002   0.00001   2.04417
   R49        2.61398   0.00001   0.00001   0.00001   0.00003   2.61401
   R50        2.05027   0.00001  -0.00001   0.00002   0.00002   2.05029
   R51        2.65870  -0.00000   0.00004  -0.00002   0.00002   2.65872
   R52        2.05363   0.00000  -0.00000   0.00001   0.00001   2.05363
   R53        2.66234  -0.00001  -0.00004  -0.00000  -0.00004   2.66230
   R54        2.05351   0.00000  -0.00001   0.00000  -0.00000   2.05351
   R55        2.84103   0.00000   0.00001  -0.00000   0.00001   2.84103
   R56        2.06859  -0.00000  -0.00002   0.00000  -0.00001   2.06858
   R57        2.07403   0.00001   0.00002   0.00001   0.00003   2.07406
   R58        2.92939  -0.00001   0.00002  -0.00003  -0.00001   2.92938
   R59        2.08730   0.00001   0.00002   0.00001   0.00003   2.08734
   R60        2.07186   0.00000   0.00000   0.00000   0.00001   2.07186
   R61        2.75467  -0.00001  -0.00010   0.00003  -0.00008   2.75459
   R62        1.92447   0.00000  -0.00002   0.00002  -0.00000   1.92447
   R63        1.92251   0.00000  -0.00002   0.00002  -0.00001   1.92251
    A1        2.12045   0.00001  -0.00006   0.00005  -0.00001   2.12043
    A2        2.07736  -0.00000  -0.00007   0.00003  -0.00004   2.07731
    A3        2.08527  -0.00000   0.00013  -0.00007   0.00006   2.08533
    A4        2.06354  -0.00002   0.00006  -0.00007  -0.00001   2.06353
    A5        2.12206   0.00001  -0.00006   0.00006   0.00000   2.12206
    A6        2.09744   0.00001  -0.00001   0.00001   0.00001   2.09745
    A7        2.10181   0.00001   0.00003   0.00001   0.00005   2.10186
    A8        2.09090   0.00000  -0.00022   0.00013  -0.00009   2.09081
    A9        2.08917  -0.00001   0.00018  -0.00013   0.00005   2.08922
   A10        2.09974   0.00000  -0.00010   0.00006  -0.00004   2.09970
   A11        2.25183  -0.00001   0.00019  -0.00012   0.00007   2.25190
   A12        1.93158   0.00001  -0.00009   0.00006  -0.00003   1.93155
   A13        2.09820  -0.00001   0.00006  -0.00005   0.00000   2.09821
   A14        1.89992  -0.00000   0.00006  -0.00004   0.00002   1.89994
   A15        2.28505   0.00001  -0.00012   0.00009  -0.00002   2.28503
   A16        2.08247   0.00001   0.00000   0.00002   0.00002   2.08248
   A17        2.09282  -0.00000   0.00018  -0.00009   0.00009   2.09291
   A18        2.10789  -0.00000  -0.00019   0.00008  -0.00011   2.10778
   A19        1.75901  -0.00000   0.00009  -0.00005   0.00004   1.75905
   A20        1.94370   0.00000  -0.00002   0.00001  -0.00001   1.94369
   A21        1.94643   0.00000  -0.00001   0.00001   0.00000   1.94643
   A22        1.94287   0.00000   0.00001  -0.00000   0.00000   1.94287
   A23        1.94499   0.00000  -0.00002   0.00002  -0.00000   1.94498
   A24        1.92220  -0.00000  -0.00003   0.00000  -0.00003   1.92217
   A25        2.25039  -0.00001   0.00007  -0.00006   0.00001   2.25039
   A26        1.94061   0.00001  -0.00008   0.00006  -0.00002   1.94059
   A27        2.09219   0.00000   0.00002  -0.00000   0.00002   2.09220
   A28        2.07432   0.00000  -0.00001   0.00001   0.00001   2.07433
   A29        2.11579  -0.00000   0.00007  -0.00006   0.00002   2.11580
   A30        2.09307   0.00000  -0.00007   0.00004  -0.00002   2.09305
   A31        2.11706  -0.00001   0.00002  -0.00003  -0.00001   2.11705
   A32        2.08434   0.00000   0.00000   0.00001   0.00001   2.08435
   A33        2.08179   0.00000  -0.00002   0.00002  -0.00001   2.08179
   A34        2.10150  -0.00000  -0.00001   0.00000  -0.00000   2.10150
   A35        2.08672   0.00000  -0.00008   0.00004  -0.00004   2.08667
   A36        2.09497   0.00000   0.00009  -0.00004   0.00004   2.09501
   A37        2.06755   0.00000   0.00002   0.00001   0.00002   2.06757
   A38        2.10490   0.00000   0.00005  -0.00001   0.00004   2.10493
   A39        2.11074  -0.00001  -0.00007   0.00001  -0.00006   2.11068
   A40        1.89354  -0.00001   0.00003  -0.00003  -0.00000   1.89354
   A41        2.27589   0.00001   0.00002   0.00002   0.00004   2.27593
   A42        2.11376  -0.00000  -0.00004   0.00001  -0.00003   2.11372
   A43        1.92628   0.00000   0.00000   0.00001   0.00001   1.92629
   A44        1.93078  -0.00000  -0.00002   0.00001  -0.00001   1.93076
   A45        1.94499  -0.00000  -0.00001  -0.00001  -0.00002   1.94496
   A46        1.88007   0.00000   0.00001   0.00001   0.00002   1.88009
   A47        1.88879   0.00000   0.00000   0.00000   0.00000   1.88879
   A48        1.89105   0.00000   0.00001  -0.00001   0.00001   1.89106
   A49        1.93075  -0.00000  -0.00002   0.00001  -0.00002   1.93073
   A50        1.92683  -0.00000  -0.00002   0.00002  -0.00001   1.92683
   A51        1.94536  -0.00000  -0.00002  -0.00001  -0.00002   1.94534
   A52        1.87877   0.00000   0.00001   0.00001   0.00003   1.87880
   A53        1.89164   0.00000   0.00003  -0.00002   0.00001   1.89164
   A54        1.88855   0.00000   0.00002  -0.00001   0.00001   1.88856
   A55        2.16830   0.00001  -0.00012   0.00011  -0.00001   2.16828
   A56        2.11834   0.00001   0.00002   0.00000   0.00002   2.11836
   A57        1.99654  -0.00002   0.00010  -0.00011  -0.00001   1.99653
   A58        2.11819   0.00001  -0.00003   0.00004   0.00001   2.11819
   A59        2.19187  -0.00001  -0.00002  -0.00002  -0.00004   2.19184
   A60        1.97210   0.00000   0.00005  -0.00002   0.00003   1.97212
   A61        2.16680   0.00001  -0.00007   0.00007  -0.00000   2.16680
   A62        2.07255  -0.00000  -0.00012   0.00006  -0.00006   2.07250
   A63        2.04187  -0.00001   0.00019  -0.00013   0.00006   2.04193
   A64        2.12377   0.00000  -0.00004   0.00003  -0.00001   2.12376
   A65        1.97340   0.00001   0.00003   0.00001   0.00004   1.97344
   A66        2.18516  -0.00001   0.00001  -0.00003  -0.00003   2.18513
   A67        2.16206   0.00001  -0.00004   0.00004   0.00000   2.16206
   A68        2.04761  -0.00001   0.00017  -0.00010   0.00007   2.04769
   A69        2.07185  -0.00000  -0.00014   0.00007  -0.00007   2.07177
   A70        1.99869  -0.00001   0.00007  -0.00007   0.00001   1.99869
   A71        2.16334   0.00002  -0.00011   0.00011  -0.00000   2.16334
   A72        2.12116  -0.00001   0.00003  -0.00004  -0.00001   2.12115
   A73        1.87298  -0.00001  -0.00002  -0.00003  -0.00005   1.87293
   A74        1.87333  -0.00001  -0.00000  -0.00004  -0.00004   1.87328
   A75        1.73292   0.00002  -0.00005   0.00007   0.00002   1.73295
   A76        2.13345   0.00001  -0.00004   0.00004   0.00001   2.13346
   A77        2.09776  -0.00001  -0.00000  -0.00002  -0.00003   2.09773
   A78        2.05175  -0.00000   0.00004  -0.00003   0.00002   2.05177
   A79        2.10741   0.00000  -0.00003   0.00003  -0.00001   2.10741
   A80        2.08895  -0.00000  -0.00003   0.00001  -0.00002   2.08893
   A81        2.08654  -0.00000   0.00006  -0.00003   0.00002   2.08656
   A82        2.11358   0.00000  -0.00001   0.00001   0.00000   2.11358
   A83        2.09456   0.00000  -0.00010   0.00005  -0.00004   2.09452
   A84        2.07402  -0.00000   0.00010  -0.00006   0.00004   2.07406
   A85        2.12107  -0.00000  -0.00002   0.00001  -0.00001   2.12106
   A86        2.08036  -0.00000   0.00010  -0.00007   0.00003   2.08039
   A87        2.08168   0.00000  -0.00008   0.00006  -0.00002   2.08167
   A88        2.11536   0.00000  -0.00004   0.00002  -0.00002   2.11535
   A89        2.08613  -0.00000   0.00010  -0.00007   0.00002   2.08615
   A90        2.08169   0.00000  -0.00006   0.00005  -0.00001   2.08168
   A91        2.05698  -0.00000   0.00005  -0.00004   0.00001   2.05699
   A92        2.11782  -0.00001  -0.00009   0.00000  -0.00009   2.11774
   A93        2.10787   0.00001   0.00004   0.00004   0.00007   2.10794
   A94        1.93194   0.00000   0.00003   0.00001   0.00004   1.93198
   A95        1.91799   0.00000  -0.00003  -0.00001  -0.00004   1.91796
   A96        1.96508  -0.00001   0.00003  -0.00004  -0.00001   1.96506
   A97        1.87295  -0.00000   0.00003  -0.00002   0.00001   1.87296
   A98        1.87719   0.00000  -0.00002   0.00004   0.00002   1.87721
   A99        1.89579   0.00000  -0.00004   0.00002  -0.00002   1.89577
   A100       1.89807  -0.00000  -0.00002   0.00001  -0.00001   1.89806
   A101       1.89954  -0.00000  -0.00006   0.00002  -0.00004   1.89949
   A102       1.91193   0.00000   0.00001   0.00001   0.00002   1.91195
   A103       1.86142  -0.00000  -0.00001  -0.00001  -0.00002   1.86139
   A104       2.00475   0.00000   0.00006  -0.00001   0.00005   2.00480
   A105       1.88535  -0.00000   0.00002  -0.00002  -0.00000   1.88535
   A106       1.93320  -0.00000   0.00007  -0.00007   0.00001   1.93320
   A107       1.93021  -0.00000   0.00013  -0.00009   0.00003   1.93024
   A108       1.86379   0.00000   0.00010  -0.00006   0.00004   1.86383
    D1       -0.01081   0.00000   0.00018  -0.00009   0.00009  -0.01071
    D2        3.11217  -0.00000   0.00010  -0.00006   0.00005   3.11221
    D3       -3.13619  -0.00000   0.00029  -0.00018   0.00010  -3.13608
    D4       -0.01321  -0.00000   0.00021  -0.00015   0.00006  -0.01315
    D5        0.01627  -0.00000   0.00006  -0.00007  -0.00001   0.01626
    D6       -3.12075  -0.00000   0.00014  -0.00012   0.00002  -3.12073
    D7        3.14158   0.00000  -0.00005   0.00003  -0.00002   3.14156
    D8        0.00456  -0.00000   0.00003  -0.00003   0.00000   0.00457
    D9       -0.00516   0.00000  -0.00029   0.00020  -0.00009  -0.00525
   D10       -3.09172   0.00000  -0.00022   0.00010  -0.00012  -3.09184
   D11       -3.12841   0.00000  -0.00021   0.00017  -0.00004  -3.12845
   D12        0.06822   0.00000  -0.00015   0.00007  -0.00008   0.06814
   D13        0.41524   0.00000   0.00066  -0.00040   0.00026   0.41550
   D14       -2.72065  -0.00000   0.00063  -0.00046   0.00017  -2.72048
   D15       -2.74533   0.00000   0.00058  -0.00037   0.00022  -2.74511
   D16        0.40197  -0.00000   0.00055  -0.00043   0.00012   0.40209
   D17        0.01508  -0.00000   0.00016  -0.00016   0.00000   0.01509
   D18       -3.11662  -0.00000   0.00024  -0.00019   0.00005  -3.11657
   D19        3.10170  -0.00000   0.00008  -0.00004   0.00003   3.10173
   D20       -0.03001   0.00000   0.00016  -0.00008   0.00008  -0.02992
   D21       -0.00960   0.00000   0.00009  -0.00000   0.00008  -0.00952
   D22        3.13631   0.00000   0.00008   0.00002   0.00010   3.13641
   D23        3.12378   0.00000   0.00002   0.00002   0.00004   3.12383
   D24       -0.01349   0.00000   0.00001   0.00004   0.00006  -0.01344
   D25       -3.13670  -0.00000  -0.00010  -0.00001  -0.00010  -3.13680
   D26        1.08424  -0.00000  -0.00015   0.00002  -0.00013   1.08411
   D27       -1.07084   0.00000  -0.00008  -0.00000  -0.00008  -1.07092
   D28        0.01402  -0.00000  -0.00002  -0.00003  -0.00006   0.01396
   D29       -2.04823  -0.00000  -0.00007  -0.00001  -0.00008  -2.04831
   D30        2.07988   0.00000  -0.00001  -0.00003  -0.00004   2.07984
   D31       -0.00614   0.00000  -0.00020   0.00012  -0.00008  -0.00622
   D32        3.13084   0.00000  -0.00028   0.00017  -0.00011   3.13073
   D33        3.13004   0.00000  -0.00018   0.00009  -0.00010   3.12995
   D34       -0.01616   0.00000  -0.00026   0.00014  -0.00012  -0.01629
   D35        0.00670  -0.00000   0.00000  -0.00003  -0.00003   0.00667
   D36       -3.13494  -0.00000  -0.00000  -0.00004  -0.00005  -3.13499
   D37       -3.12996  -0.00000  -0.00001  -0.00001  -0.00001  -3.12997
   D38        0.01159  -0.00000  -0.00002  -0.00001  -0.00003   0.01156
   D39        3.13303   0.00000   0.00003   0.00002   0.00005   3.13307
   D40       -0.00993   0.00000   0.00003   0.00001   0.00004  -0.00989
   D41       -1.08730   0.00000   0.00005   0.00001   0.00006  -1.08724
   D42        2.05293   0.00000   0.00005   0.00000   0.00005   2.05298
   D43        1.06612  -0.00000  -0.00000   0.00003   0.00002   1.06614
   D44       -2.07684  -0.00000  -0.00000   0.00002   0.00002  -2.07682
   D45        3.06911  -0.00000   0.00003  -0.00002   0.00001   3.06912
   D46       -1.13504   0.00000   0.00003  -0.00000   0.00003  -1.13501
   D47        0.96998  -0.00000   0.00003  -0.00002   0.00002   0.96999
   D48        1.12109   0.00000  -0.00007   0.00004  -0.00003   1.12106
   D49       -3.08306   0.00000  -0.00007   0.00005  -0.00001  -3.08307
   D50       -0.97804   0.00000  -0.00007   0.00004  -0.00003  -0.97807
   D51       -1.04527  -0.00000  -0.00002   0.00001  -0.00001  -1.04529
   D52        1.03376   0.00000  -0.00002   0.00002   0.00001   1.03377
   D53        3.13878  -0.00000  -0.00002   0.00001  -0.00001   3.13878
   D54        1.13682  -0.00000  -0.00004  -0.00001  -0.00006   1.13676
   D55       -3.06861   0.00000  -0.00006   0.00002  -0.00004  -3.06865
   D56       -0.96917   0.00000  -0.00006   0.00002  -0.00004  -0.96922
   D57        3.08763  -0.00000   0.00005  -0.00006  -0.00001   3.08762
   D58       -1.11780   0.00000   0.00003  -0.00003   0.00001  -1.11779
   D59        0.98164   0.00000   0.00003  -0.00003   0.00000   0.98164
   D60       -1.03041  -0.00000   0.00001  -0.00004  -0.00003  -1.03044
   D61        1.04734   0.00000   0.00000  -0.00001  -0.00001   1.04733
   D62       -3.13641   0.00000  -0.00000  -0.00001  -0.00001  -3.13642
   D63        3.13886  -0.00000   0.00001  -0.00001  -0.00001   3.13886
   D64       -0.00143  -0.00000   0.00001  -0.00001  -0.00001  -0.00143
   D65       -0.00126  -0.00000   0.00001  -0.00000   0.00000  -0.00126
   D66       -3.14155  -0.00000   0.00001  -0.00001   0.00000  -3.14155
   D67        0.00263   0.00000  -0.00002   0.00001  -0.00001   0.00262
   D68       -3.13892   0.00000  -0.00001   0.00002   0.00001  -3.13892
   D69       -3.14019   0.00000  -0.00002   0.00001  -0.00002  -3.14020
   D70        0.00145   0.00000  -0.00001   0.00001  -0.00000   0.00145
   D71        0.00051  -0.00000   0.00000  -0.00000  -0.00000   0.00051
   D72       -3.14054  -0.00000   0.00000  -0.00001  -0.00000  -3.14054
   D73        3.14082  -0.00000   0.00000  -0.00000  -0.00000   3.14081
   D74       -0.00023  -0.00000   0.00000  -0.00000  -0.00000  -0.00023
   D75        0.00011   0.00000  -0.00000   0.00000   0.00000   0.00011
   D76        3.14146   0.00000  -0.00001   0.00001  -0.00000   3.14146
   D77        3.14116   0.00000  -0.00000   0.00000  -0.00000   3.14116
   D78       -0.00068   0.00000  -0.00001   0.00001  -0.00000  -0.00068
   D79        0.00005  -0.00000  -0.00000   0.00000   0.00000   0.00005
   D80        3.14078   0.00000   0.00001  -0.00000   0.00001   3.14079
   D81       -3.14131  -0.00000   0.00000   0.00000   0.00000  -3.14130
   D82       -0.00057   0.00000   0.00001  -0.00001   0.00001  -0.00056
   D83        3.14083   0.00000   0.00002  -0.00000   0.00002   3.14084
   D84       -0.00082  -0.00000   0.00001  -0.00001  -0.00000  -0.00082
   D85        0.00010  -0.00000   0.00001   0.00000   0.00001   0.00011
   D86       -3.14155  -0.00000  -0.00000  -0.00001  -0.00001  -3.14155
   D87       -3.11955   0.00000   0.00019  -0.00005   0.00014  -3.11940
   D88        0.07422   0.00000   0.00027  -0.00005   0.00022   0.07444
   D89        0.01669   0.00000   0.00022   0.00001   0.00023   0.01693
   D90       -3.07272   0.00000   0.00030   0.00001   0.00031  -3.07241
   D91        3.11488  -0.00000  -0.00024   0.00008  -0.00016   3.11472
   D92        0.04275  -0.00000  -0.00010  -0.00006  -0.00016   0.04259
   D93       -0.02154  -0.00000  -0.00027   0.00002  -0.00024  -0.02178
   D94       -3.09367  -0.00000  -0.00013  -0.00012  -0.00024  -3.09391
   D95        0.00400  -0.00000  -0.00002   0.00001  -0.00001   0.00399
   D96       -3.09526  -0.00000   0.00013  -0.00013   0.00001  -3.09525
   D97        3.09950   0.00000  -0.00009   0.00001  -0.00008   3.09942
   D98        0.00025  -0.00000   0.00006  -0.00013  -0.00007   0.00018
   D99        3.09920  -0.00000  -0.00033   0.00025  -0.00008   3.09912
   D100       0.00600  -0.00000  -0.00026   0.00025  -0.00001   0.00600
   D101       0.00492  -0.00000   0.00010  -0.00008   0.00002   0.00494
   D102      -3.07372  -0.00000   0.00021  -0.00021  -0.00000  -3.07372
   D103       3.07817   0.00000  -0.00005   0.00007   0.00002   3.07819
   D104      -0.00047  -0.00000   0.00006  -0.00007  -0.00001  -0.00047
   D105      -0.02034  -0.00000  -0.00016  -0.00006  -0.00021  -0.02055
   D106       3.12002  -0.00000  -0.00010  -0.00002  -0.00012   3.11990
   D107       3.07358  -0.00000  -0.00033   0.00010  -0.00023   3.07336
   D108      -0.06925   0.00000  -0.00027   0.00014  -0.00013  -0.06938
   D109      -0.00638   0.00001   0.00017  -0.00006   0.00011  -0.00627
   D110      -3.10388   0.00000   0.00033  -0.00021   0.00012  -3.10376
   D111       0.01654   0.00000   0.00012   0.00009   0.00021   0.01675
   D112      -3.12385   0.00000   0.00007   0.00005   0.00012  -3.12373
   D113       3.09436   0.00001   0.00002   0.00022   0.00024   3.09460
   D114      -0.04603   0.00000  -0.00003   0.00018   0.00015  -0.04588
   D115      -0.46369  -0.00000  -0.00057   0.00043  -0.00014  -0.46382
   D116       2.70125   0.00000  -0.00062   0.00058  -0.00004   2.70121
   D117       2.67659   0.00000  -0.00051   0.00047  -0.00004   2.67655
   D118      -0.44166   0.00000  -0.00057   0.00062   0.00006  -0.44160
   D119      -0.00873   0.00001   0.00032  -0.00025   0.00006  -0.00867
   D120       0.00887  -0.00001  -0.00028   0.00018  -0.00010   0.00877
   D121      -3.10636   0.00000  -0.00007   0.00009   0.00002  -3.10634
   D122       0.00935   0.00000  -0.00017   0.00018   0.00001   0.00936
   D123       0.01247  -0.00000  -0.00002  -0.00006  -0.00008   0.01240
   D124       3.12818  -0.00000  -0.00011   0.00003  -0.00009   3.12809
   D125       3.12391  -0.00000   0.00016  -0.00018  -0.00002   3.12389
   D126      -0.06678  -0.00000   0.00009  -0.00008   0.00000  -0.06678
   D127       0.00460  -0.00000   0.00010  -0.00004   0.00007   0.00467
   D128       3.09708   0.00000   0.00004   0.00006   0.00009   3.09718
   D129      -0.01608   0.00000  -0.00007   0.00009   0.00002  -0.01606
   D130       3.11307   0.00000  -0.00008   0.00009   0.00001   3.11308
   D131      -3.13182   0.00000   0.00003   0.00000   0.00003  -3.13179
   D132      -0.00267   0.00000   0.00002   0.00000   0.00002  -0.00265
   D133      -0.01849   0.00000  -0.00011   0.00010  -0.00000  -0.01849
   D134       3.12265   0.00000  -0.00014   0.00011  -0.00002   3.12262
   D135      -3.11154  -0.00000  -0.00003   0.00001  -0.00003  -3.11157
   D136       0.02959  -0.00000  -0.00006   0.00002  -0.00005   0.02954
   D137       0.00234   0.00000   0.00007  -0.00002   0.00005   0.00238
   D138      -3.10494  -0.00000   0.00006  -0.00004   0.00001  -3.10493
   D139      -3.12681  -0.00000   0.00008  -0.00003   0.00005  -3.12675
   D140       0.04910  -0.00000   0.00007  -0.00005   0.00002   0.04912
   D141       0.01491  -0.00000   0.00002  -0.00007  -0.00005   0.01485
   D142       3.12239  -0.00000   0.00003  -0.00005  -0.00003   3.12237
   D143      -3.12623  -0.00000   0.00005  -0.00009  -0.00003  -3.12626
   D144      -0.01874  -0.00000   0.00006  -0.00007  -0.00000  -0.01875
   D145      -2.66415  -0.00001  -0.00232  -0.00020  -0.00251  -2.66666
   D146      -0.59844  -0.00001  -0.00227  -0.00022  -0.00250  -0.60093
   D147       1.51727  -0.00001  -0.00234  -0.00023  -0.00256   1.51471
   D148       0.51275  -0.00001  -0.00233  -0.00022  -0.00254   0.51020
   D149       2.57846  -0.00001  -0.00229  -0.00024  -0.00253   2.57594
   D150      -1.58901  -0.00001  -0.00235  -0.00025  -0.00259  -1.59160
   D151      -1.01784   0.00000  -0.00020   0.00020  -0.00000  -1.01784
   D152       1.00359   0.00000  -0.00026   0.00021  -0.00006   1.00353
   D153       3.06139   0.00000  -0.00027   0.00020  -0.00007   3.06132
   D154       3.13237   0.00000  -0.00025   0.00019  -0.00006   3.13232
   D155      -1.12939  -0.00000  -0.00031   0.00019  -0.00011  -1.12950
   D156       0.92842  -0.00000  -0.00032   0.00019  -0.00013   0.92829
   D157       1.11048   0.00000  -0.00025   0.00018  -0.00007   1.11041
   D158       3.13191  -0.00000  -0.00032   0.00019  -0.00013   3.13178
   D159      -1.09347  -0.00000  -0.00033   0.00018  -0.00015  -1.09362
   D160       1.29730  -0.00000  -0.00092  -0.00011  -0.00103   1.29627
   D161      -2.92305  -0.00001  -0.00067  -0.00029  -0.00096  -2.92401
   D162      -0.84450  -0.00000  -0.00095  -0.00012  -0.00107  -0.84557
   D163       1.21833  -0.00001  -0.00069  -0.00031  -0.00100   1.21733
   D164      -2.91924  -0.00000  -0.00098  -0.00009  -0.00107  -2.92031
   D165      -0.85641  -0.00001  -0.00073  -0.00027  -0.00100  -0.85741
         Item               Value     Threshold  Converged?
 Maximum Force            0.000035     0.000450     YES
 RMS     Force            0.000006     0.000300     YES
 Maximum Displacement     0.009614     0.001800     NO 
 RMS     Displacement     0.001227     0.001200     NO 
 Predicted change in Energy=-8.569587D-08
 Lowest energy point so far.  Saving SCF results.
 GradGradGradGradGradGradGradGradGradGradGradGradGradGradGradGradGradGrad

 Leave Link  103 at Thu Mar 14 11:39:31 2024, MaxMem= 32212254720 cpu:               2.7 elap:               0.1
 (Enter /home/<user>/g16/l202.exe)
 Stoichiometry    C29H25N3S(1+,2)
 Framework group  C1[X(C29H25N3S)]
 Deg. of freedom   168
 Full point group                 C1      NOp   1
 RotChk:  IX=0 Diff= 6.08D-04
 Largest Abelian subgroup         C1      NOp   1
 Largest concise Abelian subgroup C1      NOp   1
                         Standard orientation:                         
 ---------------------------------------------------------------------
 Center     Atomic      Atomic             Coordinates (Angstroms)
 Number     Number       Type             X           Y           Z
 ---------------------------------------------------------------------
      1          6           0       -2.437591    1.612810   -0.421903
      2          6           0       -1.785345    0.369392   -0.158849
      3          6           0       -2.596369   -0.781611    0.080310
      4          6           0       -3.966341   -0.683342    0.061822
      5          6           0       -4.593820    0.565492   -0.214592
      6          6           0       -3.813906    1.711271   -0.459687
      7          1           0       -1.836043    2.491129   -0.609777
      8          1           0       -2.128621   -1.728576    0.328400
      9          1           0       -4.282633    2.665235   -0.681141
     10          6           0       -5.012144   -1.767409    0.317778
     11          6           0       -6.300966   -0.971284    0.129048
     12          6           0       -7.615741   -1.405401    0.221768
     13          6           0       -8.648582   -0.483375    0.008958
     14          6           0       -8.375450    0.862558   -0.294926
     15          6           0       -7.064451    1.309113   -0.391245
     16          6           0       -6.024827    0.386441   -0.178456
     17          1           0       -7.852196   -2.439514    0.455900
     18          1           0       -9.681072   -0.812864    0.080211
     19          1           0       -9.197720    1.552976   -0.454593
     20          1           0       -6.849892    2.347488   -0.626447
     21          6           0       -4.902714   -2.327786    1.755365
     22          1           0       -5.704405   -3.049093    1.945306
     23          1           0       -3.947719   -2.845945    1.895919
     24          1           0       -4.975454   -1.530913    2.501905
     25          6           0       -4.901739   -2.916341   -0.711126
     26          1           0       -3.948099   -3.444081   -0.599424
     27          1           0       -5.704426   -3.645044   -0.557123
     28          1           0       -4.971327   -2.542763   -1.737460
     29          6           0       -0.340010    0.256155   -0.154187
     30          6           0        0.563602    1.363125    0.086007
     31          6           0        0.299436   -0.974110   -0.396772
     32          6           0        2.006993    1.184075    0.049251
     33          6           0        1.684307   -1.142834   -0.436495
     34          1           0       -0.308596   -1.840603   -0.629555
     35          6           0        2.606207   -0.102320   -0.232729
     36          1           0        2.058429   -2.126366   -0.696281
     37          7           0        0.200544    2.605170    0.411684
     38          7           0        2.679986    2.297364    0.348715
     39         16           0        1.575499    3.471616    0.641088
     40          6           0        4.041616   -0.331594   -0.307363
     41          6           0        4.954518    0.695715   -0.656098
     42          6           0        4.572043   -1.623317   -0.054780
     43          6           0        6.311040    0.433129   -0.758345
     44          1           0        4.586188    1.690449   -0.868181
     45          6           0        5.930950   -1.867052   -0.140845
     46          1           0        3.914572   -2.428742    0.255337
     47          6           0        6.833661   -0.848034   -0.503486
     48          1           0        6.985068    1.232902   -1.053376
     49          1           0        6.311383   -2.861768    0.075181
     50          6           0        8.311276   -1.117192   -0.570208
     51          1           0        8.502589   -2.164725   -0.823824
     52          1           0        8.767741   -0.502188   -1.356346
     53          6           0        9.031515   -0.821567    0.770265
     54          1           0        8.858988    0.235460    1.040458
     55          1           0        8.571465   -1.426852    1.560228
     56          7           0       10.433537   -1.206567    0.665845
     57          1           0       10.950530   -0.537042    0.098782
     58          1           0       10.871817   -1.214415    1.583909
 ---------------------------------------------------------------------
 Rotational constants (GHZ):           0.3682203           0.0395051           0.0363999
 Leave Link  202 at Thu Mar 14 11:39:31 2024, MaxMem= 32212254720 cpu:               0.1 elap:               0.0
 (Enter /home/<user>/g16/l301.exe)
 Standard basis: 6-31G(d) (6D, 7F)
 Ernie: Thresh=  0.10000D-02 Tol=  0.10000D-05 Strict=F.
 There are   549 symmetry adapted cartesian basis functions of A   symmetry.
 There are   549 symmetry adapted basis functions of A   symmetry.
   549 basis functions,  1048 primitive gaussians,   549 cartesian basis functions
   118 alpha electrons      117 beta electrons
       nuclear repulsion energy      3079.6682876611 Hartrees.
 IExCor=  402 DFT=T Ex+Corr=B3LYP ExCW=0 ScaHFX=  0.200000
 ScaDFX=  0.800000  0.720000  1.000000  0.810000 ScalE2=  1.000000  1.000000
 IRadAn=      5 IRanWt=     -1 IRanGd=            0 ICorTp=0 IEmpDi=  4
 NAtoms=   58 NActive=   58 NUniq=   58 SFac= 1.00D+00 NAtFMM=   60 NAOKFM=F Big=F
 Integral buffers will be    131072 words long.
 Raffenetti 2 integral format.
 Two-electron integral symmetry is turned on.
 Leave Link  301 at Thu Mar 14 11:39:31 2024, MaxMem= 32212254720 cpu:               0.8 elap:               0.0
 (Enter /home/<user>/g16/l302.exe)
 NPDir=0 NMtPBC=     1 NCelOv=     1 NCel=       1 NClECP=     1 NCelD=      1
         NCelK=      1 NCelE2=     1 NClLst=     1 CellRange=     0.0.
 One-electron integrals computed using PRISM.
 One-electron integral symmetry used in STVInt
 NBasis=   549 RedAO= T EigKep=  2.65D-04  NBF=   549
 NBsUse=   549 1.00D-06 EigRej= -1.00D+00 NBFU=   549
 Precomputing XC quadrature grid using
 IXCGrd= 4 IRadAn=           5 IRanWt=          -1 IRanGd=           0 AccXCQ= 0.00D+00.
 Generated NRdTot=       0 NPtTot=           0 NUsed=           0 NTot=          32
 NSgBfM=   512   512   512   512   512 MxSgAt=    58 MxSgA2=    58.
 Leave Link  302 at Thu Mar 14 11:39:32 2024, MaxMem= 32212254720 cpu:              12.7 elap:               0.4
 (Enter /home/<user>/g16/l303.exe)
 DipDrv:  MaxL=1.
 Leave Link  303 at Thu Mar 14 11:39:32 2024, MaxMem= 32212254720 cpu:               1.4 elap:               0.1
 (Enter /home/<user>/g16/l401.exe)
 Initial guess from the checkpoint file:  "FBTP_H0opt.chk"
 B after Tr=     0.000000   -0.000000   -0.000000
         Rot=    1.000000    0.000107   -0.000001    0.000008 Ang=   0.01 deg.
 Guess basis will be translated and rotated to current coordinates.
 JPrj=2 DoOrth=T DoCkMO=T.
 Initial guess <Sx>= 0.0000 <Sy>= 0.0000 <Sz>= 0.5000 <S**2>= 0.7625 S= 0.5062
 Leave Link  401 at Thu Mar 14 11:39:33 2024, MaxMem= 32212254720 cpu:              18.0 elap:               0.6
 (Enter /home/<user>/g16/l502.exe)
 Integral symmetry usage will be decided dynamically.
 UHF open shell SCF:
 Using DIIS extrapolation, IDIIS=  1040.
 NGot= 32212254720 LenX= 32211628124 LenY= 32211326174
 Requested convergence on RMS density matrix=1.00D-08 within 128 cycles.
 Requested convergence on MAX density matrix=1.00D-06.
 Requested convergence on             energy=1.00D-06.
 No special actions if energy rises.
 Fock matrices will be formed incrementally for  20 cycles.

 Cycle   1  Pass 1  IDiag  1:
 FoFJK:  IHMeth= 1 ICntrl=       0 DoSepK=F KAlg= 0 I1Cent=           0 FoldK=F
 IRaf= 550000000 NMat=       1 IRICut=       1 DoRegI=T DoRafI=F ISym2E= 0 IDoP0=0 IntGTp=1.
 FoFCou: FMM=F IPFlag=           0 FMFlag=      100000 FMFlg1=           0
         NFxFlg=           0 DoJE=F BraDBF=F KetDBF=F FulRan=T
         wScrn=  0.000000 ICntrl=         0 IOpCl=  1 I1Cent=           0 NGrid=           0
         NMat0=    1 NMatS0=      1 NMatT0=    0 NMatD0=    1 NMtDS0=    0 NMtDT0=    0
 Symmetry not used in FoFCou.
 E= -1682.36789424073    
 DIIS: error= 8.85D-05 at cycle   1 NSaved=   1.
 NSaved= 1 IEnMin= 1 EnMin= -1682.36789424073     IErMin= 1 ErrMin= 8.85D-05
 ErrMax= 8.85D-05  0.00D+00 EMaxC= 1.00D-01 BMatC= 1.14D-05 BMatP= 1.14D-05
 IDIUse=1 WtCom= 1.00D+00 WtEn= 0.00D+00
 Coeff-Com:  0.100D+01
 Coeff:      0.100D+01
 Gap=     1.962 Goal=   None    Shift=    0.000
 Gap=     1.950 Goal=   None    Shift=    0.000
 RMSDP=5.04D-06 MaxDP=5.13D-04              OVMax= 8.52D-04

 Cycle   2  Pass 1  IDiag  1:
 RMSU=  5.04D-06    CP:  1.00D+00
 E= -1682.36789994344     Delta-E=       -0.000005702711 Rises=F Damp=F
 DIIS: error= 1.20D-05 at cycle   2 NSaved=   2.
 NSaved= 2 IEnMin= 2 EnMin= -1682.36789994344     IErMin= 2 ErrMin= 1.20D-05
 ErrMax= 1.20D-05  0.00D+00 EMaxC= 1.00D-01 BMatC= 1.11D-07 BMatP= 1.14D-05
 IDIUse=1 WtCom= 1.00D+00 WtEn= 0.00D+00
 Coeff-Com: -0.831D-01 0.108D+01
 Coeff:     -0.831D-01 0.108D+01
 Gap=     0.094 Goal=   None    Shift=    0.000
 Gap=     0.029 Goal=   None    Shift=    0.000
 RMSDP=7.89D-07 MaxDP=7.14D-05 DE=-5.70D-06 OVMax= 1.40D-04

 Cycle   3  Pass 1  IDiag  1:
 RMSU=  5.29D-07    CP:  1.00D+00  1.12D+00
 E= -1682.36790000025     Delta-E=       -0.000000056816 Rises=F Damp=F
 DIIS: error= 3.36D-06 at cycle   3 NSaved=   3.
 NSaved= 3 IEnMin= 3 EnMin= -1682.36790000025     IErMin= 3 ErrMin= 3.36D-06
 ErrMax= 3.36D-06  0.00D+00 EMaxC= 1.00D-01 BMatC= 2.75D-08 BMatP= 1.11D-07
 IDIUse=1 WtCom= 1.00D+00 WtEn= 0.00D+00
 Coeff-Com: -0.391D-01 0.465D+00 0.574D+00
 Coeff:     -0.391D-01 0.465D+00 0.574D+00
 Gap=     0.094 Goal=   None    Shift=    0.000
 Gap=     0.029 Goal=   None    Shift=    0.000
 RMSDP=2.65D-07 MaxDP=2.37D-05 DE=-5.68D-08 OVMax= 3.67D-05

 Cycle   4  Pass 1  IDiag  1:
 RMSU=  2.34D-07    CP:  1.00D+00  1.12D+00  7.75D-01
 E= -1682.36790000405     Delta-E=       -0.000000003793 Rises=F Damp=F
 DIIS: error= 2.51D-06 at cycle   4 NSaved=   4.
 NSaved= 4 IEnMin= 4 EnMin= -1682.36790000405     IErMin= 4 ErrMin= 2.51D-06
 ErrMax= 2.51D-06  0.00D+00 EMaxC= 1.00D-01 BMatC= 1.20D-08 BMatP= 2.75D-08
 IDIUse=1 WtCom= 1.00D+00 WtEn= 0.00D+00
 Coeff-Com: -0.136D-01 0.147D+00 0.390D+00 0.477D+00
 Coeff:     -0.136D-01 0.147D+00 0.390D+00 0.477D+00
 Gap=     0.094 Goal=   None    Shift=    0.000
 Gap=     0.029 Goal=   None    Shift=    0.000
 RMSDP=1.46D-07 MaxDP=1.50D-05 DE=-3.79D-09 OVMax= 2.86D-05

 Cycle   5  Pass 1  IDiag  1:
 RMSU=  9.84D-08    CP:  1.00D+00  1.12D+00  8.57D-01  5.79D-01
 E= -1682.36790000628     Delta-E=       -0.000000002238 Rises=F Damp=F
 DIIS: error= 8.85D-07 at cycle   5 NSaved=   5.
 NSaved= 5 IEnMin= 5 EnMin= -1682.36790000628     IErMin= 5 ErrMin= 8.85D-07
 ErrMax= 8.85D-07  0.00D+00 EMaxC= 1.00D-01 BMatC= 2.57D-09 BMatP= 1.20D-08
 IDIUse=1 WtCom= 1.00D+00 WtEn= 0.00D+00
 Coeff-Com: -0.418D-02 0.389D-01 0.198D+00 0.346D+00 0.421D+00
 Coeff:     -0.418D-02 0.389D-01 0.198D+00 0.346D+00 0.421D+00
 Gap=     0.094 Goal=   None    Shift=    0.000
 Gap=     0.029 Goal=   None    Shift=    0.000
 RMSDP=7.08D-08 MaxDP=5.59D-06 DE=-2.24D-09 OVMax= 2.23D-05

 Cycle   6  Pass 1  IDiag  1:
 RMSU=  3.70D-08    CP:  1.00D+00  1.12D+00  8.67D-01  6.71D-01  4.31D-01
 E= -1682.36790000691     Delta-E=       -0.000000000626 Rises=F Damp=F
 DIIS: error= 3.14D-07 at cycle   6 NSaved=   6.
 NSaved= 6 IEnMin= 6 EnMin= -1682.36790000691     IErMin= 6 ErrMin= 3.14D-07
 ErrMax= 3.14D-07  0.00D+00 EMaxC= 1.00D-01 BMatC= 3.41D-10 BMatP= 2.57D-09
 IDIUse=1 WtCom= 1.00D+00 WtEn= 0.00D+00
 Coeff-Com:  0.103D-03-0.515D-02 0.485D-01 0.130D+00 0.295D+00 0.532D+00
 Coeff:      0.103D-03-0.515D-02 0.485D-01 0.130D+00 0.295D+00 0.532D+00
 Gap=     0.094 Goal=   None    Shift=    0.000
 Gap=     0.029 Goal=   None    Shift=    0.000
 RMSDP=2.59D-08 MaxDP=1.95D-06 DE=-6.26D-10 OVMax= 8.47D-06

 Cycle   7  Pass 1  IDiag  1:
 RMSU=  1.33D-08    CP:  1.00D+00  1.12D+00  8.76D-01  6.68D-01  5.45D-01
                    CP:  5.00D-01
 E= -1682.36790000695     Delta-E=       -0.000000000040 Rises=F Damp=F
 DIIS: error= 9.35D-08 at cycle   7 NSaved=   7.
 NSaved= 7 IEnMin= 7 EnMin= -1682.36790000695     IErMin= 7 ErrMin= 9.35D-08
 ErrMax= 9.35D-08  0.00D+00 EMaxC= 1.00D-01 BMatC= 3.55D-11 BMatP= 3.41D-10
 IDIUse=1 WtCom= 1.00D+00 WtEn= 0.00D+00
 Coeff-Com:  0.437D-03-0.664D-02 0.113D-01 0.475D-01 0.142D+00 0.331D+00
 Coeff-Com:  0.474D+00
 Coeff:      0.437D-03-0.664D-02 0.113D-01 0.475D-01 0.142D+00 0.331D+00
 Coeff:      0.474D+00
 Gap=     0.094 Goal=   None    Shift=    0.000
 Gap=     0.029 Goal=   None    Shift=    0.000
 RMSDP=9.76D-09 MaxDP=4.93D-07 DE=-4.00D-11 OVMax= 3.16D-06

 SCF Done:  E(UB3LYP) =  -1682.36790001     A.U. after    7 cycles
            NFock=  7  Conv=0.98D-08     -V/T= 2.0082
 <Sx>= 0.0000 <Sy>= 0.0000 <Sz>= 0.5000 <S**2>= 0.7625 S= 0.5062
 <L.S>= 0.000000000000E+00
 KE= 1.668650721984D+03 PE=-1.005502537655D+04 EE= 3.624338466896D+03
 Annihilation of the first spin contaminant:
 S**2 before annihilation     0.7625,   after     0.7501
 Leave Link  502 at Thu Mar 14 11:39:53 2024, MaxMem= 32212254720 cpu:             627.5 elap:              20.9
 (Enter /home/<user>/g16/l701.exe)
 ... and contract with generalized density number  0.
 Compute integral first derivatives.
 Leave Link  701 at Thu Mar 14 11:39:54 2024, MaxMem= 32212254720 cpu:               5.2 elap:               0.2
 (Enter /home/<user>/g16/l702.exe)
 L702 exits ... SP integral derivatives will be done elsewhere.
 Leave Link  702 at Thu Mar 14 11:39:54 2024, MaxMem= 32212254720 cpu:               0.7 elap:               0.0
 (Enter /home/<user>/g16/l703.exe)
 Integral derivatives from FoFJK, PRISM(SPDF).
 Compute integral first derivatives, UseDBF=F ICtDFT=           0.
 Calling FoFJK, ICntrl=      2127 FMM=F ISym2X=0 I1Cent= 0 IOpClX= 1 NMat=1 NMatS=1 NMatT=0.
 FoFJK:  IHMeth= 1 ICntrl=    2127 DoSepK=F KAlg= 0 I1Cent=           0 FoldK=F
 IRaf=         0 NMat=       1 IRICut=       1 DoRegI=T DoRafI=F ISym2E= 0 IDoP0=0 IntGTp=1.
 FoFCou: FMM=F IPFlag=           0 FMFlag=      100000 FMFlg1=         800
         NFxFlg=           0 DoJE=F BraDBF=F KetDBF=F FulRan=T
         wScrn=  0.000000 ICntrl=      2127 IOpCl=  1 I1Cent=           0 NGrid=           0
         NMat0=    1 NMatS0=      1 NMatT0=    0 NMatD0=    1 NMtDS0=    0 NMtDT0=    0
 Symmetry not used in FoFCou.
 Leave Link  703 at Thu Mar 14 11:40:00 2024, MaxMem= 32212254720 cpu:             198.9 elap:               6.6
 (Enter /home/<user>/g16/l716.exe)
 Dipole        =-8.38426984D-01-1.87305869D-01-6.43526132D-02
 ***** Axes restored to original set *****
 -------------------------------------------------------------------
 Center     Atomic                   Forces (Hartrees/Bohr)
 Number     Number              X              Y              Z
 -------------------------------------------------------------------
      1        6           0.000020741   -0.000024818    0.000005180
      2        6          -0.000005253    0.000008152   -0.000007056
      3        6           0.000021924    0.000006934    0.000001077
      4        6          -0.000028469    0.000037378   -0.000012171
      5        6           0.000057036    0.000011009   -0.000000173
      6        6          -0.000031271   -0.000025521    0.000002077
      7        1          -0.000002655    0.000006491    0.000000477
      8        1          -0.000014389   -0.000005462    0.000005363
      9        1           0.000007730    0.000006853    0.000001448
     10        6           0.000001370   -0.000023157    0.000003882
     11        6           0.000026620    0.000032137   -0.000007747
     12        6          -0.000013782   -0.000000205    0.000000331
     13        6           0.000002761    0.000007217   -0.000001792
     14        6          -0.000013339   -0.000017295    0.000004272
     15        6           0.000027705   -0.000009823    0.000002416
     16        6          -0.000064129   -0.000015111    0.000000912
     17        1           0.000005423   -0.000002081    0.000000937
     18        1           0.000000391   -0.000000504    0.000000086
     19        1           0.000002884    0.000004491   -0.000001411
     20        1          -0.000001920    0.000001900   -0.000001101
     21        6          -0.000001586   -0.000002872    0.000000444
     22        1           0.000000396    0.000000757    0.000000684
     23        1           0.000000491    0.000000677    0.000001365
     24        1           0.000000315    0.000001375    0.000000613
     25        6          -0.000000318   -0.000000833    0.000005868
     26        1           0.000000588    0.000000497   -0.000000796
     27        1           0.000000040    0.000000668   -0.000000133
     28        1           0.000000607   -0.000000427   -0.000001304
     29        6          -0.000016264   -0.000005772    0.000002975
     30        6          -0.000003869    0.000000476    0.000003645
     31        6          -0.000011926    0.000019964   -0.000003427
     32        6           0.000008547   -0.000011640   -0.000002534
     33        6           0.000019916    0.000012390   -0.000001259
     34        1           0.000010411   -0.000006494   -0.000000747
     35        6           0.000009271    0.000003265    0.000003284
     36        1          -0.000012433   -0.000005045    0.000002413
     37        7           0.000009008    0.000003491   -0.000004873
     38        7          -0.000010463    0.000010117   -0.000000220
     39       16          -0.000001015   -0.000015843   -0.000003533
     40        6          -0.000006516   -0.000002732   -0.000004329
     41        6          -0.000002780   -0.000008548    0.000000985
     42        6          -0.000007057    0.000012292   -0.000000849
     43        6           0.000009622   -0.000003705    0.000006194
     44        1           0.000002080    0.000002878    0.000000631
     45        6           0.000007137    0.000004078   -0.000009527
     46        1           0.000008731   -0.000005494    0.000004283
     47        6          -0.000001746   -0.000009419    0.000004896
     48        1          -0.000004955    0.000005441   -0.000000389
     49        1          -0.000005496   -0.000002602    0.000000203
     50        6           0.000009547    0.000002282    0.000012453
     51        1          -0.000001655    0.000000255    0.000001532
     52        1           0.000000167   -0.000003244   -0.000007734
     53        6          -0.000014123    0.000011268   -0.000013025
     54        1          -0.000000551    0.000002423    0.000005930
     55        1          -0.000000186   -0.000002939   -0.000000403
     56        7           0.000002667   -0.000021093   -0.000000882
     57        1           0.000001349    0.000005141   -0.000004973
     58        1           0.000002671    0.000010381    0.000005529
 -------------------------------------------------------------------
 Cartesian Forces:  Max     0.000064129 RMS     0.000011546
 Leave Link  716 at Thu Mar 14 11:40:01 2024, MaxMem= 32212254720 cpu:               0.8 elap:               0.0
 (Enter /home/<user>/g16/l103.exe)

 GradGradGradGradGradGradGradGradGradGradGradGradGradGradGradGradGradGrad
 Berny optimization.
 Using GEDIIS/GDIIS optimizer.
 FormGI is forming the generalized inverse of G from B-inverse, IUseBI=4.
 GSVD:  received Info=                   1 from GESDD.
 Internal  Forces:  Max     0.000037237 RMS     0.000005662
 Search for a local minimum.
 Step number  12 out of a maximum of  346
 All quantities printed in internal units (Hartrees-Bohrs-Radians)
 RMS Force = .56624D-05 SwitMx=.10000D-02 MixMth= 2
 Mixed Optimization -- En-DIIS/RFO-DIIS
 Swapping is turned off.
 Update second derivatives using D2CorX and points    2    3    4    5    6
                                                      7    8    9   10   11
                                                     12
 DE= -1.56D-07 DEPred=-8.57D-08 R= 1.82D+00
 Trust test= 1.82D+00 RLast= 6.81D-03 DXMaxT set to 6.41D-01
 ITU=  0  0  0  1  1  1  1  1  0  1  1  0
     Eigenvalues ---    0.00102   0.00223   0.00230   0.00230   0.00271
     Eigenvalues ---    0.00758   0.01001   0.01090   0.01252   0.01455
     Eigenvalues ---    0.01478   0.01608   0.01629   0.01642   0.01662
     Eigenvalues ---    0.01698   0.01737   0.01755   0.01878   0.01911
     Eigenvalues ---    0.01930   0.02012   0.02044   0.02056   0.02077
     Eigenvalues ---    0.02083   0.02090   0.02094   0.02109   0.02112
     Eigenvalues ---    0.02116   0.02119   0.02133   0.02135   0.02141
     Eigenvalues ---    0.02145   0.02146   0.02150   0.02161   0.02162
     Eigenvalues ---    0.02229   0.02287   0.02333   0.04054   0.04134
     Eigenvalues ---    0.04348   0.04354   0.04809   0.05391   0.05397
     Eigenvalues ---    0.05454   0.05536   0.05539   0.05598   0.06040
     Eigenvalues ---    0.08184   0.08887   0.09254   0.11561   0.12530
     Eigenvalues ---    0.12800   0.15750   0.15925   0.15970   0.15989
     Eigenvalues ---    0.15995   0.15998   0.16000   0.16000   0.16000
     Eigenvalues ---    0.16000   0.16000   0.16000   0.16000   0.16000
     Eigenvalues ---    0.16007   0.16014   0.16019   0.16029   0.16038
     Eigenvalues ---    0.16094   0.17580   0.19554   0.20921   0.21913
     Eigenvalues ---    0.21992   0.22027   0.22119   0.22506   0.22551
     Eigenvalues ---    0.22997   0.23127   0.23931   0.24265   0.24650
     Eigenvalues ---    0.24718   0.24834   0.24949   0.24985   0.24999
     Eigenvalues ---    0.25013   0.25437   0.28061   0.28111   0.28366
     Eigenvalues ---    0.28657   0.29007   0.30554   0.31241   0.32990
     Eigenvalues ---    0.33102   0.33764   0.34013   0.34090   0.34093
     Eigenvalues ---    0.34100   0.34104   0.34110   0.34188   0.34281
     Eigenvalues ---    0.34299   0.34714   0.35038   0.35056   0.35091
     Eigenvalues ---    0.35103   0.35154   0.35174   0.35190   0.35194
     Eigenvalues ---    0.35230   0.35250   0.35294   0.35549   0.35821
     Eigenvalues ---    0.36142   0.36213   0.37706   0.37995   0.39436
     Eigenvalues ---    0.40733   0.41266   0.41364   0.41699   0.42115
     Eigenvalues ---    0.42342   0.42866   0.43062   0.43540   0.44337
     Eigenvalues ---    0.44499   0.44696   0.44814   0.44915   0.45397
     Eigenvalues ---    0.45716   0.45761   0.46049   0.46132   0.46411
     Eigenvalues ---    0.47016   0.47224   0.47587   0.48465   0.51239
     Eigenvalues ---    0.54397   0.55198   0.63944
 En-DIIS/RFO-DIIS/Sim-DIIS IScMMF=       -3 using points:    12   11   10    9    8    7    6    5    4    3
 RFO step:  Lambda=-1.41115903D-07.
 NNeg= 0 NGDIIS=10 SimSw=  2.50D-01 Rises=F DC= -1.56D-07 SmlDif=  1.00D-05
 NRisDI= 0 DoIntr=F SqrtH=F CThrHd= 10.0 CDAdj=  3.0
 RMS Error=  0.4921752104D-03 NUsed=10 OKEnD=F EnDIS=F
 InvSVX:  RCond= 1.26D-08 Info=           0 Equed=N FErr=  5.35D-12 BErr=  8.78D-17
 DIIS inversion failure, remove point  10.
 InvSVX:  RCond= 2.25D-08 Info=           0 Equed=N FErr=  3.16D-12 BErr=  5.84D-17
 DIIS inversion failure, remove point   9.
 InvSVX:  RCond= 2.56D-08 Info=           0 Equed=N FErr=  2.76D-12 BErr=  1.11D-16
 DIIS inversion failure, remove point   8.
 InvSVX:  RCond= 3.02D-08 Info=           0 Equed=N FErr=  2.25D-12 BErr=  2.89D-17
 DIIS inversion failure, remove point   7.
 InvSVX:  RCond= 3.67D-08 Info=           0 Equed=N FErr=  1.73D-12 BErr=  3.27D-17
 DIIS inversion failure, remove point   6.
 InvSVX:  RCond= 4.49D-08 Info=           0 Equed=N FErr=  1.26D-12 BErr=  7.31D-17
 DIIS inversion failure, remove point   5.
 InvSVX:  RCond= 6.68D-08 Info=           0 Equed=N FErr=  8.28D-13 BErr=  8.27D-17
 DIIS inversion failure, remove point   4.
 InvSVX:  RCond= 1.48D-07 Info=           0 Equed=N FErr=  4.06D-13 BErr=  3.07D-17
 RFO-DIIS uses    3 points instead of   10
 DidBck=F Rises=F RFO-DIIS coefs:    1.66959    0.14079   -0.81038    0.00000    0.00000
                  RFO-DIIS coefs:    0.00000    0.00000    0.00000    0.00000    0.00000
 Iteration  1 RMS(Cart)=  0.00141191 RMS(Int)=  0.00000132
 Iteration  2 RMS(Cart)=  0.00000183 RMS(Int)=  0.00000000
 Iteration  3 RMS(Cart)=  0.00000000 RMS(Int)=  0.00000000
 ITry= 1 IFail=0 DXMaxC= 1.07D-02 DCOld= 1.00D+10 DXMaxT= 6.41D-01 DXLimC= 3.00D+00 Rises=F
 Variable       Old X    -DE/DX   Delta X   Delta X   Delta X     New X
                                 (Linear)    (Quad)   (Total)
    R1        2.69954  -0.00002   0.00004  -0.00004  -0.00001   2.69953
    R2        2.60848   0.00001  -0.00006   0.00005  -0.00001   2.60847
    R3        2.04283   0.00000   0.00001   0.00000   0.00001   2.04284
    R4        2.69891  -0.00000  -0.00001  -0.00000  -0.00001   2.69890
    R5        2.73967   0.00000  -0.00003   0.00001  -0.00002   2.73965
    R6        2.59576   0.00001  -0.00002   0.00002  -0.00001   2.59575
    R7        2.05023  -0.00000   0.00002  -0.00000   0.00002   2.05024
    R8        2.69226  -0.00002   0.00004  -0.00007  -0.00003   2.69223
    R9        2.88727   0.00000  -0.00005   0.00003  -0.00002   2.88726
   R10        2.65985  -0.00002   0.00006  -0.00007  -0.00001   2.65984
   R11        2.72615   0.00004  -0.00008   0.00013   0.00004   2.72619
   R12        2.05172   0.00000   0.00001   0.00001   0.00001   2.05173
   R13        2.88485  -0.00000  -0.00003   0.00001  -0.00002   2.88483
   R14        2.92307   0.00000   0.00003   0.00000   0.00003   2.92310
   R15        2.92198  -0.00000   0.00004  -0.00001   0.00003   2.92201
   R16        2.62236   0.00001  -0.00002   0.00002   0.00000   2.62236
   R17        2.68196  -0.00002   0.00005  -0.00007  -0.00002   2.68195
   R18        2.64709  -0.00000  -0.00001  -0.00000  -0.00001   2.64708
   R19        2.05287   0.00000   0.00000   0.00000   0.00001   2.05288
   R20        2.65806  -0.00001   0.00002  -0.00003  -0.00000   2.65806
   R21        2.05249  -0.00000   0.00000  -0.00000   0.00000   2.05249
   R22        2.62353   0.00001  -0.00004   0.00003  -0.00001   2.62352
   R23        2.05129   0.00000   0.00000   0.00000   0.00000   2.05129
   R24        2.65735  -0.00002   0.00005  -0.00006  -0.00001   2.65733
   R25        2.05240   0.00000   0.00001   0.00000   0.00001   2.05241
   R26        2.06929  -0.00000   0.00000  -0.00000  -0.00000   2.06929
   R27        2.07032   0.00000  -0.00000   0.00000  -0.00000   2.07032
   R28        2.06804   0.00000   0.00000   0.00000   0.00000   2.06804
   R29        2.07045   0.00000  -0.00000   0.00000  -0.00000   2.07045
   R30        2.06926  -0.00000  -0.00000  -0.00000  -0.00000   2.06925
   R31        2.06816   0.00000  -0.00000   0.00001   0.00000   2.06817
   R32        2.73821   0.00000  -0.00003   0.00003   0.00000   2.73821
   R33        2.65995  -0.00001   0.00002  -0.00002   0.00001   2.65995
   R34        2.74940   0.00001  -0.00001   0.00006   0.00004   2.74944
   R35        2.52160  -0.00000   0.00000  -0.00000   0.00000   2.52160
   R36        2.63745   0.00001  -0.00003   0.00002  -0.00001   2.63744
   R37        2.04815  -0.00000   0.00001  -0.00000   0.00001   2.04816
   R38        2.73416  -0.00001  -0.00002  -0.00000  -0.00002   2.73414
   R39        2.52263  -0.00000  -0.00000   0.00000   0.00000   2.52264
   R40        2.65511  -0.00001   0.00000  -0.00001  -0.00001   2.65510
   R41        2.04823  -0.00000   0.00001  -0.00000   0.00001   2.04824
   R42        2.75053  -0.00000   0.00001  -0.00001  -0.00000   2.75053
   R43        3.10160  -0.00001   0.00013  -0.00007   0.00006   3.10166
   R44        3.09606  -0.00001   0.00011  -0.00007   0.00004   3.09610
   R45        2.67940  -0.00000   0.00000  -0.00000  -0.00000   2.67940
   R46        2.68162  -0.00000  -0.00004   0.00001  -0.00003   2.68158
   R47        2.61818   0.00000  -0.00003   0.00001  -0.00002   2.61816
   R48        2.04417   0.00000   0.00001   0.00000   0.00001   2.04418
   R49        2.61401   0.00000   0.00002  -0.00000   0.00002   2.61403
   R50        2.05029   0.00000   0.00001  -0.00000   0.00001   2.05030
   R51        2.65872  -0.00000   0.00004  -0.00001   0.00002   2.65874
   R52        2.05363   0.00000   0.00000   0.00000   0.00001   2.05364
   R53        2.66230  -0.00001  -0.00004   0.00000  -0.00004   2.66226
   R54        2.05351   0.00000  -0.00000   0.00000  -0.00000   2.05351
   R55        2.84103  -0.00000   0.00001  -0.00001  -0.00001   2.84103
   R56        2.06858  -0.00000  -0.00002  -0.00000  -0.00002   2.06856
   R57        2.07406   0.00000   0.00003   0.00000   0.00003   2.07409
   R58        2.92938  -0.00001   0.00001  -0.00001  -0.00001   2.92938
   R59        2.08734   0.00000   0.00003  -0.00000   0.00003   2.08737
   R60        2.07186   0.00000   0.00000  -0.00000   0.00000   2.07187
   R61        2.75459   0.00001  -0.00010   0.00004  -0.00006   2.75453
   R62        1.92447   0.00001  -0.00001   0.00001   0.00000   1.92447
   R63        1.92251   0.00001  -0.00002   0.00001  -0.00000   1.92250
    A1        2.12043   0.00001  -0.00004   0.00005   0.00001   2.12044
    A2        2.07731   0.00000  -0.00006   0.00004  -0.00002   2.07730
    A3        2.08533  -0.00001   0.00009  -0.00009   0.00001   2.08533
    A4        2.06353  -0.00001   0.00002  -0.00006  -0.00004   2.06348
    A5        2.12206  -0.00000  -0.00003   0.00004   0.00002   2.12208
    A6        2.09745   0.00001   0.00000   0.00002   0.00003   2.09747
    A7        2.10186  -0.00000   0.00004   0.00000   0.00004   2.10190
    A8        2.09081   0.00002  -0.00015   0.00015  -0.00001   2.09080
    A9        2.08922  -0.00002   0.00011  -0.00015  -0.00004   2.08918
   A10        2.09970   0.00001  -0.00007   0.00005  -0.00002   2.09968
   A11        2.25190  -0.00002   0.00013  -0.00012   0.00000   2.25190
   A12        1.93155   0.00001  -0.00006   0.00007   0.00001   1.93156
   A13        2.09821  -0.00001   0.00003  -0.00004  -0.00001   2.09820
   A14        1.89994  -0.00001   0.00004  -0.00004  -0.00001   1.89994
   A15        2.28503   0.00001  -0.00006   0.00008   0.00002   2.28504
   A16        2.08248   0.00000   0.00001   0.00000   0.00002   2.08250
   A17        2.09291  -0.00001   0.00014  -0.00011   0.00003   2.09294
   A18        2.10778   0.00001  -0.00015   0.00011  -0.00005   2.10774
   A19        1.75905  -0.00001   0.00007  -0.00007  -0.00000   1.75904
   A20        1.94369   0.00000  -0.00001   0.00002   0.00001   1.94370
   A21        1.94643   0.00000  -0.00000   0.00000   0.00000   1.94643
   A22        1.94287   0.00000   0.00001   0.00000   0.00001   1.94288
   A23        1.94498   0.00000  -0.00001   0.00002   0.00001   1.94499
   A24        1.92217  -0.00000  -0.00004   0.00002  -0.00002   1.92215
   A25        2.25039  -0.00001   0.00003  -0.00006  -0.00002   2.25037
   A26        1.94059   0.00001  -0.00005   0.00007   0.00002   1.94061
   A27        2.09220   0.00000   0.00002  -0.00001   0.00001   2.09221
   A28        2.07433  -0.00000   0.00000   0.00000   0.00000   2.07434
   A29        2.11580  -0.00001   0.00004  -0.00005  -0.00001   2.11579
   A30        2.09305   0.00001  -0.00004   0.00005   0.00001   2.09306
   A31        2.11705  -0.00000   0.00000  -0.00001  -0.00001   2.11704
   A32        2.08435   0.00000   0.00001   0.00000   0.00001   2.08436
   A33        2.08179   0.00000  -0.00001   0.00001   0.00000   2.08179
   A34        2.10150  -0.00000  -0.00000   0.00000  -0.00000   2.10150
   A35        2.08667   0.00001  -0.00007   0.00005  -0.00001   2.08666
   A36        2.09501  -0.00001   0.00007  -0.00006   0.00001   2.09502
   A37        2.06757   0.00000   0.00002  -0.00001   0.00001   2.06758
   A38        2.10493  -0.00000   0.00005  -0.00003   0.00002   2.10495
   A39        2.11068   0.00000  -0.00007   0.00004  -0.00003   2.11065
   A40        1.89354  -0.00001   0.00001  -0.00003  -0.00002   1.89352
   A41        2.27593   0.00000   0.00003  -0.00000   0.00003   2.27596
   A42        2.11372   0.00000  -0.00004   0.00003  -0.00001   2.11371
   A43        1.92629   0.00000   0.00000   0.00001   0.00001   1.92630
   A44        1.93076   0.00000  -0.00002   0.00001  -0.00000   1.93076
   A45        1.94496  -0.00000  -0.00002  -0.00000  -0.00002   1.94494
   A46        1.88009  -0.00000   0.00002  -0.00000   0.00001   1.88010
   A47        1.88879   0.00000   0.00000  -0.00000   0.00000   1.88879
   A48        1.89106  -0.00000   0.00001  -0.00001  -0.00000   1.89106
   A49        1.93073   0.00000  -0.00002   0.00001  -0.00001   1.93072
   A50        1.92683   0.00000  -0.00001   0.00001  -0.00000   1.92682
   A51        1.94534   0.00000  -0.00002   0.00000  -0.00002   1.94532
   A52        1.87880   0.00000   0.00002   0.00000   0.00003   1.87883
   A53        1.89164  -0.00000   0.00002  -0.00002  -0.00000   1.89164
   A54        1.88856  -0.00000   0.00002  -0.00001   0.00001   1.88857
   A55        2.16828   0.00000  -0.00007   0.00010   0.00003   2.16831
   A56        2.11836   0.00001   0.00003   0.00000   0.00003   2.11839
   A57        1.99653  -0.00002   0.00004  -0.00010  -0.00006   1.99647
   A58        2.11819   0.00001  -0.00001   0.00003   0.00003   2.11822
   A59        2.19184  -0.00000  -0.00004   0.00001  -0.00003   2.19180
   A60        1.97212  -0.00000   0.00004  -0.00004   0.00001   1.97213
   A61        2.16680   0.00001  -0.00003   0.00007   0.00003   2.16683
   A62        2.07250   0.00001  -0.00009   0.00008  -0.00001   2.07249
   A63        2.04193  -0.00002   0.00012  -0.00014  -0.00002   2.04191
   A64        2.12376   0.00001  -0.00003   0.00004   0.00001   2.12377
   A65        1.97344  -0.00001   0.00004  -0.00004   0.00001   1.97344
   A66        2.18513  -0.00000  -0.00002  -0.00001  -0.00002   2.18511
   A67        2.16206   0.00001  -0.00001   0.00005   0.00003   2.16209
   A68        2.04769  -0.00002   0.00013  -0.00014  -0.00002   2.04767
   A69        2.07177   0.00001  -0.00011   0.00010  -0.00001   2.07176
   A70        1.99869  -0.00001   0.00004  -0.00008  -0.00004   1.99865
   A71        2.16334   0.00001  -0.00005   0.00008   0.00003   2.16337
   A72        2.12115   0.00001   0.00001   0.00001   0.00001   2.12116
   A73        1.87293   0.00000  -0.00005   0.00004  -0.00001   1.87293
   A74        1.87328   0.00000  -0.00004   0.00004  -0.00000   1.87328
   A75        1.73295   0.00000   0.00000  -0.00000  -0.00000   1.73295
   A76        2.13346  -0.00000  -0.00001   0.00002   0.00001   2.13346
   A77        2.09773   0.00001  -0.00002   0.00004   0.00001   2.09774
   A78        2.05177  -0.00001   0.00003  -0.00005  -0.00002   2.05175
   A79        2.10741   0.00001  -0.00002   0.00004   0.00002   2.10742
   A80        2.08893  -0.00000  -0.00003   0.00001  -0.00001   2.08892
   A81        2.08656  -0.00001   0.00004  -0.00005  -0.00000   2.08656
   A82        2.11358   0.00000  -0.00000   0.00002   0.00002   2.11360
   A83        2.09452   0.00001  -0.00007   0.00008   0.00001   2.09453
   A84        2.07406  -0.00001   0.00008  -0.00010  -0.00003   2.07403
   A85        2.12106   0.00000  -0.00002   0.00001  -0.00000   2.12106
   A86        2.08039  -0.00001   0.00006  -0.00007  -0.00001   2.08038
   A87        2.08167   0.00001  -0.00004   0.00006   0.00002   2.08168
   A88        2.11535   0.00000  -0.00003   0.00002  -0.00000   2.11534
   A89        2.08615  -0.00001   0.00006  -0.00006  -0.00001   2.08615
   A90        2.08168   0.00000  -0.00003   0.00004   0.00001   2.08170
   A91        2.05699  -0.00000   0.00003  -0.00004  -0.00000   2.05698
   A92        2.11774  -0.00001  -0.00010   0.00001  -0.00009   2.11765
   A93        2.10794   0.00001   0.00007   0.00003   0.00010   2.10804
   A94        1.93198   0.00000   0.00004  -0.00000   0.00004   1.93202
   A95        1.91796   0.00000  -0.00004  -0.00000  -0.00004   1.91792
   A96        1.96506  -0.00001   0.00000  -0.00003  -0.00002   1.96504
   A97        1.87296  -0.00000   0.00002  -0.00002   0.00000   1.87296
   A98        1.87721   0.00001   0.00001   0.00004   0.00005   1.87726
   A99        1.89577   0.00000  -0.00004   0.00001  -0.00003   1.89574
   A100       1.89806   0.00000  -0.00001   0.00002   0.00001   1.89806
   A101       1.89949   0.00000  -0.00005   0.00002  -0.00004   1.89946
   A102       1.91195  -0.00000   0.00001  -0.00000   0.00001   1.91196
   A103       1.86139  -0.00000  -0.00002   0.00000  -0.00002   1.86137
   A104       2.00480  -0.00000   0.00006  -0.00003   0.00003   2.00483
   A105       1.88535  -0.00000   0.00001  -0.00001   0.00000   1.88535
   A106       1.93320  -0.00000   0.00004  -0.00003   0.00001   1.93321
   A107       1.93024  -0.00001   0.00008  -0.00006   0.00001   1.93026
   A108       1.86383   0.00000   0.00007  -0.00004   0.00003   1.86385
    D1       -0.01071  -0.00000   0.00013  -0.00008   0.00006  -0.01066
    D2        3.11221  -0.00000   0.00008  -0.00006   0.00002   3.11223
    D3       -3.13608  -0.00000   0.00018  -0.00016   0.00002  -3.13606
    D4       -0.01315  -0.00000   0.00013  -0.00015  -0.00001  -0.01317
    D5        0.01626  -0.00000   0.00002  -0.00006  -0.00004   0.01622
    D6       -3.12073  -0.00000   0.00007  -0.00011  -0.00004  -3.12077
    D7        3.14156   0.00000  -0.00003   0.00002  -0.00001   3.14155
    D8        0.00457  -0.00000   0.00002  -0.00003  -0.00001   0.00456
    D9       -0.00525   0.00000  -0.00017   0.00017  -0.00000  -0.00525
   D10       -3.09184   0.00000  -0.00017   0.00013  -0.00004  -3.09189
   D11       -3.12845   0.00000  -0.00013   0.00016   0.00003  -3.12842
   D12        0.06814   0.00000  -0.00012   0.00012  -0.00001   0.06813
   D13        0.41550  -0.00000   0.00043  -0.00036   0.00007   0.41557
   D14       -2.72048  -0.00000   0.00036  -0.00028   0.00008  -2.72040
   D15       -2.74511  -0.00000   0.00038  -0.00035   0.00003  -2.74508
   D16        0.40209   0.00000   0.00031  -0.00027   0.00004   0.40214
   D17        0.01509  -0.00000   0.00007  -0.00013  -0.00006   0.01503
   D18       -3.11657  -0.00000   0.00013  -0.00013  -0.00000  -3.11657
   D19        3.10173  -0.00000   0.00006  -0.00007  -0.00002   3.10172
   D20       -0.02992  -0.00000   0.00012  -0.00008   0.00004  -0.02988
   D21       -0.00952   0.00000   0.00009  -0.00002   0.00007  -0.00944
   D22        3.13641   0.00000   0.00010  -0.00002   0.00007   3.13648
   D23        3.12383  -0.00000   0.00004  -0.00001   0.00003   3.12385
   D24       -0.01344  -0.00000   0.00005  -0.00002   0.00003  -0.01341
   D25       -3.13680  -0.00000  -0.00011   0.00003  -0.00008  -3.13688
   D26        1.08411   0.00000  -0.00015   0.00005  -0.00009   1.08402
   D27       -1.07092   0.00000  -0.00009   0.00001  -0.00007  -1.07099
   D28        0.01396   0.00000  -0.00005   0.00002  -0.00003   0.01393
   D29       -2.04831   0.00000  -0.00009   0.00005  -0.00004  -2.04835
   D30        2.07984   0.00000  -0.00003   0.00001  -0.00002   2.07982
   D31       -0.00622   0.00000  -0.00013   0.00011  -0.00002  -0.00624
   D32        3.13073   0.00000  -0.00019   0.00016  -0.00002   3.13071
   D33        3.12995   0.00000  -0.00014   0.00012  -0.00002   3.12993
   D34       -0.01629   0.00000  -0.00020   0.00017  -0.00003  -0.01631
   D35        0.00667  -0.00000  -0.00002   0.00001  -0.00001   0.00666
   D36       -3.13499  -0.00000  -0.00004   0.00000  -0.00003  -3.13502
   D37       -3.12997   0.00000  -0.00001   0.00000  -0.00001  -3.12998
   D38        0.01156  -0.00000  -0.00003  -0.00000  -0.00003   0.01153
   D39        3.13307  -0.00000   0.00004  -0.00001   0.00003   3.13310
   D40       -0.00989  -0.00000   0.00004  -0.00001   0.00002  -0.00986
   D41       -1.08724   0.00000   0.00007  -0.00003   0.00004  -1.08721
   D42        2.05298   0.00000   0.00006  -0.00003   0.00003   2.05301
   D43        1.06614   0.00000   0.00002   0.00001   0.00002   1.06617
   D44       -2.07682   0.00000   0.00001   0.00001   0.00002  -2.07680
   D45        3.06912  -0.00000   0.00002  -0.00002   0.00000   3.06912
   D46       -1.13501  -0.00000   0.00003  -0.00001   0.00002  -1.13499
   D47        0.96999  -0.00000   0.00003  -0.00002   0.00000   0.97000
   D48        1.12106   0.00000  -0.00005   0.00005  -0.00000   1.12106
   D49       -3.08307   0.00000  -0.00004   0.00006   0.00002  -3.08306
   D50       -0.97807   0.00000  -0.00005   0.00005   0.00000  -0.97806
   D51       -1.04529  -0.00000  -0.00002   0.00001  -0.00001  -1.04529
   D52        1.03377   0.00000  -0.00000   0.00002   0.00001   1.03378
   D53        3.13878  -0.00000  -0.00001   0.00001  -0.00000   3.13877
   D54        1.13676   0.00000  -0.00006   0.00004  -0.00002   1.13674
   D55       -3.06865   0.00000  -0.00005   0.00005   0.00000  -3.06865
   D56       -0.96922   0.00000  -0.00006   0.00005  -0.00000  -0.96922
   D57        3.08762  -0.00000   0.00001  -0.00003  -0.00002   3.08760
   D58       -1.11779  -0.00000   0.00002  -0.00002   0.00000  -1.11779
   D59        0.98164  -0.00000   0.00002  -0.00002  -0.00000   0.98164
   D60       -1.03044  -0.00000  -0.00002  -0.00000  -0.00002  -1.03046
   D61        1.04733   0.00000  -0.00001   0.00001   0.00001   1.04734
   D62       -3.13642  -0.00000  -0.00001   0.00001   0.00000  -3.13642
   D63        3.13886  -0.00000  -0.00000  -0.00001  -0.00001   3.13885
   D64       -0.00143  -0.00000  -0.00000  -0.00001  -0.00001  -0.00144
   D65       -0.00126  -0.00000   0.00000  -0.00001  -0.00000  -0.00127
   D66       -3.14155  -0.00000   0.00000  -0.00001  -0.00000  -3.14155
   D67        0.00262   0.00000  -0.00001   0.00000  -0.00001   0.00261
   D68       -3.13892   0.00000  -0.00000   0.00001   0.00001  -3.13891
   D69       -3.14020   0.00000  -0.00002   0.00000  -0.00001  -3.14022
   D70        0.00145   0.00000  -0.00001   0.00001   0.00000   0.00145
   D71        0.00051   0.00000  -0.00000   0.00000  -0.00000   0.00051
   D72       -3.14054   0.00000   0.00000  -0.00000   0.00000  -3.14054
   D73        3.14081  -0.00000  -0.00000  -0.00000  -0.00000   3.14081
   D74       -0.00023  -0.00000   0.00000  -0.00000  -0.00000  -0.00023
   D75        0.00011   0.00000  -0.00000   0.00001   0.00000   0.00011
   D76        3.14146   0.00000  -0.00000   0.00001   0.00001   3.14147
   D77        3.14116   0.00000  -0.00000   0.00001   0.00000   3.14116
   D78       -0.00068   0.00000  -0.00001   0.00001   0.00000  -0.00067
   D79        0.00005  -0.00000  -0.00000  -0.00000  -0.00000   0.00004
   D80        3.14079  -0.00000   0.00001   0.00000   0.00001   3.14080
   D81       -3.14130  -0.00000   0.00000  -0.00001  -0.00001  -3.14131
   D82       -0.00056  -0.00000   0.00001  -0.00000   0.00001  -0.00056
   D83        3.14084   0.00000   0.00002   0.00000   0.00002   3.14087
   D84       -0.00082  -0.00000   0.00000  -0.00000   0.00000  -0.00082
   D85        0.00011  -0.00000   0.00001  -0.00000   0.00001   0.00012
   D86       -3.14155  -0.00000  -0.00001  -0.00001  -0.00001  -3.14157
   D87       -3.11940   0.00000   0.00019  -0.00003   0.00016  -3.11925
   D88        0.07444  -0.00000   0.00025  -0.00009   0.00016   0.07460
   D89        0.01693  -0.00000   0.00025  -0.00011   0.00015   0.01707
   D90       -3.07241  -0.00000   0.00031  -0.00017   0.00014  -3.07227
   D91        3.11472  -0.00000  -0.00022   0.00009  -0.00013   3.11458
   D92        0.04259  -0.00000  -0.00015  -0.00003  -0.00018   0.04240
   D93       -0.02178   0.00000  -0.00028   0.00016  -0.00012  -0.02190
   D94       -3.09391   0.00000  -0.00021   0.00004  -0.00017  -3.09408
   D95        0.00399  -0.00000  -0.00001  -0.00002  -0.00003   0.00396
   D96       -3.09525  -0.00000   0.00003  -0.00003   0.00000  -3.09525
   D97        3.09942   0.00000  -0.00006   0.00003  -0.00003   3.09939
   D98        0.00018   0.00000  -0.00003   0.00003   0.00000   0.00018
   D99        3.09912   0.00000  -0.00024   0.00021  -0.00002   3.09910
   D100       0.00600  -0.00000  -0.00018   0.00015  -0.00002   0.00597
   D101       0.00494  -0.00000   0.00006  -0.00009  -0.00003   0.00491
   D102      -3.07372  -0.00000   0.00009  -0.00015  -0.00006  -3.07378
   D103       3.07819   0.00000  -0.00002   0.00004   0.00002   3.07821
   D104      -0.00047  -0.00000   0.00002  -0.00003  -0.00001  -0.00049
   D105      -0.02055   0.00000  -0.00022   0.00010  -0.00011  -0.02066
   D106       3.11990  -0.00000  -0.00013   0.00002  -0.00012   3.11979
   D107       3.07336   0.00000  -0.00026   0.00011  -0.00015   3.07321
   D108      -0.06938  -0.00000  -0.00018   0.00002  -0.00015  -0.06953
   D109      -0.00627   0.00000   0.00022  -0.00019   0.00002  -0.00625
   D110      -3.10376  -0.00000   0.00026  -0.00020   0.00005  -3.10371
   D111       0.01675  -0.00000   0.00020  -0.00005   0.00015   0.01690
   D112      -3.12373   0.00000   0.00012   0.00003   0.00015  -3.12358
   D113       3.09460   0.00000   0.00017   0.00001   0.00018   3.09479
   D114      -0.04588   0.00000   0.00009   0.00009   0.00018  -0.04569
   D115      -0.46382   0.00000  -0.00031   0.00027  -0.00004  -0.46386
   D116       2.70121   0.00000  -0.00026   0.00024  -0.00001   2.70120
   D117       2.67655  -0.00000  -0.00022   0.00018  -0.00004   2.67651
   D118      -0.44160  -0.00000  -0.00017   0.00015  -0.00002  -0.44161
   D119      -0.00867   0.00000   0.00027  -0.00024   0.00003  -0.00864
   D120       0.00877  -0.00000  -0.00029   0.00025  -0.00003   0.00874
   D121      -3.10634  -0.00000  -0.00002   0.00001  -0.00000  -3.10634
   D122       0.00936   0.00000  -0.00006   0.00008   0.00002   0.00937
   D123       0.01240   0.00000  -0.00007   0.00004  -0.00003   0.01237
   D124       3.12809   0.00000  -0.00011   0.00010  -0.00001   3.12808
   D125       3.12389  -0.00000   0.00005  -0.00008  -0.00003   3.12386
   D126      -0.06678  -0.00000   0.00004  -0.00007  -0.00003  -0.06681
   D127       0.00467  -0.00000   0.00010  -0.00010  -0.00001   0.00466
   D128       3.09718  -0.00000   0.00009  -0.00009  -0.00000   3.09718
   D129      -0.01606   0.00000  -0.00001   0.00004   0.00003  -0.01603
   D130       3.11308   0.00000  -0.00003   0.00005   0.00002   3.11311
   D131      -3.13179  -0.00000   0.00003  -0.00003   0.00001  -3.13179
   D132      -0.00265  -0.00000   0.00002  -0.00002   0.00000  -0.00265
   D133      -0.01849   0.00000  -0.00005   0.00009   0.00004  -0.01845
   D134       3.12262   0.00000  -0.00008   0.00009   0.00001   3.12263
   D135      -3.11157   0.00000  -0.00004   0.00008   0.00004  -3.11153
   D136       0.02954   0.00000  -0.00007   0.00007   0.00000   0.02955
   D137       0.00238  -0.00000   0.00006  -0.00005   0.00001   0.00239
   D138      -3.10493  -0.00000   0.00003  -0.00002   0.00001  -3.10492
   D139      -3.12675  -0.00000   0.00007  -0.00006   0.00002  -3.12674
   D140       0.04912  -0.00000   0.00004  -0.00003   0.00001   0.04913
   D141       0.01485  -0.00000  -0.00003  -0.00001  -0.00005   0.01481
   D142       3.12237  -0.00000  -0.00000  -0.00004  -0.00005   3.12232
   D143      -3.12626  -0.00000  -0.00000  -0.00001  -0.00001  -3.12627
   D144      -0.01875  -0.00000   0.00002  -0.00004  -0.00001  -0.01876
   D145      -2.66666  -0.00000  -0.00274  -0.00019  -0.00293  -2.66959
   D146      -0.60093  -0.00001  -0.00271  -0.00022  -0.00293  -0.60386
   D147       1.51471  -0.00001  -0.00278  -0.00022  -0.00301   1.51170
   D148       0.51020  -0.00000  -0.00277  -0.00016  -0.00293   0.50727
   D149       2.57594  -0.00001  -0.00274  -0.00019  -0.00293   2.57301
   D150      -1.59160  -0.00001  -0.00281  -0.00019  -0.00301  -1.59461
   D151      -1.01784   0.00000  -0.00008   0.00014   0.00006  -1.01778
   D152       1.00353   0.00000  -0.00014   0.00017   0.00002   1.00355
   D153       3.06132   0.00000  -0.00016   0.00017   0.00001   3.06133
   D154       3.13232   0.00000  -0.00014   0.00013  -0.00001   3.13231
   D155      -1.12950   0.00000  -0.00020   0.00015  -0.00005  -1.12955
   D156       0.92829   0.00000  -0.00022   0.00015  -0.00006   0.92823
   D157       1.11041  -0.00000  -0.00015   0.00013  -0.00002   1.11039
   D158       3.13178  -0.00000  -0.00022   0.00015  -0.00006   3.13172
   D159      -1.09362  -0.00000  -0.00023   0.00015  -0.00008  -1.09369
   D160       1.29627   0.00000  -0.00106   0.00035  -0.00071   1.29556
   D161      -2.92401  -0.00001  -0.00090   0.00023  -0.00066  -2.92467
   D162      -0.84557  -0.00000  -0.00110   0.00034  -0.00075  -0.84632
   D163       1.21733  -0.00001  -0.00093   0.00023  -0.00071   1.21663
   D164      -2.92031  -0.00000  -0.00111   0.00037  -0.00075  -2.92106
   D165      -0.85741  -0.00001  -0.00095   0.00025  -0.00070  -0.85811
         Item               Value     Threshold  Converged?
 Maximum Force            0.000037     0.000450     YES
 RMS     Force            0.000006     0.000300     YES
 Maximum Displacement     0.010694     0.001800     NO 
 RMS     Displacement     0.001412     0.001200     NO 
 Predicted change in Energy=-6.489625D-08
 Lowest energy point so far.  Saving SCF results.
 GradGradGradGradGradGradGradGradGradGradGradGradGradGradGradGradGradGrad

 Leave Link  103 at Thu Mar 14 11:40:01 2024, MaxMem= 32212254720 cpu:               2.7 elap:               0.1
 (Enter /home/<user>/g16/l202.exe)
 Stoichiometry    C29H25N3S(1+,2)
 Framework group  C1[X(C29H25N3S)]
 Deg. of freedom   168
 Full point group                 C1      NOp   1
 RotChk:  IX=0 Diff= 6.11D-04
 Largest Abelian subgroup         C1      NOp   1
 Largest concise Abelian subgroup C1      NOp   1
                         Standard orientation:                         
 ---------------------------------------------------------------------
 Center     Atomic      Atomic             Coordinates (Angstroms)
 Number     Number       Type             X           Y           Z
 ---------------------------------------------------------------------
      1          6           0       -2.437422    1.612635   -0.422288
      2          6           0       -1.785355    0.369233   -0.158735
      3          6           0       -2.596592   -0.781567    0.080648
      4          6           0       -3.966547   -0.683154    0.061911
      5          6           0       -4.593819    0.565673   -0.214923
      6          6           0       -3.813713    1.711261   -0.460264
      7          1           0       -1.835731    2.490819   -0.610362
      8          1           0       -2.129018   -1.728539    0.329079
      9          1           0       -4.282324    2.665209   -0.682059
     10          6           0       -5.012506   -1.767017    0.318036
     11          6           0       -6.301197   -0.970778    0.128973
     12          6           0       -7.616029   -1.404724    0.221708
     13          6           0       -8.648750   -0.482649    0.008568
     14          6           0       -8.375437    0.863168   -0.295659
     15          6           0       -7.064380    1.309539   -0.391999
     16          6           0       -6.024875    0.386820   -0.178879
     17          1           0       -7.852606   -2.438753    0.456103
     18          1           0       -9.681284   -0.811998    0.079828
     19          1           0       -9.197624    1.553633   -0.455572
     20          1           0       -6.849658    2.347829   -0.627457
     21          6           0       -4.903291   -2.327062    1.755788
     22          1           0       -5.705090   -3.048220    1.945836
     23          1           0       -3.948367   -2.845292    1.896566
     24          1           0       -4.976008   -1.529981    2.502112
     25          6           0       -4.902135   -2.916244   -0.710564
     26          1           0       -3.948562   -3.444054   -0.598631
     27          1           0       -5.704932   -3.644802   -0.556454
     28          1           0       -4.971572   -2.542908   -1.736999
     29          6           0       -0.340046    0.255806   -0.153842
     30          6           0        0.563714    1.362694    0.086179
     31          6           0        0.299312   -0.974588   -0.396020
     32          6           0        2.007109    1.183476    0.049480
     33          6           0        1.684160   -1.143477   -0.435655
     34          1           0       -0.308794   -1.841114   -0.628503
     35          6           0        2.606199   -0.103026   -0.232233
     36          1           0        2.058166   -2.127158   -0.695066
     37          7           0        0.200780    2.604833    0.411640
     38          7           0        2.680228    2.296737    0.348770
     39         16           0        1.575854    3.471170    0.640963
     40          6           0        4.041576   -0.332469   -0.306943
     41          6           0        4.954558    0.694639   -0.656061
     42          6           0        4.571905   -1.624161   -0.054079
     43          6           0        6.311035    0.431899   -0.758364
     44          1           0        4.586306    1.689357   -0.868377
     45          6           0        5.930785   -1.868078   -0.140244
     46          1           0        3.914400   -2.429450    0.256336
     47          6           0        6.833556   -0.849261   -0.503217
     48          1           0        6.985104    1.231540   -1.053672
     49          1           0        6.311120   -2.862783    0.075999
     50          6           0        8.311159   -1.118451   -0.570026
     51          1           0        8.502480   -2.166733   -0.820479
     52          1           0        8.767024   -0.505829   -1.358395
     53          6           0        9.032188   -0.818432    0.769041
     54          1           0        8.859636    0.239432    1.035989
     55          1           0        8.572697   -1.421271    1.561198
     56          7           0       10.434171   -1.203559    0.665003
     57          1           0       10.950588   -0.536149    0.094925
     58          1           0       10.873186   -1.207796    1.582739
 ---------------------------------------------------------------------
 Rotational constants (GHZ):           0.3683206           0.0395031           0.0363991
 Leave Link  202 at Thu Mar 14 11:40:01 2024, MaxMem= 32212254720 cpu:               0.0 elap:               0.0
 (Enter /home/<user>/g16/l301.exe)
 Standard basis: 6-31G(d) (6D, 7F)
 Ernie: Thresh=  0.10000D-02 Tol=  0.10000D-05 Strict=F.
 There are   549 symmetry adapted cartesian basis functions of A   symmetry.
 There are   549 symmetry adapted basis functions of A   symmetry.
   549 basis functions,  1048 primitive gaussians,   549 cartesian basis functions
   118 alpha electrons      117 beta electrons
       nuclear repulsion energy      3079.6620617179 Hartrees.
 IExCor=  402 DFT=T Ex+Corr=B3LYP ExCW=0 ScaHFX=  0.200000
 ScaDFX=  0.800000  0.720000  1.000000  0.810000 ScalE2=  1.000000  1.000000
 IRadAn=      5 IRanWt=     -1 IRanGd=            0 ICorTp=0 IEmpDi=  4
 NAtoms=   58 NActive=   58 NUniq=   58 SFac= 1.00D+00 NAtFMM=   60 NAOKFM=F Big=F
 Integral buffers will be    131072 words long.
 Raffenetti 2 integral format.
 Two-electron integral symmetry is turned on.
 Leave Link  301 at Thu Mar 14 11:40:01 2024, MaxMem= 32212254720 cpu:               0.8 elap:               0.0
 (Enter /home/<user>/g16/l302.exe)
 NPDir=0 NMtPBC=     1 NCelOv=     1 NCel=       1 NClECP=     1 NCelD=      1
         NCelK=      1 NCelE2=     1 NClLst=     1 CellRange=     0.0.
 One-electron integrals computed using PRISM.
 One-electron integral symmetry used in STVInt
 NBasis=   549 RedAO= T EigKep=  2.65D-04  NBF=   549
 NBsUse=   549 1.00D-06 EigRej= -1.00D+00 NBFU=   549
 Precomputing XC quadrature grid using
 IXCGrd= 4 IRadAn=           5 IRanWt=          -1 IRanGd=           0 AccXCQ= 0.00D+00.
 Generated NRdTot=       0 NPtTot=           0 NUsed=           0 NTot=          32
 NSgBfM=   512   512   512   512   512 MxSgAt=    58 MxSgA2=    58.
 Leave Link  302 at Thu Mar 14 11:40:01 2024, MaxMem= 32212254720 cpu:              14.0 elap:               0.5
 (Enter /home/<user>/g16/l303.exe)
 DipDrv:  MaxL=1.
 Leave Link  303 at Thu Mar 14 11:40:01 2024, MaxMem= 32212254720 cpu:               1.4 elap:               0.1
 (Enter /home/<user>/g16/l401.exe)
 Initial guess from the checkpoint file:  "FBTP_H0opt.chk"
 B after Tr=    -0.000000    0.000000    0.000000
         Rot=    1.000000    0.000120   -0.000001    0.000009 Ang=   0.01 deg.
 Guess basis will be translated and rotated to current coordinates.
 JPrj=2 DoOrth=T DoCkMO=T.
 Initial guess <Sx>= 0.0000 <Sy>= 0.0000 <Sz>= 0.5000 <S**2>= 0.7625 S= 0.5062
 Leave Link  401 at Thu Mar 14 11:40:02 2024, MaxMem= 32212254720 cpu:              17.2 elap:               0.6
 (Enter /home/<user>/g16/l502.exe)
 Integral symmetry usage will be decided dynamically.
 UHF open shell SCF:
 Using DIIS extrapolation, IDIIS=  1040.
 NGot= 32212254720 LenX= 32211628124 LenY= 32211326174
 Requested convergence on RMS density matrix=1.00D-08 within 128 cycles.
 Requested convergence on MAX density matrix=1.00D-06.
 Requested convergence on             energy=1.00D-06.
 No special actions if energy rises.
 Fock matrices will be formed incrementally for  20 cycles.

 Cycle   1  Pass 1  IDiag  1:
 FoFJK:  IHMeth= 1 ICntrl=       0 DoSepK=F KAlg= 0 I1Cent=           0 FoldK=F
 IRaf= 550000000 NMat=       1 IRICut=       1 DoRegI=T DoRafI=F ISym2E= 0 IDoP0=0 IntGTp=1.
 FoFCou: FMM=F IPFlag=           0 FMFlag=      100000 FMFlg1=           0
         NFxFlg=           0 DoJE=F BraDBF=F KetDBF=F FulRan=T
         wScrn=  0.000000 ICntrl=         0 IOpCl=  1 I1Cent=           0 NGrid=           0
         NMat0=    1 NMatS0=      1 NMatT0=    0 NMatD0=    1 NMtDS0=    0 NMtDT0=    0
 Symmetry not used in FoFCou.
 E= -1682.36789316050    
 DIIS: error= 1.03D-04 at cycle   1 NSaved=   1.
 NSaved= 1 IEnMin= 1 EnMin= -1682.36789316050     IErMin= 1 ErrMin= 1.03D-04
 ErrMax= 1.03D-04  0.00D+00 EMaxC= 1.00D-01 BMatC= 1.38D-05 BMatP= 1.38D-05
 IDIUse=3 WtCom= 9.99D-01 WtEn= 1.03D-03
 Coeff-Com:  0.100D+01
 Coeff-En:   0.100D+01
 Coeff:      0.100D+01
 Gap=     1.962 Goal=   None    Shift=    0.000
 Gap=     1.950 Goal=   None    Shift=    0.000
 RMSDP=5.44D-06 MaxDP=5.36D-04              OVMax= 8.94D-04

 Cycle   2  Pass 1  IDiag  1:
 RMSU=  5.44D-06    CP:  1.00D+00
 E= -1682.36790004699     Delta-E=       -0.000006886497 Rises=F Damp=F
 DIIS: error= 1.25D-05 at cycle   2 NSaved=   2.
 NSaved= 2 IEnMin= 2 EnMin= -1682.36790004699     IErMin= 2 ErrMin= 1.25D-05
 ErrMax= 1.25D-05  0.00D+00 EMaxC= 1.00D-01 BMatC= 1.28D-07 BMatP= 1.38D-05
 IDIUse=1 WtCom= 1.00D+00 WtEn= 0.00D+00
 Coeff-Com: -0.836D-01 0.108D+01
 Coeff:     -0.836D-01 0.108D+01
 Gap=     0.094 Goal=   None    Shift=    0.000
 Gap=     0.029 Goal=   None    Shift=    0.000
 RMSDP=8.27D-07 MaxDP=7.40D-05 DE=-6.89D-06 OVMax= 1.37D-04

 Cycle   3  Pass 1  IDiag  1:
 RMSU=  5.27D-07    CP:  1.00D+00  1.12D+00
 E= -1682.36790011489     Delta-E=       -0.000000067897 Rises=F Damp=F
 DIIS: error= 2.69D-06 at cycle   3 NSaved=   3.
 NSaved= 3 IEnMin= 3 EnMin= -1682.36790011489     IErMin= 3 ErrMin= 2.69D-06
 ErrMax= 2.69D-06  0.00D+00 EMaxC= 1.00D-01 BMatC= 2.30D-08 BMatP= 1.28D-07
 IDIUse=1 WtCom= 1.00D+00 WtEn= 0.00D+00
 Coeff-Com: -0.356D-01 0.422D+00 0.613D+00
 Coeff:     -0.356D-01 0.422D+00 0.613D+00
 Gap=     0.094 Goal=   None    Shift=    0.000
 Gap=     0.029 Goal=   None    Shift=    0.000
 RMSDP=2.82D-07 MaxDP=1.60D-05 DE=-6.79D-08 OVMax= 9.33D-05

 Cycle   4  Pass 1  IDiag  1:
 RMSU=  2.60D-07    CP:  1.00D+00  1.12D+00  8.00D-01
 E= -1682.36790011718     Delta-E=       -0.000000002292 Rises=F Damp=F
 DIIS: error= 1.55D-06 at cycle   4 NSaved=   4.
 NSaved= 4 IEnMin= 4 EnMin= -1682.36790011718     IErMin= 4 ErrMin= 1.55D-06
 ErrMax= 1.55D-06  0.00D+00 EMaxC= 1.00D-01 BMatC= 1.36D-08 BMatP= 2.30D-08
 IDIUse=1 WtCom= 1.00D+00 WtEn= 0.00D+00
 Coeff-Com: -0.122D-01 0.130D+00 0.424D+00 0.458D+00
 Coeff:     -0.122D-01 0.130D+00 0.424D+00 0.458D+00
 Gap=     0.094 Goal=   None    Shift=    0.000
 Gap=     0.029 Goal=   None    Shift=    0.000
 RMSDP=1.70D-07 MaxDP=1.02D-05 DE=-2.29D-09 OVMax= 6.44D-05

 Cycle   5  Pass 1  IDiag  1:
 RMSU=  8.88D-08    CP:  1.00D+00  1.12D+00  9.12D-01  4.94D-01
 E= -1682.36790012032     Delta-E=       -0.000000003140 Rises=F Damp=F
 DIIS: error= 7.62D-07 at cycle   5 NSaved=   5.
 NSaved= 5 IEnMin= 5 EnMin= -1682.36790012032     IErMin= 5 ErrMin= 7.62D-07
 ErrMax= 7.62D-07  0.00D+00 EMaxC= 1.00D-01 BMatC= 2.29D-09 BMatP= 1.36D-08
 IDIUse=1 WtCom= 1.00D+00 WtEn= 0.00D+00
 Coeff-Com: -0.367D-02 0.337D-01 0.213D+00 0.323D+00 0.434D+00
 Coeff:     -0.367D-02 0.337D-01 0.213D+00 0.323D+00 0.434D+00
 Gap=     0.094 Goal=   None    Shift=    0.000
 Gap=     0.029 Goal=   None    Shift=    0.000
 RMSDP=6.44D-08 MaxDP=4.69D-06 DE=-3.14D-09 OVMax= 1.64D-05

 Cycle   6  Pass 1  IDiag  1:
 RMSU=  3.31D-08    CP:  1.00D+00  1.12D+00  9.11D-01  6.00D-01  4.63D-01
 E= -1682.36790012090     Delta-E=       -0.000000000578 Rises=F Damp=F
 DIIS: error= 2.29D-07 at cycle   6 NSaved=   6.
 NSaved= 6 IEnMin= 6 EnMin= -1682.36790012090     IErMin= 6 ErrMin= 2.29D-07
 ErrMax= 2.29D-07  0.00D+00 EMaxC= 1.00D-01 BMatC= 2.92D-10 BMatP= 2.29D-09
 IDIUse=1 WtCom= 1.00D+00 WtEn= 0.00D+00
 Coeff-Com:  0.880D-04-0.428D-02 0.500D-01 0.115D+00 0.292D+00 0.546D+00
 Coeff:      0.880D-04-0.428D-02 0.500D-01 0.115D+00 0.292D+00 0.546D+00
 Gap=     0.094 Goal=   None    Shift=    0.000
 Gap=     0.029 Goal=   None    Shift=    0.000
 RMSDP=2.28D-08 MaxDP=1.49D-06 DE=-5.78D-10 OVMax= 3.92D-06

 Cycle   7  Pass 1  IDiag  1:
 RMSU=  1.33D-08    CP:  1.00D+00  1.12D+00  9.19D-01  6.07D-01  5.67D-01
                    CP:  5.36D-01
 E= -1682.36790012096     Delta-E=       -0.000000000055 Rises=F Damp=F
 DIIS: error= 9.18D-08 at cycle   7 NSaved=   7.
 NSaved= 7 IEnMin= 7 EnMin= -1682.36790012096     IErMin= 7 ErrMin= 9.18D-08
 ErrMax= 9.18D-08  0.00D+00 EMaxC= 1.00D-01 BMatC= 4.04D-11 BMatP= 2.92D-10
 IDIUse=1 WtCom= 1.00D+00 WtEn= 0.00D+00
 Coeff-Com:  0.404D-03-0.600D-02 0.110D-01 0.426D-01 0.146D+00 0.356D+00
 Coeff-Com:  0.450D+00
 Coeff:      0.404D-03-0.600D-02 0.110D-01 0.426D-01 0.146D+00 0.356D+00
 Coeff:      0.450D+00
 Gap=     0.094 Goal=   None    Shift=    0.000
 Gap=     0.029 Goal=   None    Shift=    0.000
 RMSDP=9.32D-09 MaxDP=6.33D-07 DE=-5.46D-11 OVMax= 3.44D-06

 SCF Done:  E(UB3LYP) =  -1682.36790012     A.U. after    7 cycles
            NFock=  7  Conv=0.93D-08     -V/T= 2.0082
 <Sx>= 0.0000 <Sy>= 0.0000 <Sz>= 0.5000 <S**2>= 0.7625 S= 0.5062
 <L.S>= 0.000000000000E+00
 KE= 1.668650690210D+03 PE=-1.005501270215D+04 EE= 3.624332050100D+03
 Annihilation of the first spin contaminant:
 S**2 before annihilation     0.7625,   after     0.7501
 Leave Link  502 at Thu Mar 14 11:40:23 2024, MaxMem= 32212254720 cpu:             626.0 elap:              20.9
 (Enter /home/<user>/g16/l701.exe)
 ... and contract with generalized density number  0.
 Compute integral first derivatives.
 Leave Link  701 at Thu Mar 14 11:40:23 2024, MaxMem= 32212254720 cpu:               5.1 elap:               0.2
 (Enter /home/<user>/g16/l702.exe)
 L702 exits ... SP integral derivatives will be done elsewhere.
 Leave Link  702 at Thu Mar 14 11:40:23 2024, MaxMem= 32212254720 cpu:               0.7 elap:               0.0
 (Enter /home/<user>/g16/l703.exe)
 Integral derivatives from FoFJK, PRISM(SPDF).
 Compute integral first derivatives, UseDBF=F ICtDFT=           0.
 Calling FoFJK, ICntrl=      2127 FMM=F ISym2X=0 I1Cent= 0 IOpClX= 1 NMat=1 NMatS=1 NMatT=0.
 FoFJK:  IHMeth= 1 ICntrl=    2127 DoSepK=F KAlg= 0 I1Cent=           0 FoldK=F
 IRaf=         0 NMat=       1 IRICut=       1 DoRegI=T DoRafI=F ISym2E= 0 IDoP0=0 IntGTp=1.
 FoFCou: FMM=F IPFlag=           0 FMFlag=      100000 FMFlg1=         800
         NFxFlg=           0 DoJE=F BraDBF=F KetDBF=F FulRan=T
         wScrn=  0.000000 ICntrl=      2127 IOpCl=  1 I1Cent=           0 NGrid=           0
         NMat0=    1 NMatS0=      1 NMatT0=    0 NMatD0=    1 NMtDS0=    0 NMtDT0=    0
 Symmetry not used in FoFCou.
 Leave Link  703 at Thu Mar 14 11:40:30 2024, MaxMem= 32212254720 cpu:             201.0 elap:               6.7
 (Enter /home/<user>/g16/l716.exe)
 Dipole        =-8.38364050D-01-1.86594287D-01-6.61638178D-02
 ***** Axes restored to original set *****
 -------------------------------------------------------------------
 Center     Atomic                   Forces (Hartrees/Bohr)
 Number     Number              X              Y              Z
 -------------------------------------------------------------------
      1        6           0.000033339   -0.000013974    0.000007604
      2        6          -0.000018562    0.000007595   -0.000007259
      3        6           0.000033176   -0.000013987    0.000001992
      4        6          -0.000023226    0.000036883   -0.000007698
      5        6           0.000040200    0.000011998   -0.000001598
      6        6          -0.000042467   -0.000015340   -0.000001429
      7        1          -0.000004716    0.000005923    0.000001000
      8        1          -0.000014869   -0.000000492    0.000004529
      9        1           0.000013974    0.000005370    0.000001565
     10        6           0.000004267   -0.000035305    0.000009875
     11        6           0.000021294    0.000023815   -0.000005959
     12        6          -0.000013224   -0.000005742    0.000001443
     13        6           0.000001729    0.000007217   -0.000001905
     14        6          -0.000017260   -0.000015020    0.000003337
     15        6           0.000032927    0.000002258   -0.000000386
     16        6          -0.000049814   -0.000015797    0.000001320
     17        1           0.000005284    0.000000536    0.000000332
     18        1           0.000000645   -0.000000824    0.000000297
     19        1           0.000005334    0.000004586   -0.000001499
     20        1          -0.000005904   -0.000000777   -0.000000744
     21        6          -0.000001819    0.000004568   -0.000004913
     22        1           0.000000952    0.000000775   -0.000000361
     23        1          -0.000000241    0.000000096    0.000001302
     24        1           0.000000429   -0.000000431    0.000000581
     25        6          -0.000001022    0.000008339    0.000006163
     26        1          -0.000000127   -0.000000917   -0.000000245
     27        1           0.000001058   -0.000000012   -0.000000137
     28        1           0.000000286   -0.000001960   -0.000000601
     29        6           0.000005886   -0.000009219    0.000001767
     30        6          -0.000001717    0.000011870    0.000001711
     31        6          -0.000026871    0.000012607    0.000001122
     32        6           0.000004452    0.000000656   -0.000001319
     33        6           0.000027222   -0.000001378   -0.000000201
     34        1           0.000011193   -0.000004739   -0.000003786
     35        6           0.000001977    0.000002483    0.000003143
     36        1          -0.000014587   -0.000001353   -0.000001206
     37        7           0.000023150    0.000005542   -0.000003441
     38        7          -0.000022284    0.000012850    0.000001036
     39       16          -0.000005751   -0.000027461   -0.000008923
     40        6          -0.000006311   -0.000003829   -0.000003174
     41        6          -0.000005278    0.000004862    0.000001195
     42        6          -0.000010046   -0.000000416    0.000000972
     43        6           0.000008654   -0.000001660    0.000002714
     44        1           0.000002649    0.000001264    0.000001246
     45        6           0.000004529    0.000001277   -0.000003873
     46        1           0.000009678   -0.000002484    0.000002738
     47        6           0.000001744   -0.000005610    0.000001129
     48        1          -0.000006220    0.000003008   -0.000000579
     49        1          -0.000004905   -0.000000503    0.000001276
     50        6           0.000013016    0.000000793    0.000012983
     51        1          -0.000002457    0.000000828   -0.000001297
     52        1          -0.000000085   -0.000003440   -0.000003756
     53        6          -0.000030057    0.000016561   -0.000007892
     54        1           0.000002095   -0.000001816    0.000002595
     55        1           0.000001272   -0.000001723    0.000000412
     56        7           0.000011523   -0.000023375   -0.000007827
     57        1           0.000002577    0.000007184   -0.000001768
     58        1           0.000003307    0.000007839    0.000006398
 -------------------------------------------------------------------
 Cartesian Forces:  Max     0.000049814 RMS     0.000011812
 Leave Link  716 at Thu Mar 14 11:40:30 2024, MaxMem= 32212254720 cpu:               0.7 elap:               0.0
 (Enter /home/<user>/g16/l103.exe)

 GradGradGradGradGradGradGradGradGradGradGradGradGradGradGradGradGradGrad
 Berny optimization.
 Using GEDIIS/GDIIS optimizer.
 FormGI is forming the generalized inverse of G from B-inverse, IUseBI=4.
 GSVD:  received Info=                   1 from GESDD.
 Internal  Forces:  Max     0.000024816 RMS     0.000005312
 Search for a local minimum.
 Step number  13 out of a maximum of  346
 All quantities printed in internal units (Hartrees-Bohrs-Radians)
 RMS Force = .53121D-05 SwitMx=.10000D-02 MixMth= 2
 Mixed Optimization -- En-DIIS/RFO-DIIS
 Swapping is turned off.
 Update second derivatives using D2CorX and points    2    3    4    5    6
                                                      7    8    9   10   11
                                                     12   13
 DE= -1.14D-07 DEPred=-6.49D-08 R= 1.76D+00
 Trust test= 1.76D+00 RLast= 7.49D-03 DXMaxT set to 6.41D-01
 ITU=  0  0  0  0  1  1  1  1  1  0  1  1  0
     Eigenvalues ---    0.00094   0.00220   0.00230   0.00230   0.00267
     Eigenvalues ---    0.00758   0.00989   0.01091   0.01253   0.01456
     Eigenvalues ---    0.01478   0.01609   0.01634   0.01643   0.01663
     Eigenvalues ---    0.01696   0.01738   0.01761   0.01879   0.01916
     Eigenvalues ---    0.01931   0.02013   0.02034   0.02047   0.02076
     Eigenvalues ---    0.02081   0.02089   0.02094   0.02108   0.02112
     Eigenvalues ---    0.02112   0.02119   0.02130   0.02135   0.02140
     Eigenvalues ---    0.02142   0.02146   0.02151   0.02156   0.02162
     Eigenvalues ---    0.02174   0.02295   0.02405   0.04051   0.04096
     Eigenvalues ---    0.04349   0.04355   0.04811   0.05392   0.05398
     Eigenvalues ---    0.05455   0.05535   0.05543   0.05607   0.06045
     Eigenvalues ---    0.08144   0.08884   0.09248   0.11558   0.12532
     Eigenvalues ---    0.12804   0.15222   0.15899   0.15950   0.15971
     Eigenvalues ---    0.15991   0.15998   0.16000   0.16000   0.16000
     Eigenvalues ---    0.16000   0.16000   0.16000   0.16000   0.16001
     Eigenvalues ---    0.16008   0.16012   0.16020   0.16030   0.16046
     Eigenvalues ---    0.16112   0.16428   0.19029   0.21133   0.21935
     Eigenvalues ---    0.21983   0.22018   0.22140   0.22493   0.22560
     Eigenvalues ---    0.22997   0.23264   0.23784   0.24212   0.24647
     Eigenvalues ---    0.24734   0.24749   0.24946   0.24958   0.24997
     Eigenvalues ---    0.25006   0.25552   0.28055   0.28063   0.28196
     Eigenvalues ---    0.28698   0.29009   0.30549   0.31238   0.32686
     Eigenvalues ---    0.33127   0.33699   0.33773   0.34016   0.34092
     Eigenvalues ---    0.34100   0.34104   0.34113   0.34129   0.34280
     Eigenvalues ---    0.34296   0.34600   0.35039   0.35056   0.35092
     Eigenvalues ---    0.35112   0.35154   0.35176   0.35191   0.35195
     Eigenvalues ---    0.35232   0.35253   0.35319   0.35602   0.35971
     Eigenvalues ---    0.36174   0.36297   0.37873   0.38072   0.39868
     Eigenvalues ---    0.40318   0.41275   0.41389   0.41723   0.42054
     Eigenvalues ---    0.42323   0.42627   0.43364   0.43679   0.44275
     Eigenvalues ---    0.44480   0.44643   0.44800   0.44962   0.45482
     Eigenvalues ---    0.45696   0.45787   0.46064   0.46207   0.46636
     Eigenvalues ---    0.47020   0.47254   0.47817   0.49167   0.51496
     Eigenvalues ---    0.54370   0.54890   0.63303
 En-DIIS/RFO-DIIS/Sim-DIIS IScMMF=       -3 using points:    13   12   11   10    9    8    7    6    5    4
 RFO step:  Lambda=-6.75941034D-08.
 NNeg= 0 NGDIIS=10 SimSw=  2.50D-01 Rises=F DC= -1.14D-07 SmlDif=  1.00D-05
 NRisDI= 0 DoIntr=F SqrtH=F CThrHd= 10.0 CDAdj=  3.0
 RMS Error=  0.2539385873D-03 NUsed=10 OKEnD=F EnDIS=F
 InvSVX:  RCond= 1.74D-09 Info=           0 Equed=N FErr=  2.30D-11 BErr=  6.39D-17
 DIIS inversion failure, remove point  10.
 InvSVX:  RCond= 3.26D-09 Info=           0 Equed=N FErr=  1.31D-11 BErr=  6.35D-17
 DIIS inversion failure, remove point   9.
 InvSVX:  RCond= 3.87D-09 Info=           0 Equed=N FErr=  1.09D-11 BErr=  1.07D-16
 DIIS inversion failure, remove point   8.
 InvSVX:  RCond= 6.83D-09 Info=           0 Equed=N FErr=  6.01D-12 BErr=  5.85D-17
 DIIS inversion failure, remove point   7.
 InvSVX:  RCond= 9.40D-09 Info=           0 Equed=N FErr=  4.53D-12 BErr=  7.23D-17
 DIIS inversion failure, remove point   6.
 InvSVX:  RCond= 1.59D-08 Info=           0 Equed=N FErr=  2.96D-12 BErr=  6.60D-17
 DIIS inversion failure, remove point   5.
 InvSVX:  RCond= 3.17D-08 Info=           0 Equed=N FErr=  1.23D-12 BErr=  4.41D-17
 DIIS inversion failure, remove point   4.
 InvSVX:  RCond= 5.04D-08 Info=           0 Equed=N FErr=  9.03D-13 BErr=  5.55D-17
 DIIS inversion failure, remove point   3.
 InvSVX:  RCond= 1.40D-05 Info=           0 Equed=N FErr=  2.80D-15 BErr=  7.58D-17
 RFO-DIIS uses    2 points instead of   10
 DidBck=F Rises=F RFO-DIIS coefs:    1.60616   -0.60616    0.00000    0.00000    0.00000
                  RFO-DIIS coefs:    0.00000    0.00000    0.00000    0.00000    0.00000
 Iteration  1 RMS(Cart)=  0.00088162 RMS(Int)=  0.00000051
 Iteration  2 RMS(Cart)=  0.00000075 RMS(Int)=  0.00000000
 ITry= 1 IFail=0 DXMaxC= 6.61D-03 DCOld= 1.00D+10 DXMaxT= 6.41D-01 DXLimC= 3.00D+00 Rises=F
 Variable       Old X    -DE/DX   Delta X   Delta X   Delta X     New X
                                 (Linear)    (Quad)   (Total)
    R1        2.69953  -0.00001  -0.00000  -0.00003  -0.00003   2.69950
    R2        2.60847   0.00002  -0.00001   0.00004   0.00003   2.60850
    R3        2.04284   0.00000   0.00001   0.00000   0.00001   2.04284
    R4        2.69890  -0.00000  -0.00001  -0.00000  -0.00001   2.69889
    R5        2.73965  -0.00000  -0.00001   0.00001   0.00000   2.73965
    R6        2.59575   0.00001  -0.00000   0.00002   0.00002   2.59577
    R7        2.05024  -0.00000   0.00001  -0.00001  -0.00000   2.05024
    R8        2.69223  -0.00001  -0.00002  -0.00003  -0.00005   2.69218
    R9        2.88726   0.00001  -0.00001   0.00003   0.00002   2.88727
   R10        2.65984  -0.00002  -0.00001  -0.00004  -0.00004   2.65979
   R11        2.72619   0.00002   0.00003   0.00006   0.00009   2.72628
   R12        2.05173  -0.00000   0.00001  -0.00000   0.00000   2.05173
   R13        2.88483   0.00000  -0.00001   0.00001   0.00000   2.88483
   R14        2.92310  -0.00001   0.00002  -0.00002  -0.00000   2.92310
   R15        2.92201  -0.00001   0.00002  -0.00003  -0.00001   2.92200
   R16        2.62236   0.00001   0.00000   0.00002   0.00002   2.62238
   R17        2.68195  -0.00001  -0.00001  -0.00003  -0.00004   2.68190
   R18        2.64708   0.00000  -0.00001   0.00000  -0.00000   2.64707
   R19        2.05288  -0.00000   0.00000  -0.00000   0.00000   2.05288
   R20        2.65806  -0.00000  -0.00000  -0.00001  -0.00002   2.65804
   R21        2.05249  -0.00000   0.00000  -0.00000  -0.00000   2.05249
   R22        2.62352   0.00001  -0.00000   0.00003   0.00002   2.62354
   R23        2.05129  -0.00000   0.00000  -0.00000   0.00000   2.05129
   R24        2.65733  -0.00002  -0.00001  -0.00003  -0.00004   2.65729
   R25        2.05241  -0.00000   0.00001  -0.00000   0.00000   2.05242
   R26        2.06929  -0.00000  -0.00000  -0.00000  -0.00000   2.06929
   R27        2.07032   0.00000  -0.00000   0.00000   0.00000   2.07032
   R28        2.06804  -0.00000   0.00000  -0.00000   0.00000   2.06804
   R29        2.07045   0.00000  -0.00000   0.00000   0.00000   2.07045
   R30        2.06925  -0.00000  -0.00000  -0.00000  -0.00000   2.06925
   R31        2.06817   0.00000   0.00000   0.00000   0.00000   2.06817
   R32        2.73821  -0.00000   0.00000   0.00001   0.00001   2.73822
   R33        2.65995  -0.00001   0.00000  -0.00002  -0.00002   2.65994
   R34        2.74944  -0.00000   0.00003   0.00000   0.00003   2.74947
   R35        2.52160  -0.00001   0.00000  -0.00001  -0.00001   2.52160
   R36        2.63744   0.00001  -0.00001   0.00003   0.00002   2.63746
   R37        2.04816  -0.00000   0.00000  -0.00000   0.00000   2.04816
   R38        2.73414  -0.00000  -0.00001   0.00001  -0.00000   2.73414
   R39        2.52264  -0.00001   0.00000  -0.00000  -0.00000   2.52264
   R40        2.65510   0.00000  -0.00001  -0.00000  -0.00001   2.65509
   R41        2.04824  -0.00000   0.00001  -0.00001  -0.00000   2.04824
   R42        2.75053  -0.00000  -0.00000  -0.00000  -0.00000   2.75053
   R43        3.10166  -0.00002   0.00003  -0.00006  -0.00003   3.10163
   R44        3.09610  -0.00002   0.00002  -0.00005  -0.00003   3.09607
   R45        2.67940   0.00000  -0.00000   0.00000   0.00000   2.67940
   R46        2.68158   0.00000  -0.00002   0.00001  -0.00001   2.68158
   R47        2.61816   0.00000  -0.00001   0.00001  -0.00001   2.61815
   R48        2.04418  -0.00000   0.00001  -0.00000   0.00000   2.04419
   R49        2.61403   0.00000   0.00001   0.00000   0.00002   2.61404
   R50        2.05030  -0.00000   0.00001  -0.00001  -0.00000   2.05030
   R51        2.65874   0.00000   0.00001  -0.00000   0.00001   2.65876
   R52        2.05364  -0.00000   0.00000  -0.00000   0.00000   2.05364
   R53        2.66226   0.00000  -0.00002   0.00000  -0.00002   2.66224
   R54        2.05351  -0.00000  -0.00000  -0.00000  -0.00000   2.05351
   R55        2.84103   0.00000  -0.00000   0.00000   0.00000   2.84103
   R56        2.06856  -0.00000  -0.00001  -0.00000  -0.00001   2.06855
   R57        2.07409   0.00000   0.00002  -0.00000   0.00002   2.07411
   R58        2.92938  -0.00001  -0.00000  -0.00003  -0.00003   2.92935
   R59        2.08737  -0.00000   0.00002  -0.00001   0.00001   2.08737
   R60        2.07187   0.00000   0.00000  -0.00000   0.00000   2.07187
   R61        2.75453   0.00002  -0.00004   0.00006   0.00002   2.75455
   R62        1.92447   0.00001   0.00000   0.00001   0.00001   1.92449
   R63        1.92250   0.00001  -0.00000   0.00001   0.00001   1.92252
    A1        2.12044   0.00000   0.00001   0.00002   0.00002   2.12047
    A2        2.07730   0.00001  -0.00001   0.00004   0.00003   2.07732
    A3        2.08533  -0.00001   0.00000  -0.00005  -0.00005   2.08528
    A4        2.06348   0.00000  -0.00003  -0.00000  -0.00003   2.06345
    A5        2.12208  -0.00001   0.00001  -0.00001   0.00000   2.12208
    A6        2.09747   0.00001   0.00002   0.00001   0.00003   2.09750
    A7        2.10190  -0.00001   0.00003  -0.00003  -0.00001   2.10189
    A8        2.09080   0.00002  -0.00000   0.00010   0.00009   2.09090
    A9        2.08918  -0.00001  -0.00002  -0.00006  -0.00009   2.08909
   A10        2.09968   0.00001  -0.00001   0.00004   0.00003   2.09972
   A11        2.25190  -0.00002   0.00000  -0.00008  -0.00008   2.25183
   A12        1.93156   0.00001   0.00001   0.00004   0.00004   1.93161
   A13        2.09820  -0.00000  -0.00001  -0.00001  -0.00002   2.09818
   A14        1.89994  -0.00001  -0.00000  -0.00002  -0.00003   1.89991
   A15        2.28504   0.00001   0.00001   0.00004   0.00005   2.28509
   A16        2.08250  -0.00000   0.00001  -0.00001   0.00000   2.08250
   A17        2.09294  -0.00001   0.00002  -0.00008  -0.00007   2.09288
   A18        2.10774   0.00002  -0.00003   0.00009   0.00006   2.10780
   A19        1.75904  -0.00001  -0.00000  -0.00004  -0.00004   1.75900
   A20        1.94370   0.00000   0.00000   0.00001   0.00002   1.94371
   A21        1.94643   0.00000   0.00000  -0.00000  -0.00000   1.94643
   A22        1.94288   0.00000   0.00000   0.00000   0.00000   1.94289
   A23        1.94499   0.00000   0.00001   0.00001   0.00001   1.94500
   A24        1.92215  -0.00000  -0.00001   0.00002   0.00001   1.92216
   A25        2.25037  -0.00001  -0.00001  -0.00002  -0.00004   2.25033
   A26        1.94061   0.00001   0.00001   0.00003   0.00004   1.94065
   A27        2.09221  -0.00000   0.00000  -0.00001  -0.00000   2.09220
   A28        2.07434  -0.00000   0.00000  -0.00000   0.00000   2.07434
   A29        2.11579  -0.00000  -0.00001  -0.00003  -0.00004   2.11576
   A30        2.09306   0.00001   0.00000   0.00003   0.00003   2.09309
   A31        2.11704  -0.00000  -0.00001  -0.00001  -0.00001   2.11703
   A32        2.08436   0.00000   0.00001  -0.00000   0.00000   2.08436
   A33        2.08179   0.00000   0.00000   0.00001   0.00001   2.08180
   A34        2.10150   0.00000  -0.00000   0.00000   0.00000   2.10150
   A35        2.08666   0.00001  -0.00001   0.00004   0.00003   2.08670
   A36        2.09502  -0.00001   0.00001  -0.00004  -0.00004   2.09499
   A37        2.06758  -0.00000   0.00001  -0.00001  -0.00000   2.06758
   A38        2.10495  -0.00000   0.00001  -0.00003  -0.00002   2.10494
   A39        2.11065   0.00001  -0.00002   0.00004   0.00002   2.11067
   A40        1.89352  -0.00000  -0.00001  -0.00001  -0.00002   1.89350
   A41        2.27596  -0.00000   0.00002  -0.00002   0.00000   2.27596
   A42        2.11371   0.00001  -0.00001   0.00002   0.00002   2.11373
   A43        1.92630  -0.00000   0.00001  -0.00001   0.00000   1.92630
   A44        1.93076   0.00000  -0.00000   0.00001   0.00001   1.93077
   A45        1.94494   0.00000  -0.00001   0.00001  -0.00000   1.94494
   A46        1.88010  -0.00000   0.00001  -0.00001   0.00000   1.88010
   A47        1.88879   0.00000   0.00000   0.00000   0.00000   1.88879
   A48        1.89106  -0.00000  -0.00000  -0.00000  -0.00000   1.89105
   A49        1.93072   0.00000  -0.00000   0.00001   0.00000   1.93073
   A50        1.92682   0.00000  -0.00000   0.00001   0.00000   1.92683
   A51        1.94532   0.00000  -0.00001   0.00001   0.00000   1.94532
   A52        1.87883  -0.00000   0.00002  -0.00001   0.00001   1.87883
   A53        1.89164  -0.00000  -0.00000  -0.00001  -0.00001   1.89163
   A54        1.88857  -0.00000   0.00000  -0.00001  -0.00000   1.88856
   A55        2.16831  -0.00001   0.00002   0.00001   0.00003   2.16834
   A56        2.11839   0.00001   0.00002   0.00000   0.00002   2.11842
   A57        1.99647   0.00000  -0.00004  -0.00001  -0.00005   1.99642
   A58        2.11822   0.00000   0.00002   0.00000   0.00002   2.11824
   A59        2.19180  -0.00000  -0.00002   0.00001  -0.00001   2.19180
   A60        1.97213  -0.00000   0.00000  -0.00001  -0.00001   1.97212
   A61        2.16683  -0.00000   0.00002   0.00001   0.00003   2.16686
   A62        2.07249   0.00001  -0.00001   0.00006   0.00006   2.07254
   A63        2.04191  -0.00001  -0.00001  -0.00007  -0.00008   2.04182
   A64        2.12377   0.00000   0.00001   0.00001   0.00002   2.12379
   A65        1.97344  -0.00001   0.00000  -0.00003  -0.00002   1.97342
   A66        2.18511   0.00000  -0.00001   0.00002   0.00000   2.18511
   A67        2.16209  -0.00000   0.00002   0.00001   0.00002   2.16212
   A68        2.04767  -0.00001  -0.00001  -0.00008  -0.00009   2.04758
   A69        2.07176   0.00001  -0.00001   0.00008   0.00007   2.07183
   A70        1.99865  -0.00000  -0.00003  -0.00002  -0.00005   1.99860
   A71        2.16337  -0.00001   0.00002   0.00001   0.00003   2.16340
   A72        2.12116   0.00001   0.00001   0.00000   0.00001   2.12118
   A73        1.87293   0.00000  -0.00000   0.00002   0.00001   1.87294
   A74        1.87328   0.00000  -0.00000   0.00002   0.00002   1.87330
   A75        1.73295   0.00000  -0.00000  -0.00000  -0.00000   1.73295
   A76        2.13346  -0.00001   0.00000  -0.00000  -0.00000   2.13346
   A77        2.09774   0.00001   0.00001   0.00002   0.00003   2.09778
   A78        2.05175  -0.00000  -0.00001  -0.00002  -0.00003   2.05172
   A79        2.10742   0.00000   0.00001   0.00001   0.00002   2.10744
   A80        2.08892   0.00000  -0.00001   0.00001   0.00001   2.08893
   A81        2.08656  -0.00000  -0.00000  -0.00002  -0.00002   2.08653
   A82        2.11360  -0.00000   0.00001   0.00000   0.00001   2.11362
   A83        2.09453   0.00001   0.00001   0.00005   0.00006   2.09459
   A84        2.07403  -0.00001  -0.00002  -0.00005  -0.00007   2.07396
   A85        2.12106   0.00000  -0.00000   0.00001   0.00001   2.12106
   A86        2.08038  -0.00001  -0.00001  -0.00004  -0.00005   2.08033
   A87        2.08168   0.00001   0.00001   0.00003   0.00004   2.08173
   A88        2.11534   0.00000  -0.00000   0.00002   0.00001   2.11536
   A89        2.08615  -0.00001  -0.00000  -0.00004  -0.00004   2.08611
   A90        2.08170   0.00000   0.00001   0.00002   0.00003   2.08172
   A91        2.05698  -0.00000  -0.00000  -0.00002  -0.00002   2.05696
   A92        2.11765  -0.00000  -0.00005   0.00001  -0.00005   2.11760
   A93        2.10804   0.00000   0.00006   0.00001   0.00007   2.10811
   A94        1.93202  -0.00000   0.00002  -0.00001   0.00001   1.93203
   A95        1.91792   0.00000  -0.00002   0.00000  -0.00002   1.91790
   A96        1.96504  -0.00000  -0.00002  -0.00000  -0.00002   1.96502
   A97        1.87296  -0.00000   0.00000  -0.00002  -0.00002   1.87295
   A98        1.87726   0.00000   0.00003   0.00003   0.00006   1.87732
   A99        1.89574   0.00000  -0.00002   0.00000  -0.00001   1.89573
   A100       1.89806   0.00000   0.00000   0.00002   0.00003   1.89809
   A101       1.89946   0.00000  -0.00002   0.00001  -0.00001   1.89945
   A102       1.91196  -0.00000   0.00001  -0.00001  -0.00001   1.91195
   A103       1.86137  -0.00000  -0.00001   0.00001  -0.00001   1.86136
   A104       2.00483  -0.00000   0.00002  -0.00002   0.00000   2.00484
   A105       1.88535   0.00000   0.00000  -0.00001  -0.00001   1.88534
   A106       1.93321  -0.00000   0.00000  -0.00004  -0.00003   1.93317
   A107       1.93026  -0.00000   0.00001  -0.00004  -0.00003   1.93022
   A108       1.86385  -0.00000   0.00002  -0.00005  -0.00003   1.86382
    D1       -0.01066  -0.00000   0.00003  -0.00009  -0.00006  -0.01072
    D2        3.11223  -0.00000   0.00001  -0.00005  -0.00004   3.11219
    D3       -3.13606  -0.00000   0.00001  -0.00012  -0.00010  -3.13616
    D4       -0.01317  -0.00000  -0.00001  -0.00008  -0.00008  -0.01325
    D5        0.01622   0.00000  -0.00003   0.00000  -0.00002   0.01620
    D6       -3.12077  -0.00000  -0.00002  -0.00004  -0.00007  -3.12084
    D7        3.14155   0.00000  -0.00001   0.00003   0.00002   3.14157
    D8        0.00456  -0.00000  -0.00000  -0.00002  -0.00002   0.00454
    D9       -0.00525   0.00000  -0.00000   0.00011   0.00011  -0.00514
   D10       -3.09189   0.00000  -0.00003   0.00011   0.00008  -3.09180
   D11       -3.12842   0.00000   0.00002   0.00007   0.00009  -3.12833
   D12        0.06813   0.00000  -0.00000   0.00007   0.00006   0.06820
   D13        0.41557  -0.00001   0.00004  -0.00031  -0.00027   0.41530
   D14       -2.72040  -0.00000   0.00005  -0.00026  -0.00021  -2.72061
   D15       -2.74508  -0.00000   0.00002  -0.00027  -0.00025  -2.74534
   D16        0.40214  -0.00000   0.00003  -0.00022  -0.00019   0.40194
   D17        0.01503  -0.00000  -0.00004  -0.00004  -0.00007   0.01495
   D18       -3.11657  -0.00000  -0.00000  -0.00008  -0.00008  -3.11665
   D19        3.10172  -0.00000  -0.00001  -0.00003  -0.00004   3.10167
   D20       -0.02988  -0.00000   0.00002  -0.00007  -0.00005  -0.02993
   D21       -0.00944  -0.00000   0.00004  -0.00005  -0.00001  -0.00945
   D22        3.13648  -0.00000   0.00004  -0.00006  -0.00001   3.13647
   D23        3.12385  -0.00000   0.00002  -0.00002  -0.00001   3.12384
   D24       -0.01341  -0.00000   0.00002  -0.00003  -0.00001  -0.01342
   D25       -3.13688   0.00000  -0.00005   0.00006   0.00001  -3.13687
   D26        1.08402   0.00000  -0.00006   0.00008   0.00002   1.08404
   D27       -1.07099   0.00000  -0.00004   0.00005   0.00000  -1.07099
   D28        0.01393   0.00000  -0.00002   0.00003   0.00001   0.01394
   D29       -2.04835   0.00000  -0.00002   0.00004   0.00002  -2.04833
   D30        2.07982  -0.00000  -0.00001   0.00001  -0.00000   2.07982
   D31       -0.00624   0.00000  -0.00001   0.00007   0.00006  -0.00618
   D32        3.13071   0.00000  -0.00001   0.00012   0.00010   3.13081
   D33        3.12993   0.00000  -0.00001   0.00007   0.00006   3.12999
   D34       -0.01631   0.00000  -0.00002   0.00012   0.00010  -0.01621
   D35        0.00666   0.00000  -0.00001   0.00001   0.00001   0.00666
   D36       -3.13502   0.00000  -0.00002   0.00002  -0.00000  -3.13502
   D37       -3.12998   0.00000  -0.00000   0.00001   0.00000  -3.12998
   D38        0.01153   0.00000  -0.00002   0.00001  -0.00000   0.01153
   D39        3.13310  -0.00000   0.00002  -0.00002  -0.00001   3.13310
   D40       -0.00986  -0.00000   0.00001  -0.00002  -0.00001  -0.00987
   D41       -1.08721   0.00000   0.00002  -0.00003  -0.00001  -1.08721
   D42        2.05301   0.00000   0.00002  -0.00003  -0.00001   2.05301
   D43        1.06617   0.00000   0.00002  -0.00000   0.00001   1.06618
   D44       -2.07680   0.00000   0.00001  -0.00000   0.00001  -2.07679
   D45        3.06912  -0.00000   0.00000  -0.00001  -0.00001   3.06911
   D46       -1.13499  -0.00000   0.00001  -0.00002  -0.00000  -1.13500
   D47        0.97000  -0.00000   0.00000  -0.00001  -0.00001   0.96999
   D48        1.12106   0.00000  -0.00000   0.00003   0.00003   1.12108
   D49       -3.08306   0.00000   0.00001   0.00002   0.00003  -3.08302
   D50       -0.97806   0.00000   0.00000   0.00003   0.00003  -0.97804
   D51       -1.04529   0.00000  -0.00000   0.00001   0.00001  -1.04529
   D52        1.03378  -0.00000   0.00001   0.00000   0.00001   1.03379
   D53        3.13877  -0.00000  -0.00000   0.00001   0.00001   3.13878
   D54        1.13674   0.00000  -0.00001   0.00003   0.00002   1.13676
   D55       -3.06865   0.00000   0.00000   0.00003   0.00003  -3.06862
   D56       -0.96922   0.00000  -0.00000   0.00003   0.00003  -0.96919
   D57        3.08760  -0.00000  -0.00001  -0.00001  -0.00002   3.08758
   D58       -1.11779  -0.00000   0.00000  -0.00001  -0.00001  -1.11780
   D59        0.98164  -0.00000  -0.00000  -0.00001  -0.00001   0.98163
   D60       -1.03046  -0.00000  -0.00001   0.00001  -0.00000  -1.03047
   D61        1.04734  -0.00000   0.00000   0.00000   0.00001   1.04735
   D62       -3.13642  -0.00000   0.00000   0.00001   0.00001  -3.13641
   D63        3.13885   0.00000  -0.00001   0.00000  -0.00001   3.13884
   D64       -0.00144   0.00000  -0.00000   0.00000  -0.00000  -0.00144
   D65       -0.00127  -0.00000  -0.00000  -0.00000  -0.00001  -0.00127
   D66       -3.14155  -0.00000  -0.00000  -0.00000  -0.00000  -3.14156
   D67        0.00261   0.00000  -0.00001   0.00001   0.00000   0.00261
   D68       -3.13891   0.00000   0.00000   0.00000   0.00001  -3.13890
   D69       -3.14022   0.00000  -0.00001   0.00001   0.00000  -3.14022
   D70        0.00145   0.00000   0.00000   0.00000   0.00001   0.00146
   D71        0.00051   0.00000  -0.00000   0.00000   0.00000   0.00051
   D72       -3.14054   0.00000   0.00000  -0.00000   0.00000  -3.14054
   D73        3.14081  -0.00000  -0.00000   0.00000   0.00000   3.14081
   D74       -0.00023  -0.00000  -0.00000  -0.00000  -0.00000  -0.00023
   D75        0.00011   0.00000   0.00000  -0.00000   0.00000   0.00012
   D76        3.14147   0.00000   0.00000   0.00000   0.00000   3.14147
   D77        3.14116   0.00000   0.00000   0.00000   0.00000   3.14116
   D78       -0.00067   0.00000   0.00000   0.00000   0.00001  -0.00067
   D79        0.00004   0.00000  -0.00000   0.00000  -0.00000   0.00004
   D80        3.14080  -0.00000   0.00001  -0.00001  -0.00000   3.14079
   D81       -3.14131   0.00000  -0.00000  -0.00000  -0.00000  -3.14131
   D82       -0.00056  -0.00000   0.00000  -0.00001  -0.00000  -0.00056
   D83        3.14087  -0.00000   0.00001  -0.00001   0.00000   3.14087
   D84       -0.00082  -0.00000   0.00000  -0.00000  -0.00000  -0.00082
   D85        0.00012   0.00000   0.00001  -0.00000   0.00000   0.00012
   D86       -3.14157   0.00000  -0.00001   0.00000  -0.00000  -3.14157
   D87       -3.11925  -0.00000   0.00010  -0.00008   0.00002  -3.11923
   D88        0.07460  -0.00000   0.00009  -0.00016  -0.00007   0.07453
   D89        0.01707  -0.00000   0.00009  -0.00013  -0.00004   0.01703
   D90       -3.07227  -0.00000   0.00009  -0.00021  -0.00012  -3.07239
   D91        3.11458   0.00000  -0.00008   0.00010   0.00002   3.11460
   D92        0.04240   0.00000  -0.00011   0.00007  -0.00004   0.04236
   D93       -0.02190   0.00000  -0.00007   0.00015   0.00007  -0.02183
   D94       -3.09408   0.00000  -0.00010   0.00012   0.00001  -3.09407
   D95        0.00396   0.00000  -0.00002   0.00000  -0.00002   0.00394
   D96       -3.09525  -0.00000   0.00000  -0.00005  -0.00005  -3.09530
   D97        3.09939   0.00000  -0.00002   0.00007   0.00006   3.09945
   D98        0.00018   0.00000   0.00000   0.00002   0.00002   0.00020
   D99        3.09910   0.00000  -0.00001   0.00003   0.00002   3.09912
   D100       0.00597  -0.00000  -0.00001  -0.00004  -0.00006   0.00592
   D101       0.00491  -0.00000  -0.00002  -0.00003  -0.00005   0.00486
   D102      -3.07378  -0.00000  -0.00004  -0.00004  -0.00008  -3.07386
   D103       3.07821  -0.00000   0.00001   0.00000   0.00001   3.07822
   D104      -0.00049  -0.00000  -0.00001  -0.00001  -0.00002  -0.00051
   D105      -0.02066   0.00000  -0.00007   0.00011   0.00004  -0.02062
   D106       3.11979   0.00000  -0.00007   0.00005  -0.00002   3.11977
   D107       3.07321   0.00000  -0.00009   0.00017   0.00008   3.07329
   D108      -0.06953   0.00000  -0.00009   0.00011   0.00002  -0.06951
   D109      -0.00625  -0.00000   0.00001   0.00002   0.00003  -0.00623
   D110      -3.10371  -0.00000   0.00003  -0.00004  -0.00001  -3.10372
   D111       0.01690  -0.00000   0.00009  -0.00010  -0.00001   0.01689
   D112      -3.12358  -0.00000   0.00009  -0.00004   0.00005  -3.12353
   D113       3.09479  -0.00000   0.00011  -0.00010   0.00002   3.09480
   D114      -0.04569  -0.00000   0.00011  -0.00003   0.00008  -0.04562
   D115      -0.46386   0.00000  -0.00002   0.00017   0.00015  -0.46371
   D116       2.70120   0.00000  -0.00001   0.00013   0.00012   2.70132
   D117       2.67651   0.00000  -0.00003   0.00011   0.00008   2.67659
   D118      -0.44161  -0.00000  -0.00001   0.00006   0.00005  -0.44156
   D119      -0.00864  -0.00000   0.00002   0.00005   0.00006  -0.00857
   D120       0.00874   0.00000  -0.00002  -0.00004  -0.00005   0.00868
   D121      -3.10634  -0.00000  -0.00000   0.00001   0.00001  -3.10634
   D122       0.00937   0.00000   0.00001   0.00002   0.00003   0.00941
   D123       0.01237   0.00000  -0.00002   0.00005   0.00003   0.01240
   D124       3.12808   0.00000  -0.00000   0.00007   0.00006   3.12815
   D125       3.12386  -0.00000  -0.00002  -0.00001  -0.00003   3.12383
   D126      -0.06681  -0.00000  -0.00002  -0.00003  -0.00005  -0.06685
   D127       0.00466  -0.00000  -0.00000  -0.00005  -0.00006   0.00460
   D128       3.09718  -0.00000  -0.00000  -0.00007  -0.00007   3.09711
   D129      -0.01603  -0.00000   0.00002  -0.00001   0.00001  -0.01603
   D130       3.11311  -0.00000   0.00001  -0.00001   0.00001   3.11312
   D131      -3.13179  -0.00000   0.00000  -0.00003  -0.00002  -3.13181
   D132      -0.00265  -0.00000   0.00000  -0.00002  -0.00002  -0.00267
   D133      -0.01845   0.00000   0.00003   0.00001   0.00004  -0.01841
   D134       3.12263   0.00000   0.00001   0.00002   0.00002   3.12265
   D135      -3.11153   0.00000   0.00002   0.00003   0.00005  -3.11148
   D136       0.02955   0.00000   0.00000   0.00003   0.00003   0.02958
   D137       0.00239  -0.00000   0.00000  -0.00003  -0.00002   0.00237
   D138      -3.10492  -0.00000   0.00000  -0.00001  -0.00001  -3.10493
   D139      -3.12674  -0.00000   0.00001  -0.00003  -0.00002  -3.12676
   D140       0.04913  -0.00000   0.00001  -0.00002  -0.00001   0.04912
   D141       0.01481   0.00000  -0.00003   0.00003  -0.00000   0.01481
   D142       3.12232   0.00000  -0.00003   0.00001  -0.00002   3.12230
   D143      -3.12627   0.00000  -0.00001   0.00002   0.00002  -3.12626
   D144      -0.01876   0.00000  -0.00001   0.00001  -0.00000  -0.01876
   D145      -2.66959  -0.00000  -0.00178  -0.00004  -0.00182  -2.67141
   D146      -0.60386  -0.00000  -0.00178  -0.00007  -0.00185  -0.60571
   D147       1.51170  -0.00000  -0.00182  -0.00007  -0.00189   1.50981
   D148       0.50727  -0.00000  -0.00178  -0.00002  -0.00180   0.50548
   D149       2.57301  -0.00000  -0.00178  -0.00005  -0.00183   2.57118
   D150      -1.59461  -0.00000  -0.00182  -0.00005  -0.00187  -1.59649
   D151      -1.01778  -0.00000   0.00004   0.00007   0.00010  -1.01767
   D152       1.00355   0.00000   0.00001   0.00009   0.00011   1.00366
   D153       3.06133  -0.00000   0.00001   0.00008   0.00009   3.06141
   D154       3.13231  -0.00000  -0.00000   0.00006   0.00006   3.13237
   D155      -1.12955   0.00000  -0.00003   0.00009   0.00006  -1.12949
   D156       0.92823   0.00000  -0.00004   0.00008   0.00004   0.92827
   D157       1.11039  -0.00000  -0.00001   0.00007   0.00006   1.11045
   D158       3.13172   0.00000  -0.00004   0.00009   0.00006   3.13177
   D159      -1.09369  -0.00000  -0.00005   0.00008   0.00004  -1.09366
   D160       1.29556   0.00000  -0.00043   0.00017  -0.00026   1.29531
   D161      -2.92467  -0.00000  -0.00040   0.00006  -0.00034  -2.92501
   D162      -0.84632   0.00000  -0.00046   0.00017  -0.00029  -0.84661
   D163       1.21663  -0.00000  -0.00043   0.00006  -0.00037   1.21625
   D164      -2.92106   0.00000  -0.00045   0.00017  -0.00028  -2.92134
   D165      -0.85811  -0.00000  -0.00042   0.00006  -0.00036  -0.85847
         Item               Value     Threshold  Converged?
 Maximum Force            0.000025     0.000450     YES
 RMS     Force            0.000005     0.000300     YES
 Maximum Displacement     0.006615     0.001800     NO 
 RMS     Displacement     0.000882     0.001200     YES
 Predicted change in Energy=-3.379736D-08
 Lowest energy point so far.  Saving SCF results.
 GradGradGradGradGradGradGradGradGradGradGradGradGradGradGradGradGradGrad

 Leave Link  103 at Thu Mar 14 11:40:30 2024, MaxMem= 32212254720 cpu:               2.8 elap:               0.1
 (Enter /home/<user>/g16/l202.exe)
 Stoichiometry    C29H25N3S(1+,2)
 Framework group  C1[X(C29H25N3S)]
 Deg. of freedom   168
 Full point group                 C1      NOp   1
 RotChk:  IX=0 Diff= 2.20D-04
 Largest Abelian subgroup         C1      NOp   1
 Largest concise Abelian subgroup C1      NOp   1
                         Standard orientation:                         
 ---------------------------------------------------------------------
 Center     Atomic      Atomic             Coordinates (Angstroms)
 Number     Number       Type             X           Y           Z
 ---------------------------------------------------------------------
      1          6           0       -2.437354    1.612638   -0.421977
      2          6           0       -1.785389    0.369193   -0.158470
      3          6           0       -2.596744   -0.781525    0.080875
      4          6           0       -3.966697   -0.682986    0.062012
      5          6           0       -4.593857    0.565870   -0.214818
      6          6           0       -3.813650    1.711390   -0.460020
      7          1           0       -1.835618    2.490821   -0.609935
      8          1           0       -2.129364   -1.728579    0.329358
      9          1           0       -4.282102    2.665438   -0.681728
     10          6           0       -5.012700   -1.766848    0.318004
     11          6           0       -6.301331   -0.970531    0.128848
     12          6           0       -7.616187   -1.404462    0.221444
     13          6           0       -8.648874   -0.482362    0.008259
     14          6           0       -8.375500    0.863454   -0.295876
     15          6           0       -7.064412    1.309801   -0.392079
     16          6           0       -6.024969    0.387055   -0.178915
     17          1           0       -7.852765   -2.438507    0.455770
     18          1           0       -9.681420   -0.811697    0.079410
     19          1           0       -9.197630    1.553978   -0.455831
     20          1           0       -6.849659    2.348102   -0.627470
     21          6           0       -4.903647   -2.326959    1.755741
     22          1           0       -5.705484   -3.048103    1.945677
     23          1           0       -3.948751   -2.845218    1.896601
     24          1           0       -4.976420   -1.529905    2.502091
     25          6           0       -4.902266   -2.916025   -0.710638
     26          1           0       -3.948720   -3.443873   -0.598641
     27          1           0       -5.705106   -3.644561   -0.556651
     28          1           0       -4.971581   -2.542637   -1.737064
     29          6           0       -0.340088    0.255656   -0.153563
     30          6           0        0.563794    1.362511    0.086190
     31          6           0        0.299200   -0.974807   -0.395528
     32          6           0        2.007188    1.183166    0.049498
     33          6           0        1.684044   -1.143825   -0.435121
     34          1           0       -0.308905   -1.841382   -0.627830
     35          6           0        2.606195   -0.103437   -0.231921
     36          1           0        2.057872   -2.127634   -0.694300
     37          7           0        0.200982    2.604774    0.411299
     38          7           0        2.680380    2.296470    0.348467
     39         16           0        1.576115    3.471046    0.640409
     40          6           0        4.041548   -0.333027   -0.306640
     41          6           0        4.954622    0.693960   -0.655882
     42          6           0        4.571799   -1.624718   -0.053635
     43          6           0        6.311073    0.431105   -0.758201
     44          1           0        4.586469    1.688704   -0.868258
     45          6           0        5.930662   -1.868762   -0.139845
     46          1           0        3.914306   -2.429953    0.256946
     47          6           0        6.833510   -0.850078   -0.502957
     48          1           0        6.985156    1.230701   -1.053602
     49          1           0        6.310884   -2.863488    0.076500
     50          6           0        8.311101   -1.119317   -0.569814
     51          1           0        8.502397   -2.168048   -0.818374
     52          1           0        8.766618   -0.508155   -1.359531
     53          6           0        9.032601   -0.816650    0.768384
     54          1           0        8.860010    0.241693    1.033417
     55          1           0        8.573502   -1.418059    1.561857
     56          7           0       10.434605   -1.201793    0.664529
     57          1           0       10.950632   -0.535511    0.092768
     58          1           0       10.874037   -1.203902    1.582080
 ---------------------------------------------------------------------
 Rotational constants (GHZ):           0.3683731           0.0395020           0.0363981
 Leave Link  202 at Thu Mar 14 11:40:30 2024, MaxMem= 32212254720 cpu:               0.1 elap:               0.0
 (Enter /home/<user>/g16/l301.exe)
 Standard basis: 6-31G(d) (6D, 7F)
 Ernie: Thresh=  0.10000D-02 Tol=  0.10000D-05 Strict=F.
 There are   549 symmetry adapted cartesian basis functions of A   symmetry.
 There are   549 symmetry adapted basis functions of A   symmetry.
   549 basis functions,  1048 primitive gaussians,   549 cartesian basis functions
   118 alpha electrons      117 beta electrons
       nuclear repulsion energy      3079.6564214200 Hartrees.
 IExCor=  402 DFT=T Ex+Corr=B3LYP ExCW=0 ScaHFX=  0.200000
 ScaDFX=  0.800000  0.720000  1.000000  0.810000 ScalE2=  1.000000  1.000000
 IRadAn=      5 IRanWt=     -1 IRanGd=            0 ICorTp=0 IEmpDi=  4
 NAtoms=   58 NActive=   58 NUniq=   58 SFac= 1.00D+00 NAtFMM=   60 NAOKFM=F Big=F
 Integral buffers will be    131072 words long.
 Raffenetti 2 integral format.
 Two-electron integral symmetry is turned on.
 Leave Link  301 at Thu Mar 14 11:40:30 2024, MaxMem= 32212254720 cpu:               0.8 elap:               0.0
 (Enter /home/<user>/g16/l302.exe)
 NPDir=0 NMtPBC=     1 NCelOv=     1 NCel=       1 NClECP=     1 NCelD=      1
         NCelK=      1 NCelE2=     1 NClLst=     1 CellRange=     0.0.
 One-electron integrals computed using PRISM.
 One-electron integral symmetry used in STVInt
 NBasis=   549 RedAO= T EigKep=  2.65D-04  NBF=   549
 NBsUse=   549 1.00D-06 EigRej= -1.00D+00 NBFU=   549
 Precomputing XC quadrature grid using
 IXCGrd= 4 IRadAn=           5 IRanWt=          -1 IRanGd=           0 AccXCQ= 0.00D+00.
 Generated NRdTot=       0 NPtTot=           0 NUsed=           0 NTot=          32
 NSgBfM=   512   512   512   512   512 MxSgAt=    58 MxSgA2=    58.
 Leave Link  302 at Thu Mar 14 11:40:31 2024, MaxMem= 32212254720 cpu:              12.7 elap:               0.4
 (Enter /home/<user>/g16/l303.exe)
 DipDrv:  MaxL=1.
 Leave Link  303 at Thu Mar 14 11:40:31 2024, MaxMem= 32212254720 cpu:               1.4 elap:               0.1
 (Enter /home/<user>/g16/l401.exe)
 Initial guess from the checkpoint file:  "FBTP_H0opt.chk"
 B after Tr=     0.000000   -0.000000   -0.000000
         Rot=    1.000000    0.000063   -0.000001    0.000005 Ang=   0.01 deg.
 Guess basis will be translated and rotated to current coordinates.
 JPrj=2 DoOrth=T DoCkMO=T.
 Initial guess <Sx>= 0.0000 <Sy>= 0.0000 <Sz>= 0.5000 <S**2>= 0.7625 S= 0.5062
 Leave Link  401 at Thu Mar 14 11:40:31 2024, MaxMem= 32212254720 cpu:              19.0 elap:               0.6
 (Enter /home/<user>/g16/l502.exe)
 Integral symmetry usage will be decided dynamically.
 UHF open shell SCF:
 Using DIIS extrapolation, IDIIS=  1040.
 NGot= 32212254720 LenX= 32211628124 LenY= 32211326174
 Requested convergence on RMS density matrix=1.00D-08 within 128 cycles.
 Requested convergence on MAX density matrix=1.00D-06.
 Requested convergence on             energy=1.00D-06.
 No special actions if energy rises.
 Fock matrices will be formed incrementally for  20 cycles.

 Cycle   1  Pass 1  IDiag  1:
 FoFJK:  IHMeth= 1 ICntrl=       0 DoSepK=F KAlg= 0 I1Cent=           0 FoldK=F
 IRaf= 550000000 NMat=       1 IRICut=       1 DoRegI=T DoRafI=F ISym2E= 0 IDoP0=0 IntGTp=1.
 FoFCou: FMM=F IPFlag=           0 FMFlag=      100000 FMFlg1=           0
         NFxFlg=           0 DoJE=F BraDBF=F KetDBF=F FulRan=T
         wScrn=  0.000000 ICntrl=         0 IOpCl=  1 I1Cent=           0 NGrid=           0
         NMat0=    1 NMatS0=      1 NMatT0=    0 NMatD0=    1 NMtDS0=    0 NMtDT0=    0
 Symmetry not used in FoFCou.
 E= -1682.36789755329    
 DIIS: error= 6.29D-05 at cycle   1 NSaved=   1.
 NSaved= 1 IEnMin= 1 EnMin= -1682.36789755329     IErMin= 1 ErrMin= 6.29D-05
 ErrMax= 6.29D-05  0.00D+00 EMaxC= 1.00D-01 BMatC= 5.14D-06 BMatP= 5.14D-06
 IDIUse=1 WtCom= 1.00D+00 WtEn= 0.00D+00
 Coeff-Com:  0.100D+01
 Coeff:      0.100D+01
 Gap=     1.962 Goal=   None    Shift=    0.000
 Gap=     1.950 Goal=   None    Shift=    0.000
 RMSDP=3.37D-06 MaxDP=3.17D-04              OVMax= 5.13D-04

 Cycle   2  Pass 1  IDiag  1:
 RMSU=  3.37D-06    CP:  1.00D+00
 E= -1682.36790014983     Delta-E=       -0.000002596539 Rises=F Damp=F
 DIIS: error= 7.43D-06 at cycle   2 NSaved=   2.
 NSaved= 2 IEnMin= 2 EnMin= -1682.36790014983     IErMin= 2 ErrMin= 7.43D-06
 ErrMax= 7.43D-06  0.00D+00 EMaxC= 1.00D-01 BMatC= 5.16D-08 BMatP= 5.14D-06
 IDIUse=1 WtCom= 1.00D+00 WtEn= 0.00D+00
 Coeff-Com: -0.826D-01 0.108D+01
 Coeff:     -0.826D-01 0.108D+01
 Gap=     0.094 Goal=   None    Shift=    0.000
 Gap=     0.029 Goal=   None    Shift=    0.000
 RMSDP=5.37D-07 MaxDP=4.36D-05 DE=-2.60D-06 OVMax= 8.46D-05

 Cycle   3  Pass 1  IDiag  1:
 RMSU=  3.85D-07    CP:  1.00D+00  1.11D+00
 E= -1682.36790017320     Delta-E=       -0.000000023367 Rises=F Damp=F
 DIIS: error= 2.52D-06 at cycle   3 NSaved=   3.
 NSaved= 3 IEnMin= 3 EnMin= -1682.36790017320     IErMin= 3 ErrMin= 2.52D-06
 ErrMax= 2.52D-06  0.00D+00 EMaxC= 1.00D-01 BMatC= 2.06D-08 BMatP= 5.16D-08
 IDIUse=1 WtCom= 1.00D+00 WtEn= 0.00D+00
 Coeff-Com: -0.439D-01 0.533D+00 0.511D+00
 Coeff:     -0.439D-01 0.533D+00 0.511D+00
 Gap=     0.094 Goal=   None    Shift=    0.000
 Gap=     0.029 Goal=   None    Shift=    0.000
 RMSDP=2.71D-07 MaxDP=1.62D-05 DE=-2.34D-08 OVMax= 1.19D-04

 Cycle   4  Pass 1  IDiag  1:
 RMSU=  2.20D-07    CP:  1.00D+00  1.12D+00  5.95D-01
 E= -1682.36790017603     Delta-E=       -0.000000002830 Rises=F Damp=F
 DIIS: error= 1.89D-06 at cycle   4 NSaved=   4.
 NSaved= 4 IEnMin= 4 EnMin= -1682.36790017603     IErMin= 4 ErrMin= 1.89D-06
 ErrMax= 1.89D-06  0.00D+00 EMaxC= 1.00D-01 BMatC= 9.92D-09 BMatP= 2.06D-08
 IDIUse=1 WtCom= 1.00D+00 WtEn= 0.00D+00
 Coeff-Com: -0.156D-01 0.172D+00 0.389D+00 0.455D+00
 Coeff:     -0.156D-01 0.172D+00 0.389D+00 0.455D+00
 Gap=     0.094 Goal=   None    Shift=    0.000
 Gap=     0.029 Goal=   None    Shift=    0.000
 RMSDP=1.52D-07 MaxDP=7.78D-06 DE=-2.83D-09 OVMax= 6.87D-05

 Cycle   5  Pass 1  IDiag  1:
 RMSU=  7.41D-08    CP:  1.00D+00  1.12D+00  7.71D-01  4.86D-01
 E= -1682.36790017863     Delta-E=       -0.000000002598 Rises=F Damp=F
 DIIS: error= 6.32D-07 at cycle   5 NSaved=   5.
 NSaved= 5 IEnMin= 5 EnMin= -1682.36790017863     IErMin= 5 ErrMin= 6.32D-07
 ErrMax= 6.32D-07  0.00D+00 EMaxC= 1.00D-01 BMatC= 1.33D-09 BMatP= 9.92D-09
 IDIUse=1 WtCom= 1.00D+00 WtEn= 0.00D+00
 Coeff-Com: -0.508D-02 0.494D-01 0.204D+00 0.318D+00 0.434D+00
 Coeff:     -0.508D-02 0.494D-01 0.204D+00 0.318D+00 0.434D+00
 Gap=     0.094 Goal=   None    Shift=    0.000
 Gap=     0.029 Goal=   None    Shift=    0.000
 RMSDP=5.27D-08 MaxDP=2.74D-06 DE=-2.60D-09 OVMax= 1.80D-05

 Cycle   6  Pass 1  IDiag  1:
 RMSU=  2.63D-08    CP:  1.00D+00  1.12D+00  7.61D-01  5.98D-01  4.84D-01
 E= -1682.36790017898     Delta-E=       -0.000000000351 Rises=F Damp=F
 DIIS: error= 2.01D-07 at cycle   6 NSaved=   6.
 NSaved= 6 IEnMin= 6 EnMin= -1682.36790017898     IErMin= 6 ErrMin= 2.01D-07
 ErrMax= 2.01D-07  0.00D+00 EMaxC= 1.00D-01 BMatC= 1.48D-10 BMatP= 1.33D-09
 IDIUse=1 WtCom= 1.00D+00 WtEn= 0.00D+00
 Coeff-Com: -0.202D-03-0.194D-02 0.536D-01 0.111D+00 0.280D+00 0.558D+00
 Coeff:     -0.202D-03-0.194D-02 0.536D-01 0.111D+00 0.280D+00 0.558D+00
 Gap=     0.094 Goal=   None    Shift=    0.000
 Gap=     0.029 Goal=   None    Shift=    0.000
 RMSDP=1.66D-08 MaxDP=1.12D-06 DE=-3.51D-10 OVMax= 2.60D-06

 Cycle   7  Pass 1  IDiag  1:
 RMSU=  9.00D-09    CP:  1.00D+00  1.12D+00  7.68D-01  6.00D-01  5.84D-01
                    CP:  5.65D-01
 E= -1682.36790017906     Delta-E=       -0.000000000085 Rises=F Damp=F
 DIIS: error= 7.40D-08 at cycle   7 NSaved=   7.
 NSaved= 7 IEnMin= 7 EnMin= -1682.36790017906     IErMin= 7 ErrMin= 7.40D-08
 ErrMax= 7.40D-08  0.00D+00 EMaxC= 1.00D-01 BMatC= 2.80D-11 BMatP= 1.48D-10
 IDIUse=1 WtCom= 1.00D+00 WtEn= 0.00D+00
 Coeff-Com:  0.447D-03-0.696D-02 0.120D-01 0.351D-01 0.137D+00 0.372D+00
 Coeff-Com:  0.451D+00
 Coeff:      0.447D-03-0.696D-02 0.120D-01 0.351D-01 0.137D+00 0.372D+00
 Coeff:      0.451D+00
 Gap=     0.094 Goal=   None    Shift=    0.000
 Gap=     0.029 Goal=   None    Shift=    0.000
 RMSDP=6.91D-09 MaxDP=3.96D-07 DE=-8.55D-11 OVMax= 9.91D-07

 SCF Done:  E(UB3LYP) =  -1682.36790018     A.U. after    7 cycles
            NFock=  7  Conv=0.69D-08     -V/T= 2.0082
 <Sx>= 0.0000 <Sy>= 0.0000 <Sz>= 0.5000 <S**2>= 0.7624 S= 0.5062
 <L.S>= 0.000000000000E+00
 KE= 1.668650763720D+03 PE=-1.005500130712D+04 EE= 3.624326221803D+03
 Annihilation of the first spin contaminant:
 S**2 before annihilation     0.7624,   after     0.7501
 Leave Link  502 at Thu Mar 14 11:40:52 2024, MaxMem= 32212254720 cpu:             617.8 elap:              20.6
 (Enter /home/<user>/g16/l701.exe)
 ... and contract with generalized density number  0.
 Compute integral first derivatives.
 Leave Link  701 at Thu Mar 14 11:40:52 2024, MaxMem= 32212254720 cpu:               4.9 elap:               0.2
 (Enter /home/<user>/g16/l702.exe)
 L702 exits ... SP integral derivatives will be done elsewhere.
 Leave Link  702 at Thu Mar 14 11:40:52 2024, MaxMem= 32212254720 cpu:               0.7 elap:               0.0
 (Enter /home/<user>/g16/l703.exe)
 Integral derivatives from FoFJK, PRISM(SPDF).
 Compute integral first derivatives, UseDBF=F ICtDFT=           0.
 Calling FoFJK, ICntrl=      2127 FMM=F ISym2X=0 I1Cent= 0 IOpClX= 1 NMat=1 NMatS=1 NMatT=0.
 FoFJK:  IHMeth= 1 ICntrl=    2127 DoSepK=F KAlg= 0 I1Cent=           0 FoldK=F
 IRaf=         0 NMat=       1 IRICut=       1 DoRegI=T DoRafI=F ISym2E= 0 IDoP0=0 IntGTp=1.
 FoFCou: FMM=F IPFlag=           0 FMFlag=      100000 FMFlg1=         800
         NFxFlg=           0 DoJE=F BraDBF=F KetDBF=F FulRan=T
         wScrn=  0.000000 ICntrl=      2127 IOpCl=  1 I1Cent=           0 NGrid=           0
         NMat0=    1 NMatS0=      1 NMatT0=    0 NMatD0=    1 NMtDS0=    0 NMtDT0=    0
 Symmetry not used in FoFCou.
 Leave Link  703 at Thu Mar 14 11:40:59 2024, MaxMem= 32212254720 cpu:             203.6 elap:               6.8
 (Enter /home/<user>/g16/l716.exe)
 Dipole        =-8.38131991D-01-1.86094406D-01-6.69913042D-02
 ***** Axes restored to original set *****
 -------------------------------------------------------------------
 Center     Atomic                   Forces (Hartrees/Bohr)
 Number     Number              X              Y              Z
 -------------------------------------------------------------------
      1        6           0.000017331    0.000002800    0.000002692
      2        6          -0.000010594    0.000001343   -0.000002419
      3        6           0.000017226   -0.000018368    0.000001269
      4        6          -0.000002978    0.000012897    0.000000541
      5        6           0.000001790    0.000005400   -0.000001903
      6        6          -0.000021999    0.000000419   -0.000002660
      7        1          -0.000004284    0.000000567    0.000000292
      8        1          -0.000005950    0.000002784    0.000001232
      9        1           0.000008835    0.000001005    0.000000206
     10        6           0.000003407   -0.000020752    0.000007284
     11        6           0.000004199    0.000003300   -0.000000902
     12        6          -0.000004336   -0.000005366    0.000001384
     13        6           0.000000052    0.000002548   -0.000000756
     14        6          -0.000008575   -0.000004037    0.000000406
     15        6           0.000014741    0.000008486   -0.000002138
     16        6          -0.000007761   -0.000006433    0.000000737
     17        1           0.000001743    0.000001886    0.000000044
     18        1           0.000000330   -0.000000510    0.000000303
     19        1           0.000003322    0.000001550   -0.000000851
     20        1          -0.000004555   -0.000002075   -0.000000439
     21        6          -0.000000794    0.000006887   -0.000005057
     22        1           0.000000703    0.000000526   -0.000000356
     23        1          -0.000000540   -0.000000100    0.000000836
     24        1           0.000000243   -0.000000959    0.000000439
     25        6          -0.000000910    0.000008813    0.000002732
     26        1          -0.000000518   -0.000001406    0.000000595
     27        1           0.000001081   -0.000000646    0.000000328
     28        1          -0.000000076   -0.000002028    0.000000524
     29        6           0.000010950   -0.000004498   -0.000001467
     30        6           0.000001046    0.000011859   -0.000002526
     31        6          -0.000016716   -0.000000506    0.000003922
     32        6          -0.000000900    0.000009394   -0.000000718
     33        6           0.000013234   -0.000008748    0.000001126
     34        1           0.000004766   -0.000000750   -0.000003043
     35        6          -0.000000356    0.000000632   -0.000000656
     36        1          -0.000005482    0.000001096   -0.000002083
     37        7           0.000019654    0.000003397    0.000004769
     38        7          -0.000015628    0.000006681    0.000005429
     39       16          -0.000003851   -0.000018960   -0.000012942
     40        6          -0.000004581   -0.000002787    0.000001585
     41        6          -0.000001754    0.000010171   -0.000000509
     42        6          -0.000007639   -0.000006401    0.000000961
     43        6           0.000001996    0.000002350    0.000000632
     44        1           0.000001393   -0.000000897    0.000000457
     45        6           0.000001167   -0.000000734   -0.000000873
     46        1           0.000003030    0.000000533   -0.000000003
     47        6           0.000001686   -0.000002799   -0.000000436
     48        1          -0.000003111   -0.000000466   -0.000000690
     49        1          -0.000001510    0.000001438    0.000001642
     50        6           0.000010156   -0.000000271    0.000007664
     51        1          -0.000001656    0.000000831   -0.000000804
     52        1          -0.000000755   -0.000002053   -0.000001113
     53        6          -0.000023310    0.000012547   -0.000002623
     54        1           0.000002663   -0.000002864    0.000000389
     55        1           0.000001705   -0.000000785    0.000000499
     56        7           0.000009484   -0.000014728   -0.000006188
     57        1           0.000001329    0.000004538   -0.000000365
     58        1           0.000001855    0.000004254    0.000003602
 -------------------------------------------------------------------
 Cartesian Forces:  Max     0.000023310 RMS     0.000006375
 Leave Link  716 at Thu Mar 14 11:40:59 2024, MaxMem= 32212254720 cpu:               0.7 elap:               0.0
 (Enter /home/<user>/g16/l103.exe)

 GradGradGradGradGradGradGradGradGradGradGradGradGradGradGradGradGradGrad
 Berny optimization.
 Using GEDIIS/GDIIS optimizer.
 FormGI is forming the generalized inverse of G from B-inverse, IUseBI=4.
 GSVD:  received Info=                   1 from GESDD.
 Internal  Forces:  Max     0.000017403 RMS     0.000002987
 Search for a local minimum.
 Step number  14 out of a maximum of  346
 All quantities printed in internal units (Hartrees-Bohrs-Radians)
 RMS Force = .29867D-05 SwitMx=.10000D-02 MixMth= 2
 Mixed Optimization -- En-DIIS/RFO-DIIS
 Swapping is turned off.
 Update second derivatives using D2CorX and points    2    3    4    5    6
                                                      7    8    9   10   11
                                                     12   13   14
 DE= -5.81D-08 DEPred=-3.38D-08 R= 1.72D+00
 Trust test= 1.72D+00 RLast= 4.66D-03 DXMaxT set to 6.41D-01
 ITU=  0  0  0  0  0  1  1  1  1  1  0  1  1  0
     Eigenvalues ---    0.00085   0.00218   0.00230   0.00230   0.00265
     Eigenvalues ---    0.00758   0.00949   0.01094   0.01253   0.01455
     Eigenvalues ---    0.01478   0.01609   0.01633   0.01646   0.01659
     Eigenvalues ---    0.01682   0.01737   0.01759   0.01880   0.01898
     Eigenvalues ---    0.01933   0.02007   0.02027   0.02048   0.02074
     Eigenvalues ---    0.02080   0.02088   0.02094   0.02101   0.02112
     Eigenvalues ---    0.02115   0.02119   0.02133   0.02135   0.02137
     Eigenvalues ---    0.02143   0.02146   0.02150   0.02157   0.02162
     Eigenvalues ---    0.02171   0.02298   0.02430   0.04017   0.04071
     Eigenvalues ---    0.04351   0.04355   0.04947   0.05393   0.05399
     Eigenvalues ---    0.05452   0.05536   0.05549   0.05618   0.06045
     Eigenvalues ---    0.08098   0.08867   0.09224   0.11558   0.12529
     Eigenvalues ---    0.12802   0.14541   0.15848   0.15941   0.15971
     Eigenvalues ---    0.15993   0.15998   0.16000   0.16000   0.16000
     Eigenvalues ---    0.16000   0.16000   0.16000   0.16000   0.16001
     Eigenvalues ---    0.16010   0.16014   0.16021   0.16032   0.16055
     Eigenvalues ---    0.16136   0.16184   0.19134   0.21139   0.21967
     Eigenvalues ---    0.21997   0.22013   0.22140   0.22464   0.22559
     Eigenvalues ---    0.22953   0.23089   0.23525   0.24202   0.24518
     Eigenvalues ---    0.24735   0.24778   0.24944   0.24959   0.25003
     Eigenvalues ---    0.25020   0.25318   0.28060   0.28063   0.28173
     Eigenvalues ---    0.28923   0.29008   0.30441   0.31241   0.33016
     Eigenvalues ---    0.33272   0.33768   0.33913   0.34017   0.34093
     Eigenvalues ---    0.34101   0.34105   0.34113   0.34130   0.34281
     Eigenvalues ---    0.34296   0.34614   0.35039   0.35056   0.35092
     Eigenvalues ---    0.35121   0.35154   0.35179   0.35191   0.35197
     Eigenvalues ---    0.35235   0.35255   0.35356   0.35615   0.36060
     Eigenvalues ---    0.36225   0.36464   0.37882   0.38032   0.39802
     Eigenvalues ---    0.40482   0.41264   0.41420   0.41753   0.41974
     Eigenvalues ---    0.42283   0.42421   0.43427   0.43928   0.44222
     Eigenvalues ---    0.44474   0.44688   0.44903   0.45122   0.45496
     Eigenvalues ---    0.45673   0.45782   0.46045   0.46202   0.46951
     Eigenvalues ---    0.47038   0.47348   0.47941   0.50325   0.50645
     Eigenvalues ---    0.54430   0.57311   0.62684
 En-DIIS/RFO-DIIS/Sim-DIIS IScMMF=       -3 using points:    14   13   12   11   10    9    8    7    6    5
 RFO step:  Lambda=-2.00071423D-08.
 NNeg= 0 NGDIIS=10 SimSw=  2.50D-01 Rises=F DC= -5.81D-08 SmlDif=  1.00D-05
 NRisDI= 0 DoIntr=F SqrtH=F CThrHd= 10.0 CDAdj=  3.0
 RMS Error=  0.1253006508D-03 NUsed=10 OKEnD=F EnDIS=F
 InvSVX:  RCond= 4.29D-10 Info=           0 Equed=N FErr=  1.21D-10 BErr=  8.61D-17
 DIIS inversion failure, remove point  10.
 InvSVX:  RCond= 4.84D-10 Info=           0 Equed=N FErr=  1.09D-10 BErr=  7.97D-17
 DIIS inversion failure, remove point   9.
 InvSVX:  RCond= 5.72D-10 Info=           0 Equed=N FErr=  9.49D-11 BErr=  5.71D-17
 DIIS inversion failure, remove point   8.
 InvSVX:  RCond= 6.84D-10 Info=           0 Equed=N FErr=  7.81D-11 BErr=  3.66D-17
 DIIS inversion failure, remove point   7.
 InvSVX:  RCond= 8.26D-10 Info=           0 Equed=N FErr=  6.76D-11 BErr=  5.05D-17
 DIIS inversion failure, remove point   6.
 InvSVX:  RCond= 5.36D-09 Info=           0 Equed=N FErr=  3.97D-12 BErr=  7.86D-17
 DIIS inversion failure, remove point   5.
 InvSVX:  RCond= 8.38D-09 Info=           0 Equed=N FErr=  2.38D-12 BErr=  2.32D-17
 DIIS inversion failure, remove point   4.
 InvSVX:  RCond= 6.07D-08 Info=           0 Equed=N FErr=  1.34D-13 BErr=  2.46D-17
 DIIS inversion failure, remove point   3.
 InvSVX:  RCond= 5.42D-06 Info=           0 Equed=N FErr=  2.18D-15 BErr=  0.00D+00
 RFO-DIIS uses    2 points instead of   10
 DidBck=F Rises=F RFO-DIIS coefs:    1.48483   -0.48483    0.00000    0.00000    0.00000
                  RFO-DIIS coefs:    0.00000    0.00000    0.00000    0.00000    0.00000
 Iteration  1 RMS(Cart)=  0.00037517 RMS(Int)=  0.00000010
 Iteration  2 RMS(Cart)=  0.00000015 RMS(Int)=  0.00000000
 ITry= 1 IFail=0 DXMaxC= 2.76D-03 DCOld= 1.00D+10 DXMaxT= 6.41D-01 DXLimC= 3.00D+00 Rises=F
 Variable       Old X    -DE/DX   Delta X   Delta X   Delta X     New X
                                 (Linear)    (Quad)   (Total)
    R1        2.69950   0.00000  -0.00002   0.00000  -0.00001   2.69949
    R2        2.60850   0.00001   0.00001   0.00001   0.00002   2.60852
    R3        2.04284  -0.00000   0.00000  -0.00001  -0.00000   2.04284
    R4        2.69889   0.00000  -0.00000   0.00000   0.00000   2.69889
    R5        2.73965  -0.00000   0.00000   0.00001   0.00001   2.73966
    R6        2.59577   0.00001   0.00001   0.00000   0.00001   2.59578
    R7        2.05024  -0.00000  -0.00000  -0.00001  -0.00001   2.05024
    R8        2.69218   0.00000  -0.00002   0.00001  -0.00001   2.69217
    R9        2.88727   0.00000   0.00001   0.00001   0.00002   2.88729
   R10        2.65979  -0.00000  -0.00002   0.00000  -0.00002   2.65978
   R11        2.72628   0.00000   0.00004  -0.00001   0.00003   2.72631
   R12        2.05173  -0.00000   0.00000  -0.00001  -0.00000   2.05173
   R13        2.88483   0.00000   0.00000   0.00001   0.00001   2.88484
   R14        2.92310  -0.00001  -0.00000  -0.00002  -0.00002   2.92308
   R15        2.92200  -0.00001  -0.00000  -0.00001  -0.00002   2.92198
   R16        2.62238   0.00000   0.00001   0.00000   0.00001   2.62239
   R17        2.68190   0.00000  -0.00002   0.00001  -0.00001   2.68189
   R18        2.64707   0.00000  -0.00000   0.00000   0.00000   2.64708
   R19        2.05288  -0.00000   0.00000  -0.00000  -0.00000   2.05288
   R20        2.65804   0.00000  -0.00001   0.00000  -0.00001   2.65804
   R21        2.05249  -0.00000  -0.00000   0.00000   0.00000   2.05249
   R22        2.62354   0.00000   0.00001   0.00001   0.00002   2.62356
   R23        2.05129  -0.00000   0.00000  -0.00000  -0.00000   2.05129
   R24        2.65729  -0.00000  -0.00002   0.00000  -0.00002   2.65728
   R25        2.05242  -0.00000   0.00000  -0.00001  -0.00000   2.05241
   R26        2.06929  -0.00000  -0.00000  -0.00000  -0.00000   2.06928
   R27        2.07032  -0.00000   0.00000   0.00000   0.00000   2.07032
   R28        2.06804  -0.00000   0.00000  -0.00000  -0.00000   2.06804
   R29        2.07045   0.00000   0.00000   0.00000   0.00000   2.07045
   R30        2.06925  -0.00000  -0.00000   0.00000  -0.00000   2.06925
   R31        2.06817  -0.00000   0.00000  -0.00000   0.00000   2.06817
   R32        2.73822   0.00000   0.00001   0.00001   0.00001   2.73823
   R33        2.65994  -0.00000  -0.00001  -0.00000  -0.00001   2.65993
   R34        2.74947  -0.00001   0.00001  -0.00001  -0.00000   2.74947
   R35        2.52160  -0.00001  -0.00000  -0.00000  -0.00001   2.52159
   R36        2.63746   0.00000   0.00001   0.00001   0.00001   2.63747
   R37        2.04816  -0.00000   0.00000  -0.00000  -0.00000   2.04816
   R38        2.73414   0.00000  -0.00000   0.00000   0.00000   2.73414
   R39        2.52264  -0.00001  -0.00000  -0.00001  -0.00001   2.52263
   R40        2.65509   0.00000  -0.00001  -0.00000  -0.00001   2.65508
   R41        2.04824  -0.00000  -0.00000  -0.00000  -0.00000   2.04824
   R42        2.75053  -0.00001  -0.00000  -0.00002  -0.00002   2.75052
   R43        3.10163  -0.00002  -0.00001  -0.00003  -0.00004   3.10159
   R44        3.09607  -0.00002  -0.00001  -0.00002  -0.00004   3.09603
   R45        2.67940   0.00000   0.00000   0.00001   0.00001   2.67941
   R46        2.68158   0.00000  -0.00000  -0.00000  -0.00001   2.68157
   R47        2.61815   0.00000  -0.00000   0.00000  -0.00000   2.61815
   R48        2.04419  -0.00000   0.00000  -0.00000  -0.00000   2.04418
   R49        2.61404   0.00000   0.00001   0.00000   0.00001   2.61405
   R50        2.05030  -0.00000  -0.00000  -0.00000  -0.00000   2.05030
   R51        2.65876   0.00000   0.00001   0.00000   0.00001   2.65877
   R52        2.05364  -0.00000   0.00000  -0.00000  -0.00000   2.05364
   R53        2.66224   0.00000  -0.00001   0.00000  -0.00001   2.66223
   R54        2.05351  -0.00000  -0.00000  -0.00000  -0.00000   2.05351
   R55        2.84103   0.00000   0.00000   0.00001   0.00001   2.84104
   R56        2.06855  -0.00000  -0.00001  -0.00000  -0.00001   2.06854
   R57        2.07411  -0.00000   0.00001  -0.00000   0.00001   2.07412
   R58        2.92935  -0.00001  -0.00002  -0.00002  -0.00003   2.92932
   R59        2.08737  -0.00000   0.00000  -0.00001  -0.00000   2.08737
   R60        2.07187   0.00000   0.00000  -0.00000  -0.00000   2.07187
   R61        2.75455   0.00001   0.00001   0.00003   0.00004   2.75459
   R62        1.92449   0.00000   0.00001   0.00000   0.00001   1.92450
   R63        1.92252   0.00000   0.00001   0.00000   0.00001   1.92253
    A1        2.12047  -0.00000   0.00001  -0.00000   0.00001   2.12048
    A2        2.07732   0.00000   0.00001   0.00001   0.00002   2.07735
    A3        2.08528  -0.00000  -0.00002  -0.00001  -0.00003   2.08525
    A4        2.06345   0.00001  -0.00001   0.00002   0.00000   2.06346
    A5        2.12208  -0.00001   0.00000  -0.00000  -0.00000   2.12208
    A6        2.09750  -0.00000   0.00001  -0.00001   0.00000   2.09750
    A7        2.10189  -0.00001  -0.00000  -0.00002  -0.00002   2.10187
    A8        2.09090   0.00001   0.00005   0.00001   0.00006   2.09095
    A9        2.08909   0.00000  -0.00004   0.00001  -0.00003   2.08906
   A10        2.09972   0.00001   0.00002   0.00001   0.00003   2.09974
   A11        2.25183  -0.00001  -0.00004  -0.00001  -0.00004   2.25178
   A12        1.93161   0.00000   0.00002  -0.00000   0.00002   1.93162
   A13        2.09818   0.00000  -0.00001   0.00000  -0.00001   2.09817
   A14        1.89991  -0.00000  -0.00001   0.00000  -0.00001   1.89990
   A15        2.28509   0.00000   0.00002  -0.00000   0.00002   2.28511
   A16        2.08250  -0.00000   0.00000  -0.00001  -0.00001   2.08249
   A17        2.09288  -0.00001  -0.00003  -0.00002  -0.00005   2.09282
   A18        2.10780   0.00001   0.00003   0.00003   0.00006   2.10786
   A19        1.75900  -0.00000  -0.00002   0.00000  -0.00002   1.75898
   A20        1.94371   0.00000   0.00001  -0.00000   0.00001   1.94372
   A21        1.94643   0.00000  -0.00000  -0.00000  -0.00000   1.94643
   A22        1.94289   0.00000   0.00000  -0.00000  -0.00000   1.94288
   A23        1.94500   0.00000   0.00001  -0.00001   0.00000   1.94501
   A24        1.92216   0.00000   0.00000   0.00001   0.00001   1.92217
   A25        2.25033   0.00000  -0.00002   0.00001  -0.00001   2.25032
   A26        1.94065   0.00000   0.00002  -0.00001   0.00001   1.94066
   A27        2.09220  -0.00000  -0.00000  -0.00000  -0.00001   2.09220
   A28        2.07434  -0.00000   0.00000  -0.00000  -0.00000   2.07434
   A29        2.11576  -0.00000  -0.00002   0.00000  -0.00001   2.11574
   A30        2.09309   0.00000   0.00002  -0.00000   0.00001   2.09311
   A31        2.11703   0.00000  -0.00001   0.00000  -0.00000   2.11702
   A32        2.08436  -0.00000   0.00000  -0.00000  -0.00000   2.08436
   A33        2.08180   0.00000   0.00000   0.00000   0.00000   2.08180
   A34        2.10150   0.00000   0.00000   0.00000   0.00000   2.10150
   A35        2.08670   0.00000   0.00002   0.00001   0.00002   2.08672
   A36        2.09499  -0.00000  -0.00002  -0.00001  -0.00002   2.09496
   A37        2.06758  -0.00000  -0.00000  -0.00001  -0.00001   2.06757
   A38        2.10494  -0.00000  -0.00001  -0.00001  -0.00002   2.10492
   A39        2.11067   0.00001   0.00001   0.00002   0.00003   2.11069
   A40        1.89350   0.00000  -0.00001   0.00001  -0.00000   1.89350
   A41        2.27596  -0.00001   0.00000  -0.00001  -0.00001   2.27595
   A42        2.11373   0.00000   0.00001   0.00001   0.00001   2.11374
   A43        1.92630  -0.00000   0.00000  -0.00001  -0.00001   1.92629
   A44        1.93077   0.00000   0.00000   0.00000   0.00000   1.93077
   A45        1.94494   0.00000  -0.00000   0.00001   0.00001   1.94495
   A46        1.88010  -0.00000   0.00000  -0.00001  -0.00001   1.88010
   A47        1.88879  -0.00000   0.00000  -0.00000   0.00000   1.88879
   A48        1.89105  -0.00000  -0.00000   0.00000  -0.00000   1.89105
   A49        1.93073   0.00000   0.00000   0.00000   0.00000   1.93073
   A50        1.92683   0.00000   0.00000   0.00000   0.00000   1.92683
   A51        1.94532   0.00000   0.00000   0.00001   0.00001   1.94533
   A52        1.87883  -0.00000   0.00000  -0.00001  -0.00001   1.87883
   A53        1.89163  -0.00000  -0.00001   0.00000  -0.00000   1.89163
   A54        1.88856  -0.00000  -0.00000  -0.00000  -0.00001   1.88856
   A55        2.16834  -0.00001   0.00001  -0.00000   0.00001   2.16835
   A56        2.11842  -0.00000   0.00001  -0.00002  -0.00001   2.11841
   A57        1.99642   0.00001  -0.00002   0.00002  -0.00000   1.99642
   A58        2.11824  -0.00000   0.00001  -0.00001  -0.00000   2.11824
   A59        2.19180   0.00001  -0.00000   0.00002   0.00001   2.19181
   A60        1.97212  -0.00000  -0.00000  -0.00001  -0.00001   1.97211
   A61        2.16686  -0.00000   0.00002  -0.00001   0.00000   2.16686
   A62        2.07254   0.00001   0.00003   0.00001   0.00004   2.07258
   A63        2.04182  -0.00000  -0.00004   0.00000  -0.00004   2.04178
   A64        2.12379  -0.00000   0.00001  -0.00001   0.00000   2.12379
   A65        1.97342  -0.00000  -0.00001   0.00000  -0.00001   1.97342
   A66        2.18511   0.00000   0.00000   0.00000   0.00000   2.18512
   A67        2.16212  -0.00001   0.00001  -0.00002  -0.00000   2.16211
   A68        2.04758  -0.00000  -0.00004   0.00001  -0.00004   2.04754
   A69        2.07183   0.00001   0.00003   0.00001   0.00004   2.07187
   A70        1.99860   0.00001  -0.00002   0.00002   0.00000   1.99861
   A71        2.16340  -0.00001   0.00002  -0.00001   0.00001   2.16341
   A72        2.12118   0.00000   0.00001  -0.00002  -0.00001   2.12117
   A73        1.87294   0.00000   0.00001  -0.00000   0.00001   1.87295
   A74        1.87330   0.00000   0.00001  -0.00001   0.00000   1.87330
   A75        1.73295   0.00000  -0.00000   0.00001   0.00001   1.73295
   A76        2.13346  -0.00000  -0.00000   0.00000   0.00000   2.13347
   A77        2.09778   0.00000   0.00002  -0.00002  -0.00000   2.09777
   A78        2.05172   0.00000  -0.00001   0.00002   0.00000   2.05172
   A79        2.10744  -0.00000   0.00001  -0.00001  -0.00000   2.10744
   A80        2.08893   0.00000   0.00000   0.00000   0.00001   2.08893
   A81        2.08653   0.00000  -0.00001   0.00001  -0.00001   2.08652
   A82        2.11362  -0.00000   0.00001  -0.00001  -0.00000   2.11361
   A83        2.09459   0.00000   0.00003  -0.00000   0.00002   2.09461
   A84        2.07396  -0.00000  -0.00003   0.00001  -0.00002   2.07394
   A85        2.12106   0.00000   0.00000   0.00000   0.00000   2.12107
   A86        2.08033  -0.00000  -0.00002  -0.00000  -0.00002   2.08030
   A87        2.08173   0.00000   0.00002  -0.00000   0.00002   2.08175
   A88        2.11536   0.00000   0.00001   0.00000   0.00001   2.11536
   A89        2.08611  -0.00000  -0.00002   0.00000  -0.00002   2.08609
   A90        2.08172   0.00000   0.00001  -0.00000   0.00001   2.08173
   A91        2.05696  -0.00000  -0.00001   0.00000  -0.00001   2.05696
   A92        2.11760   0.00000  -0.00002   0.00000  -0.00002   2.11758
   A93        2.10811   0.00000   0.00003  -0.00000   0.00003   2.10814
   A94        1.93203  -0.00000   0.00001  -0.00001  -0.00000   1.93203
   A95        1.91790  -0.00000  -0.00001  -0.00000  -0.00002   1.91788
   A96        1.96502   0.00000  -0.00001   0.00001   0.00000   1.96502
   A97        1.87295  -0.00000  -0.00001  -0.00001  -0.00001   1.87293
   A98        1.87732   0.00000   0.00003   0.00000   0.00003   1.87736
   A99        1.89573   0.00000  -0.00001   0.00000  -0.00000   1.89573
   A100       1.89809   0.00000   0.00001   0.00002   0.00003   1.89812
   A101       1.89945   0.00000  -0.00001   0.00001   0.00001   1.89945
   A102       1.91195  -0.00001  -0.00000  -0.00002  -0.00002   1.91193
   A103       1.86136  -0.00000  -0.00000   0.00001   0.00001   1.86137
   A104       2.00484   0.00000   0.00000  -0.00001  -0.00001   2.00483
   A105       1.88534   0.00000  -0.00000  -0.00001  -0.00001   1.88533
   A106       1.93317  -0.00000  -0.00002  -0.00002  -0.00004   1.93313
   A107       1.93022  -0.00000  -0.00002  -0.00002  -0.00003   1.93019
   A108       1.86382  -0.00000  -0.00002  -0.00002  -0.00004   1.86379
    D1       -0.01072  -0.00000  -0.00003  -0.00003  -0.00006  -0.01078
    D2        3.11219  -0.00000  -0.00002  -0.00001  -0.00003   3.11216
    D3       -3.13616  -0.00000  -0.00005  -0.00002  -0.00007  -3.13623
    D4       -0.01325  -0.00000  -0.00004   0.00000  -0.00004  -0.01329
    D5        0.01620   0.00000  -0.00001   0.00002   0.00001   0.01620
    D6       -3.12084   0.00000  -0.00003   0.00001  -0.00002  -3.12086
    D7        3.14157   0.00000   0.00001   0.00001   0.00002   3.14158
    D8        0.00454  -0.00000  -0.00001   0.00000  -0.00001   0.00453
    D9       -0.00514   0.00000   0.00005   0.00001   0.00006  -0.00508
   D10       -3.09180   0.00000   0.00004   0.00002   0.00006  -3.09174
   D11       -3.12833  -0.00000   0.00004  -0.00001   0.00003  -3.12829
   D12        0.06820   0.00000   0.00003   0.00001   0.00004   0.06823
   D13        0.41530  -0.00000  -0.00013  -0.00004  -0.00017   0.41512
   D14       -2.72061  -0.00000  -0.00010  -0.00006  -0.00017  -2.72078
   D15       -2.74534  -0.00000  -0.00012  -0.00002  -0.00014  -2.74548
   D16        0.40194  -0.00000  -0.00009  -0.00005  -0.00014   0.40180
   D17        0.01495   0.00000  -0.00004   0.00002  -0.00001   0.01494
   D18       -3.11665  -0.00000  -0.00004  -0.00001  -0.00005  -3.11670
   D19        3.10167  -0.00000  -0.00002   0.00001  -0.00001   3.10166
   D20       -0.02993  -0.00000  -0.00002  -0.00003  -0.00005  -0.02998
   D21       -0.00945  -0.00000  -0.00000  -0.00004  -0.00004  -0.00949
   D22        3.13647  -0.00000  -0.00001  -0.00003  -0.00004   3.13643
   D23        3.12384  -0.00000  -0.00000  -0.00001  -0.00001   3.12384
   D24       -0.01342  -0.00000  -0.00000  -0.00000  -0.00001  -0.01343
   D25       -3.13687   0.00000   0.00001   0.00004   0.00004  -3.13683
   D26        1.08404   0.00000   0.00001   0.00004   0.00005   1.08410
   D27       -1.07099   0.00000   0.00000   0.00003   0.00003  -1.07096
   D28        0.01394   0.00000   0.00000   0.00001   0.00001   0.01395
   D29       -2.04833   0.00000   0.00001   0.00001   0.00002  -2.04831
   D30        2.07982  -0.00000  -0.00000   0.00000  -0.00000   2.07982
   D31       -0.00618   0.00000   0.00003   0.00001   0.00004  -0.00614
   D32        3.13081   0.00000   0.00005   0.00002   0.00007   3.13088
   D33        3.12999   0.00000   0.00003   0.00001   0.00004   3.13003
   D34       -0.01621   0.00000   0.00005   0.00002   0.00007  -0.01614
   D35        0.00666   0.00000   0.00000   0.00000   0.00000   0.00667
   D36       -3.13502   0.00000  -0.00000   0.00001   0.00001  -3.13501
   D37       -3.12998   0.00000   0.00000   0.00000   0.00000  -3.12997
   D38        0.01153   0.00000  -0.00000   0.00001   0.00001   0.01154
   D39        3.13310  -0.00000  -0.00000  -0.00001  -0.00001   3.13309
   D40       -0.00987  -0.00000  -0.00000  -0.00001  -0.00001  -0.00988
   D41       -1.08721  -0.00000  -0.00000  -0.00001  -0.00001  -1.08723
   D42        2.05301  -0.00000  -0.00000  -0.00001  -0.00001   2.05299
   D43        1.06618   0.00000   0.00001  -0.00001   0.00000   1.06618
   D44       -2.07679   0.00000   0.00001  -0.00000   0.00000  -2.07679
   D45        3.06911  -0.00000  -0.00000  -0.00000  -0.00001   3.06910
   D46       -1.13500  -0.00000  -0.00000  -0.00001  -0.00001  -1.13501
   D47        0.96999  -0.00000  -0.00000  -0.00000  -0.00001   0.96998
   D48        1.12108   0.00000   0.00001   0.00000   0.00001   1.12110
   D49       -3.08302   0.00000   0.00002  -0.00001   0.00001  -3.08302
   D50       -0.97804   0.00000   0.00001  -0.00000   0.00001  -0.97802
   D51       -1.04529   0.00000   0.00000   0.00000   0.00001  -1.04528
   D52        1.03379  -0.00000   0.00001  -0.00001  -0.00000   1.03379
   D53        3.13878   0.00000   0.00000   0.00000   0.00000   3.13878
   D54        1.13676   0.00000   0.00001   0.00001   0.00002   1.13678
   D55       -3.06862   0.00000   0.00002  -0.00000   0.00001  -3.06861
   D56       -0.96919   0.00000   0.00002  -0.00000   0.00001  -0.96917
   D57        3.08758  -0.00000  -0.00001   0.00001  -0.00000   3.08757
   D58       -1.11780  -0.00000  -0.00000  -0.00001  -0.00001  -1.11781
   D59        0.98163  -0.00000  -0.00001  -0.00000  -0.00001   0.98162
   D60       -1.03047   0.00000  -0.00000   0.00000   0.00000  -1.03046
   D61        1.04735  -0.00000   0.00000  -0.00001  -0.00000   1.04734
   D62       -3.13641  -0.00000   0.00000  -0.00000  -0.00000  -3.13641
   D63        3.13884   0.00000  -0.00000   0.00001   0.00000   3.13885
   D64       -0.00144   0.00000  -0.00000   0.00000   0.00000  -0.00144
   D65       -0.00127   0.00000  -0.00000   0.00000   0.00000  -0.00127
   D66       -3.14156   0.00000  -0.00000   0.00000  -0.00000  -3.14156
   D67        0.00261   0.00000   0.00000   0.00000   0.00000   0.00261
   D68       -3.13890  -0.00000   0.00000  -0.00000  -0.00000  -3.13890
   D69       -3.14022   0.00000   0.00000   0.00001   0.00001  -3.14021
   D70        0.00146   0.00000   0.00000  -0.00000   0.00000   0.00146
   D71        0.00051   0.00000   0.00000  -0.00000   0.00000   0.00051
   D72       -3.14054   0.00000   0.00000  -0.00000  -0.00000  -3.14054
   D73        3.14081  -0.00000   0.00000   0.00000   0.00000   3.14081
   D74       -0.00023   0.00000  -0.00000   0.00000  -0.00000  -0.00023
   D75        0.00012  -0.00000   0.00000  -0.00000  -0.00000   0.00011
   D76        3.14147  -0.00000   0.00000  -0.00000  -0.00000   3.14147
   D77        3.14116  -0.00000   0.00000  -0.00000  -0.00000   3.14116
   D78       -0.00067  -0.00000   0.00000  -0.00000   0.00000  -0.00067
   D79        0.00004   0.00000  -0.00000   0.00000   0.00000   0.00004
   D80        3.14079  -0.00000  -0.00000  -0.00000  -0.00001   3.14079
   D81       -3.14131   0.00000  -0.00000   0.00000   0.00000  -3.14131
   D82       -0.00056  -0.00000  -0.00000  -0.00001  -0.00001  -0.00057
   D83        3.14087  -0.00000   0.00000  -0.00001  -0.00001   3.14086
   D84       -0.00082  -0.00000  -0.00000  -0.00000  -0.00000  -0.00082
   D85        0.00012   0.00000   0.00000  -0.00000  -0.00000   0.00012
   D86       -3.14157   0.00000  -0.00000   0.00001   0.00001  -3.14157
   D87       -3.11923  -0.00000   0.00001  -0.00008  -0.00007  -3.11930
   D88        0.07453  -0.00000  -0.00003  -0.00006  -0.00009   0.07445
   D89        0.01703  -0.00000  -0.00002  -0.00006  -0.00008   0.01695
   D90       -3.07239  -0.00000  -0.00006  -0.00003  -0.00009  -3.07248
   D91        3.11460   0.00000   0.00001   0.00007   0.00008   3.11468
   D92        0.04236   0.00000  -0.00002   0.00009   0.00007   0.04243
   D93       -0.02183   0.00000   0.00004   0.00005   0.00008  -0.02175
   D94       -3.09407   0.00000   0.00001   0.00007   0.00007  -3.09399
   D95        0.00394   0.00000  -0.00001   0.00002   0.00001   0.00395
   D96       -3.09530   0.00000  -0.00003   0.00001  -0.00002  -3.09532
   D97        3.09945   0.00000   0.00003  -0.00001   0.00002   3.09947
   D98        0.00020  -0.00000   0.00001  -0.00001  -0.00000   0.00020
   D99        3.09912   0.00000   0.00001   0.00006   0.00007   3.09919
   D100       0.00592   0.00000  -0.00003   0.00008   0.00005   0.00597
   D101       0.00486   0.00000  -0.00002   0.00001  -0.00001   0.00485
   D102      -3.07386   0.00000  -0.00004   0.00001  -0.00003  -3.07389
   D103       3.07822  -0.00000   0.00001  -0.00001  -0.00000   3.07822
   D104      -0.00051  -0.00000  -0.00001  -0.00001  -0.00002  -0.00052
   D105      -0.02062   0.00000   0.00002   0.00004   0.00006  -0.02056
   D106       3.11977   0.00000  -0.00001   0.00007   0.00006   3.11982
   D107       3.07329   0.00000   0.00004   0.00005   0.00009   3.07338
   D108      -0.06951   0.00000   0.00001   0.00008   0.00009  -0.06942
   D109      -0.00623  -0.00000   0.00001  -0.00006  -0.00005  -0.00627
   D110      -3.10372  -0.00000  -0.00001  -0.00007  -0.00007  -3.10379
   D111       0.01689  -0.00000  -0.00001  -0.00006  -0.00006   0.01683
   D112      -3.12353  -0.00000   0.00002  -0.00008  -0.00006  -3.12358
   D113       3.09480  -0.00000   0.00001  -0.00006  -0.00005   3.09475
   D114      -0.04562  -0.00000   0.00004  -0.00008  -0.00004  -0.04566
   D115      -0.46371   0.00000   0.00007   0.00006   0.00013  -0.46358
   D116       2.70132   0.00000   0.00006   0.00007   0.00013   2.70145
   D117       2.67659   0.00000   0.00004   0.00009   0.00013   2.67672
   D118      -0.44156   0.00000   0.00003   0.00010   0.00013  -0.44143
   D119      -0.00857  -0.00000   0.00003  -0.00010  -0.00007  -0.00865
   D120       0.00868   0.00000  -0.00003   0.00010   0.00007   0.00875
   D121      -3.10634   0.00000   0.00000   0.00001   0.00001  -3.10633
   D122       0.00941  -0.00000   0.00002   0.00000   0.00002   0.00943
   D123       0.01240   0.00000   0.00002   0.00000   0.00002   0.01242
   D124       3.12815   0.00000   0.00003  -0.00001   0.00002   3.12817
   D125       3.12383   0.00000  -0.00001   0.00001  -0.00001   3.12382
   D126      -0.06685  -0.00000  -0.00002   0.00001  -0.00001  -0.06687
   D127       0.00460  -0.00000  -0.00003   0.00002  -0.00001   0.00459
   D128       3.09711  -0.00000  -0.00004   0.00002  -0.00002   3.09709
   D129      -0.01603  -0.00000   0.00000  -0.00001  -0.00001  -0.01604
   D130       3.11312  -0.00000   0.00000  -0.00002  -0.00002   3.11310
   D131      -3.13181  -0.00000  -0.00001  -0.00000  -0.00001  -3.13182
   D132      -0.00267  -0.00000  -0.00001  -0.00001  -0.00002  -0.00269
   D133      -0.01841  -0.00000   0.00002  -0.00002  -0.00000  -0.01841
   D134       3.12265  -0.00000   0.00001  -0.00002  -0.00001   3.12264
   D135      -3.11148  -0.00000   0.00003  -0.00003   0.00000  -3.11148
   D136       0.02958  -0.00000   0.00002  -0.00003  -0.00001   0.02958
   D137       0.00237  -0.00000  -0.00001   0.00000  -0.00001   0.00236
   D138      -3.10493  -0.00000  -0.00000  -0.00001  -0.00001  -3.10494
   D139      -3.12676   0.00000  -0.00001   0.00001   0.00000  -3.12676
   D140       0.04912   0.00000  -0.00000  -0.00000  -0.00001   0.04912
   D141       0.01481   0.00000  -0.00000   0.00001   0.00001   0.01482
   D142       3.12230   0.00000  -0.00001   0.00003   0.00002   3.12232
   D143      -3.12626   0.00000   0.00001   0.00001   0.00002  -3.12623
   D144      -0.01876   0.00000  -0.00000   0.00003   0.00003  -0.01874
   D145      -2.67141   0.00000  -0.00088   0.00002  -0.00086  -2.67227
   D146      -0.60571  -0.00000  -0.00090   0.00001  -0.00089  -0.60660
   D147       1.50981  -0.00000  -0.00092   0.00001  -0.00090   1.50891
   D148       0.50548   0.00000  -0.00087   0.00001  -0.00087   0.50461
   D149       2.57118  -0.00000  -0.00089  -0.00001  -0.00090   2.57028
   D150      -1.59649  -0.00000  -0.00091  -0.00000  -0.00091  -1.59739
   D151      -1.01767  -0.00000   0.00005  -0.00001   0.00004  -1.01763
   D152       1.00366   0.00000   0.00005   0.00001   0.00007   1.00372
   D153       3.06141  -0.00000   0.00004  -0.00000   0.00004   3.06145
   D154       3.13237  -0.00000   0.00003  -0.00001   0.00002   3.13238
   D155      -1.12949   0.00000   0.00003   0.00001   0.00004  -1.12945
   D156       0.92827   0.00000   0.00002   0.00000   0.00002   0.92828
   D157       1.11045  -0.00000   0.00003  -0.00001   0.00002   1.11046
   D158       3.13177   0.00000   0.00003   0.00002   0.00004   3.13182
   D159      -1.09366  -0.00000   0.00002   0.00000   0.00002  -1.09363
   D160       1.29531   0.00000  -0.00012   0.00002  -0.00010   1.29521
   D161      -2.92501  -0.00000  -0.00016  -0.00003  -0.00019  -2.92520
   D162      -0.84661   0.00000  -0.00014   0.00002  -0.00012  -0.84673
   D163       1.21625  -0.00000  -0.00018  -0.00003  -0.00021   1.21605
   D164      -2.92134   0.00000  -0.00014   0.00002  -0.00011  -2.92145
   D165      -0.85847  -0.00000  -0.00018  -0.00003  -0.00020  -0.85868
         Item               Value     Threshold  Converged?
 Maximum Force            0.000017     0.000450     YES
 RMS     Force            0.000003     0.000300     YES
 Maximum Displacement     0.002756     0.001800     NO 
 RMS     Displacement     0.000375     0.001200     YES
 Predicted change in Energy=-1.000358D-08
 Lowest energy point so far.  Saving SCF results.
 GradGradGradGradGradGradGradGradGradGradGradGradGradGradGradGradGradGrad

 Leave Link  103 at Thu Mar 14 11:40:59 2024, MaxMem= 32212254720 cpu:               2.7 elap:               0.1
 (Enter /home/<user>/g16/l202.exe)
 Stoichiometry    C29H25N3S(1+,2)
 Framework group  C1[X(C29H25N3S)]
 Deg. of freedom   168
 Full point group                 C1      NOp   1
 RotChk:  IX=0 Diff= 1.66D-05
 Largest Abelian subgroup         C1      NOp   1
 Largest concise Abelian subgroup C1      NOp   1
                         Standard orientation:                         
 ---------------------------------------------------------------------
 Center     Atomic      Atomic             Coordinates (Angstroms)
 Number     Number       Type             X           Y           Z
 ---------------------------------------------------------------------
      1          6           0       -2.437354    1.612708   -0.421714
      2          6           0       -1.785402    0.369225   -0.158390
      3          6           0       -2.596764   -0.781503    0.080884
      4          6           0       -3.966721   -0.682916    0.062051
      5          6           0       -4.593876    0.565964   -0.214654
      6          6           0       -3.813662    1.711495   -0.459721
      7          1           0       -1.835631    2.490922   -0.609559
      8          1           0       -2.129446   -1.728602    0.329291
      9          1           0       -4.282046    2.665610   -0.681279
     10          6           0       -5.012716   -1.766827    0.317932
     11          6           0       -6.301348   -0.970487    0.128834
     12          6           0       -7.616206   -1.404440    0.221364
     13          6           0       -8.648899   -0.482327    0.008253
     14          6           0       -8.375528    0.863518   -0.295740
     15          6           0       -7.064434    1.309889   -0.391874
     16          6           0       -6.025001    0.387127   -0.178785
     17          1           0       -7.852765   -2.438513    0.455582
     18          1           0       -9.681443   -0.811681    0.079352
     19          1           0       -9.197642    1.554070   -0.455646
     20          1           0       -6.849705    2.348215   -0.627162
     21          6           0       -4.903682   -2.327065    1.755611
     22          1           0       -5.705516   -3.048234    1.945461
     23          1           0       -3.948786   -2.845335    1.896442
     24          1           0       -4.976473   -1.530086    2.502038
     25          6           0       -4.902262   -2.915890   -0.710820
     26          1           0       -3.948717   -3.443749   -0.598867
     27          1           0       -5.705096   -3.644450   -0.556922
     28          1           0       -4.971565   -2.542405   -1.737212
     29          6           0       -0.340099    0.255663   -0.153565
     30          6           0        0.563830    1.362511    0.086079
     31          6           0        0.299140   -0.974822   -0.395514
     32          6           0        2.007216    1.183104    0.049395
     33          6           0        1.683984   -1.143901   -0.435097
     34          1           0       -0.308964   -1.841399   -0.627806
     35          6           0        2.606173   -0.103548   -0.231915
     36          1           0        2.057735   -2.127746   -0.694243
     37          7           0        0.201085    2.604824    0.411057
     38          7           0        2.680446    2.296416    0.348234
     39         16           0        1.576241    3.471069    0.639978
     40          6           0        4.041508   -0.333222   -0.306556
     41          6           0        4.954675    0.693733   -0.655668
     42          6           0        4.571658   -1.624962   -0.053602
     43          6           0        6.311112    0.430791   -0.757932
     44          1           0        4.586611    1.688520   -0.867984
     45          6           0        5.930515   -1.869088   -0.139749
     46          1           0        3.914115   -2.430187    0.256897
     47          6           0        6.833453   -0.850450   -0.502748
     48          1           0        6.985244    1.230375   -1.053249
     49          1           0        6.310644   -2.863852    0.076570
     50          6           0        8.311037   -1.119757   -0.569568
     51          1           0        8.502290   -2.168680   -0.817334
     52          1           0        8.766450   -0.509227   -1.359841
     53          6           0        9.032704   -0.816002    0.768275
     54          1           0        8.860141    0.242544    1.032508
     55          1           0        8.573748   -1.416803    1.562291
     56          7           0       10.434718   -1.201205    0.664508
     57          1           0       10.950592   -0.535395    0.092050
     58          1           0       10.874310   -1.202390    1.581990
 ---------------------------------------------------------------------
 Rotational constants (GHZ):           0.3683846           0.0395020           0.0363979
 Leave Link  202 at Thu Mar 14 11:40:59 2024, MaxMem= 32212254720 cpu:               0.1 elap:               0.0
 (Enter /home/<user>/g16/l301.exe)
 Standard basis: 6-31G(d) (6D, 7F)
 Ernie: Thresh=  0.10000D-02 Tol=  0.10000D-05 Strict=F.
 There are   549 symmetry adapted cartesian basis functions of A   symmetry.
 There are   549 symmetry adapted basis functions of A   symmetry.
   549 basis functions,  1048 primitive gaussians,   549 cartesian basis functions
   118 alpha electrons      117 beta electrons
       nuclear repulsion energy      3079.6587642430 Hartrees.
 IExCor=  402 DFT=T Ex+Corr=B3LYP ExCW=0 ScaHFX=  0.200000
 ScaDFX=  0.800000  0.720000  1.000000  0.810000 ScalE2=  1.000000  1.000000
 IRadAn=      5 IRanWt=     -1 IRanGd=            0 ICorTp=0 IEmpDi=  4
 NAtoms=   58 NActive=   58 NUniq=   58 SFac= 1.00D+00 NAtFMM=   60 NAOKFM=F Big=F
 Integral buffers will be    131072 words long.
 Raffenetti 2 integral format.
 Two-electron integral symmetry is turned on.
 Leave Link  301 at Thu Mar 14 11:40:59 2024, MaxMem= 32212254720 cpu:               0.8 elap:               0.0
 (Enter /home/<user>/g16/l302.exe)
 NPDir=0 NMtPBC=     1 NCelOv=     1 NCel=       1 NClECP=     1 NCelD=      1
         NCelK=      1 NCelE2=     1 NClLst=     1 CellRange=     0.0.
 One-electron integrals computed using PRISM.
 One-electron integral symmetry used in STVInt
 NBasis=   549 RedAO= T EigKep=  2.65D-04  NBF=   549
 NBsUse=   549 1.00D-06 EigRej= -1.00D+00 NBFU=   549
 Precomputing XC quadrature grid using
 IXCGrd= 4 IRadAn=           5 IRanWt=          -1 IRanGd=           0 AccXCQ= 0.00D+00.
 Generated NRdTot=       0 NPtTot=           0 NUsed=           0 NTot=          32
 NSgBfM=   512   512   512   512   512 MxSgAt=    58 MxSgA2=    58.
 Leave Link  302 at Thu Mar 14 11:41:00 2024, MaxMem= 32212254720 cpu:              12.7 elap:               0.4
 (Enter /home/<user>/g16/l303.exe)
 DipDrv:  MaxL=1.
 Leave Link  303 at Thu Mar 14 11:41:00 2024, MaxMem= 32212254720 cpu:               1.3 elap:               0.1
 (Enter /home/<user>/g16/l401.exe)
 Initial guess from the checkpoint file:  "FBTP_H0opt.chk"
 B after Tr=    -0.000000   -0.000000    0.000000
         Rot=    1.000000    0.000020   -0.000001    0.000002 Ang=   0.00 deg.
 Guess basis will be translated and rotated to current coordinates.
 JPrj=2 DoOrth=T DoCkMO=T.
 Initial guess <Sx>= 0.0000 <Sy>= 0.0000 <Sz>= 0.5000 <S**2>= 0.7624 S= 0.5062
 Leave Link  401 at Thu Mar 14 11:41:01 2024, MaxMem= 32212254720 cpu:              17.2 elap:               0.6
 (Enter /home/<user>/g16/l502.exe)
 Integral symmetry usage will be decided dynamically.
 UHF open shell SCF:
 Using DIIS extrapolation, IDIIS=  1040.
 NGot= 32212254720 LenX= 32211628124 LenY= 32211326174
 Requested convergence on RMS density matrix=1.00D-08 within 128 cycles.
 Requested convergence on MAX density matrix=1.00D-06.
 Requested convergence on             energy=1.00D-06.
 No special actions if energy rises.
 Fock matrices will be formed incrementally for  20 cycles.

 Cycle   1  Pass 1  IDiag  1:
 FoFJK:  IHMeth= 1 ICntrl=       0 DoSepK=F KAlg= 0 I1Cent=           0 FoldK=F
 IRaf= 550000000 NMat=       1 IRICut=       1 DoRegI=T DoRafI=F ISym2E= 0 IDoP0=0 IntGTp=1.
 FoFCou: FMM=F IPFlag=           0 FMFlag=      100000 FMFlg1=           0
         NFxFlg=           0 DoJE=F BraDBF=F KetDBF=F FulRan=T
         wScrn=  0.000000 ICntrl=         0 IOpCl=  1 I1Cent=           0 NGrid=           0
         NMat0=    1 NMatS0=      1 NMatT0=    0 NMatD0=    1 NMtDS0=    0 NMtDT0=    0
 Symmetry not used in FoFCou.
 E= -1682.36789961859    
 DIIS: error= 2.58D-05 at cycle   1 NSaved=   1.
 NSaved= 1 IEnMin= 1 EnMin= -1682.36789961859     IErMin= 1 ErrMin= 2.58D-05
 ErrMax= 2.58D-05  0.00D+00 EMaxC= 1.00D-01 BMatC= 1.09D-06 BMatP= 1.09D-06
 IDIUse=1 WtCom= 1.00D+00 WtEn= 0.00D+00
 Coeff-Com:  0.100D+01
 Coeff:      0.100D+01
 Gap=     1.962 Goal=   None    Shift=    0.000
 Gap=     1.950 Goal=   None    Shift=    0.000
 RMSDP=1.63D-06 MaxDP=1.39D-04              OVMax= 2.23D-04

 Cycle   2  Pass 1  IDiag  1:
 RMSU=  1.63D-06    CP:  1.00D+00
 E= -1682.36790018496     Delta-E=       -0.000000566372 Rises=F Damp=F
 DIIS: error= 3.21D-06 at cycle   2 NSaved=   2.
 NSaved= 2 IEnMin= 2 EnMin= -1682.36790018496     IErMin= 2 ErrMin= 3.21D-06
 ErrMax= 3.21D-06  0.00D+00 EMaxC= 1.00D-01 BMatC= 1.32D-08 BMatP= 1.09D-06
 IDIUse=1 WtCom= 1.00D+00 WtEn= 0.00D+00
 Coeff-Com: -0.806D-01 0.108D+01
 Coeff:     -0.806D-01 0.108D+01
 Gap=     0.094 Goal=   None    Shift=    0.000
 Gap=     0.029 Goal=   None    Shift=    0.000
 RMSDP=2.76D-07 MaxDP=1.91D-05 DE=-5.66D-07 OVMax= 3.43D-05

 Cycle   3  Pass 1  IDiag  1:
 RMSU=  2.25D-07    CP:  1.00D+00  1.10D+00
 E= -1682.36790019012     Delta-E=       -0.000000005160 Rises=F Damp=F
 DIIS: error= 1.89D-06 at cycle   3 NSaved=   3.
 NSaved= 3 IEnMin= 3 EnMin= -1682.36790019012     IErMin= 3 ErrMin= 1.89D-06
 ErrMax= 1.89D-06  0.00D+00 EMaxC= 1.00D-01 BMatC= 8.16D-09 BMatP= 1.32D-08
 IDIUse=1 WtCom= 1.00D+00 WtEn= 0.00D+00
 Coeff-Com: -0.468D-01 0.564D+00 0.483D+00
 Coeff:     -0.468D-01 0.564D+00 0.483D+00
 Gap=     0.094 Goal=   None    Shift=    0.000
 Gap=     0.029 Goal=   None    Shift=    0.000
 RMSDP=1.31D-07 MaxDP=9.34D-06 DE=-5.16D-09 OVMax= 2.78D-05

 Cycle   4  Pass 1  IDiag  1:
 RMSU=  9.56D-08    CP:  1.00D+00  1.11D+00  6.07D-01
 E= -1682.36790019179     Delta-E=       -0.000000001675 Rises=F Damp=F
 DIIS: error= 7.05D-07 at cycle   4 NSaved=   4.
 NSaved= 4 IEnMin= 4 EnMin= -1682.36790019179     IErMin= 4 ErrMin= 7.05D-07
 ErrMax= 7.05D-07  0.00D+00 EMaxC= 1.00D-01 BMatC= 1.71D-09 BMatP= 8.16D-09
 IDIUse=1 WtCom= 1.00D+00 WtEn= 0.00D+00
 Coeff-Com: -0.164D-01 0.180D+00 0.316D+00 0.520D+00
 Coeff:     -0.164D-01 0.180D+00 0.316D+00 0.520D+00
 Gap=     0.094 Goal=   None    Shift=    0.000
 Gap=     0.029 Goal=   None    Shift=    0.000
 RMSDP=5.98D-08 MaxDP=4.01D-06 DE=-1.68D-09 OVMax= 1.52D-05

 Cycle   5  Pass 1  IDiag  1:
 RMSU=  4.06D-08    CP:  1.00D+00  1.11D+00  6.95D-01  5.91D-01
 E= -1682.36790019206     Delta-E=       -0.000000000267 Rises=F Damp=F
 DIIS: error= 3.10D-07 at cycle   5 NSaved=   5.
 NSaved= 5 IEnMin= 5 EnMin= -1682.36790019206     IErMin= 5 ErrMin= 3.10D-07
 ErrMax= 3.10D-07  0.00D+00 EMaxC= 1.00D-01 BMatC= 3.70D-10 BMatP= 1.71D-09
 IDIUse=1 WtCom= 1.00D+00 WtEn= 0.00D+00
 Coeff-Com: -0.544D-02 0.529D-01 0.160D+00 0.366D+00 0.427D+00
 Coeff:     -0.544D-02 0.529D-01 0.160D+00 0.366D+00 0.427D+00
 Gap=     0.094 Goal=   None    Shift=    0.000
 Gap=     0.029 Goal=   None    Shift=    0.000
 RMSDP=2.81D-08 MaxDP=1.68D-06 DE=-2.67D-10 OVMax= 6.79D-06

 Cycle   6  Pass 1  IDiag  1:
 RMSU=  1.59D-08    CP:  1.00D+00  1.11D+00  7.00D-01  6.97D-01  4.89D-01
 E= -1682.36790019215     Delta-E=       -0.000000000092 Rises=F Damp=F
 DIIS: error= 1.19D-07 at cycle   6 NSaved=   6.
 NSaved= 6 IEnMin= 6 EnMin= -1682.36790019215     IErMin= 6 ErrMin= 1.19D-07
 ErrMax= 1.19D-07  0.00D+00 EMaxC= 1.00D-01 BMatC= 5.52D-11 BMatP= 3.70D-10
 IDIUse=1 WtCom= 1.00D+00 WtEn= 0.00D+00
 Coeff-Com: -0.129D-03-0.376D-02 0.409D-01 0.136D+00 0.301D+00 0.526D+00
 Coeff:     -0.129D-03-0.376D-02 0.409D-01 0.136D+00 0.301D+00 0.526D+00
 Gap=     0.094 Goal=   None    Shift=    0.000
 Gap=     0.029 Goal=   None    Shift=    0.000
 RMSDP=9.64D-09 MaxDP=7.96D-07 DE=-9.19D-11 OVMax= 1.65D-06

 SCF Done:  E(UB3LYP) =  -1682.36790019     A.U. after    6 cycles
            NFock=  6  Conv=0.96D-08     -V/T= 2.0082
 <Sx>= 0.0000 <Sy>= 0.0000 <Sz>= 0.5000 <S**2>= 0.7624 S= 0.5062
 <L.S>= 0.000000000000E+00
 KE= 1.668650864109D+03 PE=-1.005500591962D+04 EE= 3.624328391079D+03
 Annihilation of the first spin contaminant:
 S**2 before annihilation     0.7624,   after     0.7501
 Leave Link  502 at Thu Mar 14 11:41:19 2024, MaxMem= 32212254720 cpu:             540.5 elap:              18.0
 (Enter /home/<user>/g16/l701.exe)
 ... and contract with generalized density number  0.
 Compute integral first derivatives.
 Leave Link  701 at Thu Mar 14 11:41:19 2024, MaxMem= 32212254720 cpu:               5.3 elap:               0.2
 (Enter /home/<user>/g16/l702.exe)
 L702 exits ... SP integral derivatives will be done elsewhere.
 Leave Link  702 at Thu Mar 14 11:41:19 2024, MaxMem= 32212254720 cpu:               0.7 elap:               0.0
 (Enter /home/<user>/g16/l703.exe)
 Integral derivatives from FoFJK, PRISM(SPDF).
 Compute integral first derivatives, UseDBF=F ICtDFT=           0.
 Calling FoFJK, ICntrl=      2127 FMM=F ISym2X=0 I1Cent= 0 IOpClX= 1 NMat=1 NMatS=1 NMatT=0.
 FoFJK:  IHMeth= 1 ICntrl=    2127 DoSepK=F KAlg= 0 I1Cent=           0 FoldK=F
 IRaf=         0 NMat=       1 IRICut=       1 DoRegI=T DoRafI=F ISym2E= 0 IDoP0=0 IntGTp=1.
 FoFCou: FMM=F IPFlag=           0 FMFlag=      100000 FMFlg1=         800
         NFxFlg=           0 DoJE=F BraDBF=F KetDBF=F FulRan=T
         wScrn=  0.000000 ICntrl=      2127 IOpCl=  1 I1Cent=           0 NGrid=           0
         NMat0=    1 NMatS0=      1 NMatT0=    0 NMatD0=    1 NMtDS0=    0 NMtDT0=    0
 Symmetry not used in FoFCou.
 Leave Link  703 at Thu Mar 14 11:41:26 2024, MaxMem= 32212254720 cpu:             202.0 elap:               6.7
 (Enter /home/<user>/g16/l716.exe)
 Dipole        =-8.38140878D-01-1.85806112D-01-6.73680661D-02
 ***** Axes restored to original set *****
 -------------------------------------------------------------------
 Center     Atomic                   Forces (Hartrees/Bohr)
 Number     Number              X              Y              Z
 -------------------------------------------------------------------
      1        6           0.000003052    0.000006086   -0.000000553
      2        6          -0.000001833   -0.000000859    0.000000140
      3        6           0.000002486   -0.000011006    0.000000306
      4        6           0.000005250   -0.000000279    0.000002023
      5        6          -0.000010621    0.000001396   -0.000000865
      6        6          -0.000004819    0.000004462   -0.000001694
      7        1          -0.000002368   -0.000001393   -0.000000378
      8        1          -0.000001070    0.000002592   -0.000000072
      9        1           0.000003149   -0.000000721   -0.000000621
     10        6           0.000001463   -0.000007157    0.000003271
     11        6          -0.000002702   -0.000003904    0.000001071
     12        6           0.000000936   -0.000002599    0.000000736
     13        6          -0.000000246    0.000000187   -0.000000110
     14        6          -0.000001514    0.000001126   -0.000000742
     15        6           0.000002110    0.000005842   -0.000001939
     16        6           0.000008065   -0.000000842    0.000000004
     17        1          -0.000000089    0.000001317    0.000000188
     18        1           0.000000207   -0.000000197    0.000000212
     19        1           0.000001143   -0.000000071   -0.000000451
     20        1          -0.000002004   -0.000001453   -0.000000385
     21        6          -0.000000161    0.000004387   -0.000002271
     22        1           0.000000357    0.000000359    0.000000295
     23        1          -0.000000374    0.000000060    0.000000701
     24        1           0.000000086   -0.000000481    0.000000332
     25        6          -0.000000345    0.000004754    0.000000720
     26        1          -0.000000379   -0.000001031    0.000000783
     27        1           0.000000581   -0.000000573    0.000000616
     28        1          -0.000000112   -0.000001322    0.000000810
     29        6           0.000005750   -0.000000625    0.000000041
     30        6           0.000001619    0.000003879   -0.000000420
     31        6          -0.000003301   -0.000004814    0.000002178
     32        6          -0.000003105    0.000004354   -0.000000235
     33        6          -0.000001174   -0.000007639    0.000000735
     34        1           0.000000854    0.000000922   -0.000001429
     35        6           0.000000152    0.000000258    0.000000923
     36        1          -0.000001765    0.000002200   -0.000001784
     37        7           0.000012044    0.000003688   -0.000001494
     38        7          -0.000009354    0.000004561   -0.000000896
     39       16          -0.000002180   -0.000006166   -0.000001496
     40        6          -0.000003187   -0.000001025    0.000000300
     41        6           0.000002281    0.000007353   -0.000001371
     42        6          -0.000000619   -0.000006570    0.000001277
     43        6          -0.000001039    0.000002516   -0.000000082
     44        1           0.000000816   -0.000001806   -0.000000037
     45        6          -0.000001227   -0.000001605    0.000000679
     46        1           0.000001677    0.000001642   -0.000000182
     47        6           0.000001062   -0.000000905   -0.000000899
     48        1          -0.000000597   -0.000001225   -0.000000590
     49        1           0.000000324    0.000001250    0.000001171
     50        6           0.000004861   -0.000000545    0.000003380
     51        1          -0.000000722    0.000000365   -0.000000143
     52        1          -0.000000707   -0.000000704   -0.000000032
     53        6          -0.000011920    0.000006152   -0.000000130
     54        1           0.000001639   -0.000001538   -0.000000323
     55        1           0.000000961   -0.000000023    0.000000398
     56        7           0.000005178   -0.000006513   -0.000003303
     57        1           0.000000658    0.000002092    0.000000040
     58        1           0.000000776    0.000001793    0.000001598
 -------------------------------------------------------------------
 Cartesian Forces:  Max     0.000012044 RMS     0.000003071
 Leave Link  716 at Thu Mar 14 11:41:26 2024, MaxMem= 32212254720 cpu:               0.7 elap:               0.0
 (Enter /home/<user>/g16/l103.exe)

 GradGradGradGradGradGradGradGradGradGradGradGradGradGradGradGradGradGrad
 Berny optimization.
 Using GEDIIS/GDIIS optimizer.
 FormGI is forming the generalized inverse of G from B-inverse, IUseBI=4.
 Internal  Forces:  Max     0.000008397 RMS     0.000001672
 Search for a local minimum.
 Step number  15 out of a maximum of  346
 All quantities printed in internal units (Hartrees-Bohrs-Radians)
 RMS Force = .16717D-05 SwitMx=.10000D-02 MixMth= 2
 Mixed Optimization -- En-DIIS/RFO-DIIS
 Swapping is turned off.
 Update second derivatives using D2CorX and points    2    3    4    5    6
                                                      7    8    9   10   11
                                                     12   13   14   15
 DE= -1.31D-08 DEPred=-1.00D-08 R= 1.31D+00
 Trust test= 1.31D+00 RLast= 2.30D-03 DXMaxT set to 6.41D-01
 ITU=  0  0  0  0  0  0  1  1  1  1  1  0  1  1  0
     Eigenvalues ---    0.00084   0.00218   0.00230   0.00230   0.00266
     Eigenvalues ---    0.00756   0.00942   0.01099   0.01251   0.01446
     Eigenvalues ---    0.01478   0.01575   0.01609   0.01641   0.01654
     Eigenvalues ---    0.01676   0.01734   0.01757   0.01860   0.01883
     Eigenvalues ---    0.01933   0.02008   0.02033   0.02048   0.02070
     Eigenvalues ---    0.02079   0.02086   0.02094   0.02099   0.02112
     Eigenvalues ---    0.02115   0.02119   0.02130   0.02134   0.02137
     Eigenvalues ---    0.02144   0.02146   0.02148   0.02158   0.02162
     Eigenvalues ---    0.02169   0.02299   0.02346   0.03945   0.04068
     Eigenvalues ---    0.04352   0.04354   0.05157   0.05392   0.05398
     Eigenvalues ---    0.05448   0.05536   0.05545   0.05590   0.06042
     Eigenvalues ---    0.08087   0.08833   0.09199   0.11561   0.12525
     Eigenvalues ---    0.12802   0.14639   0.15808   0.15940   0.15971
     Eigenvalues ---    0.15994   0.15999   0.16000   0.16000   0.16000
     Eigenvalues ---    0.16000   0.16000   0.16000   0.16001   0.16005
     Eigenvalues ---    0.16008   0.16015   0.16021   0.16042   0.16060
     Eigenvalues ---    0.16077   0.16238   0.19252   0.21064   0.21885
     Eigenvalues ---    0.22003   0.22035   0.22125   0.22389   0.22549
     Eigenvalues ---    0.22762   0.23033   0.23488   0.24230   0.24437
     Eigenvalues ---    0.24734   0.24777   0.24928   0.24961   0.25013
     Eigenvalues ---    0.25019   0.25113   0.28045   0.28063   0.28156
     Eigenvalues ---    0.28837   0.28996   0.30403   0.31243   0.33051
     Eigenvalues ---    0.33284   0.33767   0.34016   0.34082   0.34098
     Eigenvalues ---    0.34104   0.34112   0.34118   0.34186   0.34281
     Eigenvalues ---    0.34296   0.34608   0.35039   0.35057   0.35092
     Eigenvalues ---    0.35132   0.35154   0.35183   0.35193   0.35203
     Eigenvalues ---    0.35236   0.35256   0.35363   0.35616   0.35823
     Eigenvalues ---    0.36159   0.36320   0.37774   0.37998   0.39473
     Eigenvalues ---    0.40728   0.41199   0.41424   0.41542   0.41850
     Eigenvalues ---    0.42170   0.42372   0.43379   0.43564   0.44210
     Eigenvalues ---    0.44474   0.44695   0.44989   0.45284   0.45417
     Eigenvalues ---    0.45590   0.45765   0.45961   0.46223   0.46257
     Eigenvalues ---    0.47018   0.47257   0.47759   0.48478   0.51185
     Eigenvalues ---    0.54441   0.57393   0.64973
 En-DIIS/RFO-DIIS/Sim-DIIS IScMMF=       -3 using points:    15   14   13   12   11   10    9    8    7    6
 RFO step:  Lambda=-2.65942397D-09.
 NNeg= 0 NGDIIS=10 SimSw=  2.50D-01 Rises=F DC= -1.31D-08 SmlDif=  1.00D-05
 NRisDI= 0 DoIntr=F SqrtH=F CThrHd= 10.0 CDAdj=  3.0
 RMS Error=  0.2421789233D-04 NUsed=10 OKEnD=F EnDIS=F
 InvSVX:  RCond= 1.31D-10 Info=           0 Equed=N FErr=  1.33D-10 BErr=  6.67D-17
 DIIS inversion failure, remove point  10.
 InvSVX:  RCond= 1.81D-10 Info=           0 Equed=N FErr=  9.71D-11 BErr=  7.97D-17
 DIIS inversion failure, remove point   9.
 InvSVX:  RCond= 2.39D-10 Info=           0 Equed=N FErr=  7.27D-11 BErr=  9.34D-17
 DIIS inversion failure, remove point   8.
 InvSVX:  RCond= 2.74D-10 Info=           0 Equed=N FErr=  6.81D-11 BErr=  1.05D-16
 DIIS inversion failure, remove point   7.
 InvSVX:  RCond= 1.93D-09 Info=           0 Equed=N FErr=  5.65D-12 BErr=  9.89D-17
 DIIS inversion failure, remove point   6.
 InvSVX:  RCond= 3.04D-09 Info=           0 Equed=N FErr=  4.33D-12 BErr=  6.58D-17
 DIIS inversion failure, remove point   5.
 InvSVX:  RCond= 6.65D-09 Info=           0 Equed=N FErr=  2.85D-13 BErr=  1.20D-16
 DIIS inversion failure, remove point   4.
 InvSVX:  RCond= 1.36D-08 Info=           0 Equed=N FErr=  6.80D-14 BErr=  4.70D-17
 DIIS inversion failure, remove point   3.
 InvSVX:  RCond= 1.32D-06 Info=           0 Equed=N FErr=  1.20D-15 BErr=  0.00D+00
 RFO-DIIS uses    2 points instead of   10
 DidBck=F Rises=F RFO-DIIS coefs:    1.14021   -0.14021    0.00000    0.00000    0.00000
                  RFO-DIIS coefs:    0.00000    0.00000    0.00000    0.00000    0.00000
 Iteration  1 RMS(Cart)=  0.00009965 RMS(Int)=  0.00000000
 Iteration  2 RMS(Cart)=  0.00000000 RMS(Int)=  0.00000000
 ITry= 1 IFail=0 DXMaxC= 4.87D-04 DCOld= 1.00D+10 DXMaxT= 6.41D-01 DXLimC= 3.00D+00 Rises=F
 Variable       Old X    -DE/DX   Delta X   Delta X   Delta X     New X
                                 (Linear)    (Quad)   (Total)
    R1        2.69949   0.00000  -0.00000   0.00001   0.00000   2.69949
    R2        2.60852   0.00000   0.00000   0.00000   0.00001   2.60853
    R3        2.04284  -0.00000  -0.00000  -0.00001  -0.00001   2.04284
    R4        2.69889   0.00000   0.00000   0.00001   0.00001   2.69890
    R5        2.73966  -0.00000   0.00000   0.00000   0.00000   2.73966
    R6        2.59578  -0.00000   0.00000  -0.00000  -0.00000   2.59578
    R7        2.05024  -0.00000  -0.00000  -0.00001  -0.00001   2.05023
    R8        2.69217   0.00001  -0.00000   0.00001   0.00001   2.69218
    R9        2.88729   0.00000   0.00000   0.00001   0.00001   2.88730
   R10        2.65978   0.00000  -0.00000   0.00000   0.00000   2.65978
   R11        2.72631  -0.00001   0.00000  -0.00002  -0.00001   2.72630
   R12        2.05173  -0.00000  -0.00000  -0.00000  -0.00000   2.05173
   R13        2.88484   0.00000   0.00000   0.00001   0.00001   2.88485
   R14        2.92308  -0.00000  -0.00000  -0.00001  -0.00001   2.92307
   R15        2.92198  -0.00000  -0.00000  -0.00001  -0.00001   2.92197
   R16        2.62239  -0.00000   0.00000  -0.00000   0.00000   2.62239
   R17        2.68189   0.00000  -0.00000   0.00001   0.00000   2.68189
   R18        2.64708   0.00000   0.00000   0.00000   0.00000   2.64708
   R19        2.05288  -0.00000  -0.00000  -0.00000  -0.00000   2.05287
   R20        2.65804   0.00000  -0.00000   0.00000   0.00000   2.65804
   R21        2.05249  -0.00000   0.00000  -0.00000  -0.00000   2.05249
   R22        2.62356  -0.00000   0.00000   0.00000   0.00000   2.62356
   R23        2.05129  -0.00000  -0.00000  -0.00000  -0.00000   2.05129
   R24        2.65728   0.00000  -0.00000   0.00000   0.00000   2.65728
   R25        2.05241  -0.00000  -0.00000  -0.00000  -0.00000   2.05241
   R26        2.06928  -0.00000  -0.00000  -0.00000  -0.00000   2.06928
   R27        2.07032  -0.00000   0.00000  -0.00000   0.00000   2.07032
   R28        2.06804  -0.00000  -0.00000  -0.00000  -0.00000   2.06804
   R29        2.07045   0.00000   0.00000   0.00000   0.00000   2.07045
   R30        2.06925  -0.00000  -0.00000   0.00000   0.00000   2.06925
   R31        2.06817  -0.00000   0.00000  -0.00000  -0.00000   2.06817
   R32        2.73823   0.00000   0.00000   0.00000   0.00001   2.73824
   R33        2.65993   0.00000  -0.00000   0.00000  -0.00000   2.65993
   R34        2.74947  -0.00001  -0.00000  -0.00001  -0.00001   2.74946
   R35        2.52159  -0.00000  -0.00000  -0.00000  -0.00000   2.52159
   R36        2.63747  -0.00000   0.00000  -0.00000  -0.00000   2.63747
   R37        2.04816  -0.00000  -0.00000  -0.00000  -0.00000   2.04815
   R38        2.73414   0.00000   0.00000   0.00001   0.00001   2.73415
   R39        2.52263  -0.00000  -0.00000  -0.00000  -0.00000   2.52263
   R40        2.65508   0.00001  -0.00000   0.00001   0.00001   2.65509
   R41        2.04824  -0.00000  -0.00000  -0.00001  -0.00001   2.04823
   R42        2.75052   0.00000  -0.00000   0.00000   0.00000   2.75052
   R43        3.10159  -0.00001  -0.00001  -0.00002  -0.00003   3.10157
   R44        3.09603  -0.00001  -0.00001  -0.00002  -0.00002   3.09601
   R45        2.67941   0.00001   0.00000   0.00001   0.00001   2.67942
   R46        2.68157   0.00000  -0.00000   0.00001   0.00001   2.68158
   R47        2.61815  -0.00000  -0.00000  -0.00000  -0.00000   2.61815
   R48        2.04418  -0.00000  -0.00000  -0.00001  -0.00001   2.04418
   R49        2.61405  -0.00000   0.00000  -0.00000   0.00000   2.61405
   R50        2.05030  -0.00000  -0.00000  -0.00001  -0.00001   2.05029
   R51        2.65877   0.00000   0.00000   0.00000   0.00000   2.65877
   R52        2.05364  -0.00000  -0.00000  -0.00000  -0.00000   2.05364
   R53        2.66223   0.00000  -0.00000   0.00000   0.00000   2.66223
   R54        2.05351  -0.00000  -0.00000  -0.00000  -0.00000   2.05350
   R55        2.84104   0.00000   0.00000   0.00000   0.00000   2.84104
   R56        2.06854  -0.00000  -0.00000  -0.00000  -0.00000   2.06854
   R57        2.07412  -0.00000   0.00000  -0.00000   0.00000   2.07412
   R58        2.92932  -0.00000  -0.00000  -0.00001  -0.00002   2.92930
   R59        2.08737  -0.00000  -0.00000  -0.00001  -0.00001   2.08736
   R60        2.07187   0.00000  -0.00000  -0.00000  -0.00000   2.07187
   R61        2.75459   0.00001   0.00001   0.00002   0.00003   2.75462
   R62        1.92450   0.00000   0.00000   0.00000   0.00001   1.92450
   R63        1.92253   0.00000   0.00000   0.00000   0.00001   1.92253
    A1        2.12048  -0.00000   0.00000   0.00000   0.00000   2.12048
    A2        2.07735   0.00000   0.00000   0.00001   0.00001   2.07736
    A3        2.08525  -0.00000  -0.00000  -0.00001  -0.00001   2.08524
    A4        2.06346   0.00000   0.00000   0.00001   0.00001   2.06347
    A5        2.12208  -0.00000  -0.00000  -0.00000  -0.00000   2.12208
    A6        2.09750  -0.00000   0.00000  -0.00001  -0.00001   2.09749
    A7        2.10187  -0.00000  -0.00000  -0.00001  -0.00002   2.10186
    A8        2.09095   0.00000   0.00001   0.00001   0.00002   2.09097
    A9        2.08906   0.00000  -0.00000   0.00000  -0.00000   2.08906
   A10        2.09974   0.00000   0.00000   0.00001   0.00001   2.09975
   A11        2.25178  -0.00000  -0.00001  -0.00001  -0.00001   2.25177
   A12        1.93162  -0.00000   0.00000  -0.00000   0.00000   1.93162
   A13        2.09817   0.00000  -0.00000   0.00000   0.00000   2.09817
   A14        1.89990   0.00000  -0.00000   0.00000  -0.00000   1.89990
   A15        2.28511  -0.00000   0.00000  -0.00000   0.00000   2.28511
   A16        2.08249  -0.00000  -0.00000  -0.00001  -0.00001   2.08249
   A17        2.09282  -0.00000  -0.00001  -0.00001  -0.00002   2.09280
   A18        2.10786   0.00000   0.00001   0.00002   0.00003   2.10789
   A19        1.75898  -0.00000  -0.00000  -0.00000  -0.00001   1.75898
   A20        1.94372  -0.00000   0.00000  -0.00000   0.00000   1.94372
   A21        1.94643  -0.00000  -0.00000  -0.00000  -0.00000   1.94643
   A22        1.94288   0.00000  -0.00000  -0.00000  -0.00000   1.94288
   A23        1.94501  -0.00000   0.00000  -0.00000  -0.00000   1.94500
   A24        1.92217   0.00000   0.00000   0.00001   0.00001   1.92218
   A25        2.25032   0.00000  -0.00000   0.00001   0.00000   2.25033
   A26        1.94066  -0.00000   0.00000  -0.00000  -0.00000   1.94066
   A27        2.09220  -0.00000  -0.00000  -0.00000  -0.00000   2.09219
   A28        2.07434  -0.00000  -0.00000  -0.00000  -0.00000   2.07434
   A29        2.11574   0.00000  -0.00000   0.00000   0.00000   2.11574
   A30        2.09311  -0.00000   0.00000  -0.00000   0.00000   2.09311
   A31        2.11702   0.00000  -0.00000   0.00000   0.00000   2.11703
   A32        2.08436  -0.00000  -0.00000  -0.00000  -0.00000   2.08435
   A33        2.08180  -0.00000   0.00000  -0.00000  -0.00000   2.08180
   A34        2.10150   0.00000   0.00000  -0.00000   0.00000   2.10150
   A35        2.08672   0.00000   0.00000   0.00001   0.00001   2.08673
   A36        2.09496  -0.00000  -0.00000  -0.00001  -0.00001   2.09495
   A37        2.06757  -0.00000  -0.00000  -0.00001  -0.00001   2.06756
   A38        2.10492  -0.00000  -0.00000  -0.00001  -0.00001   2.10491
   A39        2.11069   0.00000   0.00000   0.00001   0.00002   2.11071
   A40        1.89350   0.00000  -0.00000   0.00001   0.00001   1.89350
   A41        2.27595  -0.00000  -0.00000  -0.00001  -0.00001   2.27593
   A42        2.11374   0.00000   0.00000   0.00001   0.00001   2.11375
   A43        1.92629  -0.00000  -0.00000  -0.00000  -0.00000   1.92629
   A44        1.93077   0.00000   0.00000   0.00000   0.00000   1.93077
   A45        1.94495   0.00000   0.00000   0.00001   0.00001   1.94496
   A46        1.88010  -0.00000  -0.00000  -0.00001  -0.00001   1.88009
   A47        1.88879  -0.00000   0.00000  -0.00000  -0.00000   1.88879
   A48        1.89105  -0.00000  -0.00000  -0.00000  -0.00000   1.89105
   A49        1.93073   0.00000   0.00000   0.00000   0.00000   1.93074
   A50        1.92683   0.00000   0.00000   0.00000   0.00000   1.92683
   A51        1.94533   0.00000   0.00000   0.00001   0.00001   1.94534
   A52        1.87883  -0.00000  -0.00000  -0.00001  -0.00001   1.87881
   A53        1.89163  -0.00000  -0.00000  -0.00000  -0.00000   1.89162
   A54        1.88856  -0.00000  -0.00000  -0.00000  -0.00000   1.88855
   A55        2.16835  -0.00000   0.00000   0.00000   0.00000   2.16835
   A56        2.11841  -0.00000  -0.00000  -0.00001  -0.00001   2.11839
   A57        1.99642   0.00001  -0.00000   0.00001   0.00001   1.99643
   A58        2.11824  -0.00000  -0.00000  -0.00001  -0.00001   2.11823
   A59        2.19181   0.00000   0.00000   0.00001   0.00001   2.19183
   A60        1.97211  -0.00000  -0.00000  -0.00001  -0.00001   1.97210
   A61        2.16686  -0.00000   0.00000  -0.00000  -0.00000   2.16686
   A62        2.07258   0.00000   0.00001   0.00000   0.00001   2.07259
   A63        2.04178   0.00000  -0.00001  -0.00000  -0.00001   2.04178
   A64        2.12379  -0.00000   0.00000   0.00000   0.00000   2.12379
   A65        1.97342  -0.00000  -0.00000  -0.00001  -0.00001   1.97341
   A66        2.18512   0.00000   0.00000   0.00001   0.00001   2.18513
   A67        2.16211  -0.00000  -0.00000  -0.00001  -0.00001   2.16211
   A68        2.04754   0.00000  -0.00000  -0.00000  -0.00001   2.04753
   A69        2.07187   0.00000   0.00001   0.00001   0.00001   2.07188
   A70        1.99861   0.00000   0.00000   0.00001   0.00001   1.99861
   A71        2.16341  -0.00000   0.00000  -0.00000  -0.00000   2.16341
   A72        2.12117   0.00000  -0.00000  -0.00000  -0.00000   2.12116
   A73        1.87295   0.00000   0.00000   0.00001   0.00001   1.87296
   A74        1.87330   0.00000   0.00000   0.00001   0.00001   1.87331
   A75        1.73295  -0.00000   0.00000  -0.00001  -0.00001   1.73295
   A76        2.13347  -0.00000   0.00000   0.00000   0.00000   2.13347
   A77        2.09777   0.00000  -0.00000   0.00000   0.00000   2.09777
   A78        2.05172   0.00000   0.00000  -0.00000  -0.00000   2.05172
   A79        2.10744  -0.00000  -0.00000  -0.00000  -0.00000   2.10744
   A80        2.08893   0.00000   0.00000   0.00000   0.00000   2.08894
   A81        2.08652   0.00000  -0.00000  -0.00000  -0.00000   2.08652
   A82        2.11361  -0.00000  -0.00000  -0.00000  -0.00000   2.11361
   A83        2.09461   0.00000   0.00000   0.00000   0.00001   2.09462
   A84        2.07394   0.00000  -0.00000  -0.00000  -0.00001   2.07394
   A85        2.12107   0.00000   0.00000   0.00000   0.00000   2.12107
   A86        2.08030  -0.00000  -0.00000  -0.00000  -0.00000   2.08030
   A87        2.08175  -0.00000   0.00000  -0.00000   0.00000   2.08175
   A88        2.11536   0.00000   0.00000   0.00000   0.00000   2.11537
   A89        2.08609   0.00000  -0.00000   0.00000  -0.00000   2.08609
   A90        2.08173  -0.00000   0.00000  -0.00000  -0.00000   2.08173
   A91        2.05696   0.00000  -0.00000   0.00000  -0.00000   2.05696
   A92        2.11758   0.00000  -0.00000   0.00000   0.00000   2.11758
   A93        2.10814  -0.00000   0.00000  -0.00000  -0.00000   2.10813
   A94        1.93203  -0.00000  -0.00000  -0.00001  -0.00001   1.93202
   A95        1.91788  -0.00000  -0.00000  -0.00001  -0.00001   1.91787
   A96        1.96502   0.00000   0.00000   0.00001   0.00001   1.96503
   A97        1.87293   0.00000  -0.00000  -0.00000  -0.00001   1.87292
   A98        1.87736   0.00000   0.00000   0.00000   0.00001   1.87737
   A99        1.89573  -0.00000  -0.00000   0.00000   0.00000   1.89573
   A100       1.89812   0.00000   0.00000   0.00001   0.00002   1.89814
   A101       1.89945   0.00000   0.00000   0.00001   0.00001   1.89946
   A102       1.91193  -0.00000  -0.00000  -0.00002  -0.00002   1.91191
   A103       1.86137  -0.00000   0.00000   0.00001   0.00001   1.86138
   A104       2.00483   0.00000  -0.00000  -0.00001  -0.00001   2.00482
   A105       1.88533   0.00000  -0.00000  -0.00001  -0.00001   1.88532
   A106       1.93313  -0.00000  -0.00001  -0.00002  -0.00002   1.93311
   A107       1.93019  -0.00000  -0.00000  -0.00002  -0.00002   1.93017
   A108       1.86379  -0.00000  -0.00001  -0.00002  -0.00002   1.86376
    D1       -0.01078  -0.00000  -0.00001  -0.00001  -0.00002  -0.01080
    D2        3.11216  -0.00000  -0.00000  -0.00000  -0.00001   3.11215
    D3       -3.13623   0.00000  -0.00001  -0.00001  -0.00002  -3.13625
    D4       -0.01329   0.00000  -0.00001   0.00000  -0.00000  -0.01330
    D5        0.01620   0.00000   0.00000   0.00001   0.00001   0.01621
    D6       -3.12086   0.00000  -0.00000   0.00001   0.00001  -3.12085
    D7        3.14158   0.00000   0.00000   0.00000   0.00000   3.14159
    D8        0.00453   0.00000  -0.00000   0.00000   0.00000   0.00453
    D9       -0.00508  -0.00000   0.00001   0.00000   0.00001  -0.00507
   D10       -3.09174   0.00000   0.00001   0.00002   0.00003  -3.09171
   D11       -3.12829  -0.00000   0.00000  -0.00001  -0.00000  -3.12830
   D12        0.06823   0.00000   0.00001   0.00001   0.00001   0.06825
   D13        0.41512  -0.00000  -0.00002  -0.00005  -0.00007   0.41505
   D14       -2.72078  -0.00000  -0.00002  -0.00003  -0.00006  -2.72083
   D15       -2.74548  -0.00000  -0.00002  -0.00004  -0.00006  -2.74554
   D16        0.40180  -0.00000  -0.00002  -0.00002  -0.00004   0.40176
   D17        0.01494   0.00000  -0.00000   0.00002   0.00001   0.01496
   D18       -3.11670   0.00000  -0.00001   0.00000  -0.00001  -3.11671
   D19        3.10166   0.00000  -0.00000  -0.00000  -0.00000   3.10166
   D20       -0.02998  -0.00000  -0.00001  -0.00002  -0.00002  -0.03001
   D21       -0.00949  -0.00000  -0.00001  -0.00002  -0.00003  -0.00952
   D22        3.13643  -0.00000  -0.00001  -0.00003  -0.00003   3.13640
   D23        3.12384  -0.00000  -0.00000  -0.00001  -0.00001   3.12382
   D24       -0.01343  -0.00000  -0.00000  -0.00001  -0.00001  -0.01344
   D25       -3.13683   0.00000   0.00001   0.00003   0.00003  -3.13679
   D26        1.08410   0.00000   0.00001   0.00003   0.00004   1.08414
   D27       -1.07096  -0.00000   0.00000   0.00002   0.00003  -1.07093
   D28        0.01395   0.00000   0.00000   0.00001   0.00001   0.01396
   D29       -2.04831   0.00000   0.00000   0.00002   0.00002  -2.04829
   D30        2.07982  -0.00000  -0.00000   0.00001   0.00001   2.07983
   D31       -0.00614   0.00000   0.00001   0.00001   0.00002  -0.00612
   D32        3.13088   0.00000   0.00001   0.00001   0.00002   3.13090
   D33        3.13003   0.00000   0.00001   0.00001   0.00002   3.13005
   D34       -0.01614   0.00000   0.00001   0.00001   0.00002  -0.01612
   D35        0.00667   0.00000   0.00000   0.00001   0.00001   0.00667
   D36       -3.13501   0.00000   0.00000   0.00001   0.00001  -3.13500
   D37       -3.12997   0.00000   0.00000   0.00000   0.00000  -3.12997
   D38        0.01154   0.00000   0.00000   0.00001   0.00001   0.01155
   D39        3.13309  -0.00000  -0.00000  -0.00001  -0.00001   3.13308
   D40       -0.00988  -0.00000  -0.00000  -0.00001  -0.00001  -0.00989
   D41       -1.08723  -0.00000  -0.00000  -0.00001  -0.00002  -1.08724
   D42        2.05299  -0.00000  -0.00000  -0.00001  -0.00001   2.05298
   D43        1.06618   0.00000   0.00000  -0.00001  -0.00001   1.06617
   D44       -2.07679   0.00000   0.00000  -0.00000  -0.00000  -2.07679
   D45        3.06910  -0.00000  -0.00000  -0.00000  -0.00000   3.06910
   D46       -1.13501  -0.00000  -0.00000  -0.00001  -0.00001  -1.13502
   D47        0.96998  -0.00000  -0.00000  -0.00000  -0.00000   0.96998
   D48        1.12110   0.00000   0.00000   0.00000   0.00000   1.12110
   D49       -3.08302  -0.00000   0.00000  -0.00000  -0.00000  -3.08302
   D50       -0.97802   0.00000   0.00000   0.00000   0.00000  -0.97802
   D51       -1.04528   0.00000   0.00000   0.00000   0.00000  -1.04528
   D52        1.03379  -0.00000  -0.00000  -0.00000  -0.00001   1.03379
   D53        3.13878   0.00000   0.00000   0.00000   0.00000   3.13879
   D54        1.13678   0.00000   0.00000   0.00001   0.00002   1.13679
   D55       -3.06861   0.00000   0.00000   0.00000   0.00001  -3.06860
   D56       -0.96917   0.00000   0.00000   0.00001   0.00001  -0.96917
   D57        3.08757   0.00000  -0.00000   0.00001   0.00001   3.08758
   D58       -1.11781  -0.00000  -0.00000  -0.00000  -0.00000  -1.11781
   D59        0.98162  -0.00000  -0.00000   0.00000  -0.00000   0.98162
   D60       -1.03046   0.00000   0.00000   0.00001   0.00001  -1.03045
   D61        1.04734  -0.00000  -0.00000   0.00000  -0.00000   1.04734
   D62       -3.13641  -0.00000  -0.00000   0.00000   0.00000  -3.13641
   D63        3.13885   0.00000   0.00000   0.00000   0.00000   3.13885
   D64       -0.00144   0.00000   0.00000   0.00000   0.00000  -0.00144
   D65       -0.00127   0.00000   0.00000   0.00000   0.00000  -0.00127
   D66       -3.14156   0.00000  -0.00000   0.00000   0.00000  -3.14156
   D67        0.00261  -0.00000   0.00000   0.00000   0.00000   0.00262
   D68       -3.13890  -0.00000  -0.00000  -0.00000  -0.00000  -3.13891
   D69       -3.14021   0.00000   0.00000   0.00000   0.00000  -3.14021
   D70        0.00146  -0.00000   0.00000  -0.00000  -0.00000   0.00146
   D71        0.00051   0.00000   0.00000   0.00000   0.00000   0.00051
   D72       -3.14054   0.00000  -0.00000   0.00000   0.00000  -3.14054
   D73        3.14081   0.00000   0.00000   0.00000   0.00000   3.14081
   D74       -0.00023   0.00000  -0.00000   0.00000   0.00000  -0.00023
   D75        0.00011  -0.00000  -0.00000  -0.00000  -0.00000   0.00011
   D76        3.14147  -0.00000  -0.00000  -0.00000  -0.00000   3.14147
   D77        3.14116  -0.00000  -0.00000  -0.00000  -0.00000   3.14116
   D78       -0.00067  -0.00000   0.00000  -0.00000  -0.00000  -0.00067
   D79        0.00004   0.00000   0.00000   0.00000   0.00000   0.00004
   D80        3.14079  -0.00000  -0.00000  -0.00000  -0.00000   3.14079
   D81       -3.14131   0.00000   0.00000   0.00000   0.00000  -3.14131
   D82       -0.00057  -0.00000  -0.00000  -0.00000  -0.00000  -0.00057
   D83        3.14086  -0.00000  -0.00000  -0.00001  -0.00001   3.14086
   D84       -0.00082  -0.00000  -0.00000   0.00000   0.00000  -0.00082
   D85        0.00012   0.00000  -0.00000  -0.00000  -0.00000   0.00012
   D86       -3.14157   0.00000   0.00000   0.00000   0.00000  -3.14156
   D87       -3.11930  -0.00000  -0.00001  -0.00004  -0.00005  -3.11935
   D88        0.07445  -0.00000  -0.00001  -0.00006  -0.00007   0.07438
   D89        0.01695  -0.00000  -0.00001  -0.00005  -0.00007   0.01689
   D90       -3.07248  -0.00000  -0.00001  -0.00007  -0.00008  -3.07257
   D91        3.11468   0.00000   0.00001   0.00004   0.00005   3.11473
   D92        0.04243   0.00000   0.00001   0.00006   0.00007   0.04250
   D93       -0.02175   0.00000   0.00001   0.00005   0.00006  -0.02168
   D94       -3.09399   0.00000   0.00001   0.00007   0.00008  -3.09391
   D95        0.00395   0.00000   0.00000   0.00000   0.00001   0.00396
   D96       -3.09532   0.00000  -0.00000  -0.00001  -0.00001  -3.09533
   D97        3.09947   0.00000   0.00000   0.00002   0.00002   3.09949
   D98        0.00020   0.00000  -0.00000   0.00001   0.00001   0.00021
   D99        3.09919  -0.00000   0.00001  -0.00001  -0.00000   3.09918
   D100       0.00597  -0.00000   0.00001  -0.00003  -0.00002   0.00595
   D101       0.00485   0.00000  -0.00000   0.00001   0.00001   0.00486
   D102      -3.07389   0.00000  -0.00000   0.00003   0.00003  -3.07386
   D103       3.07822  -0.00000  -0.00000  -0.00002  -0.00002   3.07821
   D104      -0.00052   0.00000  -0.00000   0.00001   0.00001  -0.00051
   D105      -0.02056   0.00000   0.00001   0.00005   0.00006  -0.02050
   D106       3.11982   0.00000   0.00001   0.00003   0.00004   3.11986
   D107       3.07338   0.00000   0.00001   0.00006   0.00008   3.07345
   D108      -0.06942   0.00000   0.00001   0.00004   0.00005  -0.06937
   D109      -0.00627   0.00000  -0.00001   0.00001   0.00001  -0.00627
   D110      -3.10379   0.00000  -0.00001   0.00000  -0.00001  -3.10380
   D111       0.01683  -0.00000  -0.00001  -0.00006  -0.00007   0.01676
   D112      -3.12358  -0.00000  -0.00001  -0.00004  -0.00005  -3.12363
   D113       3.09475  -0.00000  -0.00001  -0.00008  -0.00009   3.09466
   D114      -0.04566  -0.00000  -0.00001  -0.00006  -0.00007  -0.04573
   D115      -0.46358   0.00000   0.00002   0.00001   0.00003  -0.46355
   D116       2.70145   0.00000   0.00002  -0.00002   0.00000   2.70145
   D117       2.67672   0.00000   0.00002  -0.00001   0.00001   2.67673
   D118      -0.44143  -0.00000   0.00002  -0.00004  -0.00002  -0.44145
   D119      -0.00865   0.00000  -0.00001   0.00003   0.00002  -0.00862
   D120       0.00875  -0.00000   0.00001  -0.00003  -0.00002   0.00874
   D121      -3.10633  -0.00000   0.00000  -0.00001  -0.00001  -3.10634
   D122       0.00943  -0.00000   0.00000  -0.00002  -0.00001   0.00941
   D123       0.01242   0.00000   0.00000   0.00001   0.00002   0.01243
   D124       3.12817   0.00000   0.00000   0.00001   0.00001   3.12818
   D125       3.12382   0.00000  -0.00000   0.00002   0.00002   3.12385
   D126      -0.06687   0.00000  -0.00000   0.00001   0.00000  -0.06686
   D127       0.00459   0.00000  -0.00000  -0.00000  -0.00001   0.00459
   D128       3.09709  -0.00000  -0.00000  -0.00002  -0.00002   3.09707
   D129      -0.01604  -0.00000  -0.00000  -0.00001  -0.00001  -0.01605
   D130       3.11310  -0.00000  -0.00000  -0.00002  -0.00002   3.11308
   D131      -3.13182  -0.00000  -0.00000  -0.00001  -0.00001  -3.13183
   D132      -0.00269  -0.00000  -0.00000  -0.00001  -0.00001  -0.00270
   D133      -0.01841  -0.00000  -0.00000  -0.00001  -0.00001  -0.01842
   D134       3.12264  -0.00000  -0.00000  -0.00002  -0.00002   3.12262
   D135      -3.11148   0.00000   0.00000   0.00001   0.00001  -3.11147
   D136       0.02958  -0.00000  -0.00000  -0.00000  -0.00000   0.02957
   D137       0.00236  -0.00000  -0.00000  -0.00000  -0.00000   0.00236
   D138      -3.10494  -0.00000  -0.00000  -0.00000  -0.00001  -3.10495
   D139      -3.12676   0.00000   0.00000   0.00000   0.00000  -3.12676
   D140       0.04912   0.00000  -0.00000   0.00000  -0.00000   0.04912
   D141       0.01482   0.00000   0.00000   0.00001   0.00002   0.01484
   D142       3.12232   0.00000   0.00000   0.00002   0.00002   3.12234
   D143      -3.12623   0.00000   0.00000   0.00002   0.00002  -3.12621
   D144      -0.01874   0.00000   0.00000   0.00002   0.00003  -0.01871
   D145      -2.67227   0.00000  -0.00012   0.00003  -0.00009  -2.67236
   D146      -0.60660  -0.00000  -0.00012   0.00002  -0.00011  -0.60671
   D147       1.50891  -0.00000  -0.00013   0.00002  -0.00010   1.50881
   D148       0.50461   0.00000  -0.00012   0.00003  -0.00009   0.50452
   D149       2.57028  -0.00000  -0.00013   0.00001  -0.00011   2.57017
   D150      -1.59739  -0.00000  -0.00013   0.00002  -0.00011  -1.59750
   D151      -1.01763  -0.00000   0.00001  -0.00002  -0.00002  -1.01765
   D152       1.00372   0.00000   0.00001  -0.00000   0.00001   1.00373
   D153       3.06145  -0.00000   0.00001  -0.00001  -0.00001   3.06145
   D154       3.13238  -0.00000   0.00000  -0.00002  -0.00002   3.13237
   D155      -1.12945   0.00000   0.00001   0.00000   0.00001  -1.12944
   D156       0.92828  -0.00000   0.00000  -0.00001  -0.00001   0.92828
   D157       1.11046  -0.00000   0.00000  -0.00002  -0.00002   1.11045
   D158       3.13182   0.00000   0.00001   0.00000   0.00001   3.13183
   D159      -1.09363  -0.00000   0.00000  -0.00001  -0.00001  -1.09364
   D160       1.29521   0.00000  -0.00001   0.00001  -0.00001   1.29520
   D161      -2.92520  -0.00000  -0.00003  -0.00004  -0.00007  -2.92527
   D162      -0.84673   0.00000  -0.00002   0.00001  -0.00001  -0.84674
   D163       1.21605  -0.00000  -0.00003  -0.00004  -0.00007   1.21598
   D164      -2.92145   0.00000  -0.00002   0.00000  -0.00001  -2.92147
   D165      -0.85868  -0.00000  -0.00003  -0.00004  -0.00007  -0.85875
         Item               Value     Threshold  Converged?
 Maximum Force            0.000008     0.000450     YES
 RMS     Force            0.000002     0.000300     YES
 Maximum Displacement     0.000487     0.001800     YES
 RMS     Displacement     0.000100     0.001200     YES
 Predicted change in Energy=-2.260031D-09
 Optimization completed.
    -- Stationary point found.
                           ----------------------------
                           !   Optimized Parameters   !
                           ! (Angstroms and Degrees)  !
 --------------------------                            --------------------------
 ! Name  Definition              Value          Derivative Info.                !
 --------------------------------------------------------------------------------
 ! R1    R(1,2)                  1.4285         -DE/DX =    0.0                 !
 ! R2    R(1,6)                  1.3804         -DE/DX =    0.0                 !
 ! R3    R(1,7)                  1.081          -DE/DX =    0.0                 !
 ! R4    R(2,3)                  1.4282         -DE/DX =    0.0                 !
 ! R5    R(2,29)                 1.4498         -DE/DX =    0.0                 !
 ! R6    R(3,4)                  1.3736         -DE/DX =    0.0                 !
 ! R7    R(3,8)                  1.0849         -DE/DX =    0.0                 !
 ! R8    R(4,5)                  1.4246         -DE/DX =    0.0                 !
 ! R9    R(4,10)                 1.5279         -DE/DX =    0.0                 !
 ! R10   R(5,6)                  1.4075         -DE/DX =    0.0                 !
 ! R11   R(5,16)                 1.4427         -DE/DX =    0.0                 !
 ! R12   R(6,9)                  1.0857         -DE/DX =    0.0                 !
 ! R13   R(10,11)                1.5266         -DE/DX =    0.0                 !
 ! R14   R(10,21)                1.5468         -DE/DX =    0.0                 !
 ! R15   R(10,25)                1.5462         -DE/DX =    0.0                 !
 ! R16   R(11,12)                1.3877         -DE/DX =    0.0                 !
 ! R17   R(11,16)                1.4192         -DE/DX =    0.0                 !
 ! R18   R(12,13)                1.4008         -DE/DX =    0.0                 !
 ! R19   R(12,17)                1.0863         -DE/DX =    0.0                 !
 ! R20   R(13,14)                1.4066         -DE/DX =    0.0                 !
 ! R21   R(13,18)                1.0861         -DE/DX =    0.0                 !
 ! R22   R(14,15)                1.3883         -DE/DX =    0.0                 !
 ! R23   R(14,19)                1.0855         -DE/DX =    0.0                 !
 ! R24   R(15,16)                1.4062         -DE/DX =    0.0                 !
 ! R25   R(15,20)                1.0861         -DE/DX =    0.0                 !
 ! R26   R(21,22)                1.095          -DE/DX =    0.0                 !
 ! R27   R(21,23)                1.0956         -DE/DX =    0.0                 !
 ! R28   R(21,24)                1.0944         -DE/DX =    0.0                 !
 ! R29   R(25,26)                1.0956         -DE/DX =    0.0                 !
 ! R30   R(25,27)                1.095          -DE/DX =    0.0                 !
 ! R31   R(25,28)                1.0944         -DE/DX =    0.0                 !
 ! R32   R(29,30)                1.449          -DE/DX =    0.0                 !
 ! R33   R(29,31)                1.4076         -DE/DX =    0.0                 !
 ! R34   R(30,32)                1.455          -DE/DX =    0.0                 !
 ! R35   R(30,37)                1.3344         -DE/DX =    0.0                 !
 ! R36   R(31,33)                1.3957         -DE/DX =    0.0                 !
 ! R37   R(31,34)                1.0838         -DE/DX =    0.0                 !
 ! R38   R(32,35)                1.4468         -DE/DX =    0.0                 !
 ! R39   R(32,38)                1.3349         -DE/DX =    0.0                 !
 ! R40   R(33,35)                1.405          -DE/DX =    0.0                 !
 ! R41   R(33,36)                1.0839         -DE/DX =    0.0                 !
 ! R42   R(35,40)                1.4555         -DE/DX =    0.0                 !
 ! R43   R(37,39)                1.6413         -DE/DX =    0.0                 !
 ! R44   R(38,39)                1.6384         -DE/DX =    0.0                 !
 ! R45   R(40,41)                1.4179         -DE/DX =    0.0                 !
 ! R46   R(40,42)                1.419          -DE/DX =    0.0                 !
 ! R47   R(41,43)                1.3855         -DE/DX =    0.0                 !
 ! R48   R(41,44)                1.0817         -DE/DX =    0.0                 !
 ! R49   R(42,45)                1.3833         -DE/DX =    0.0                 !
 ! R50   R(42,46)                1.085          -DE/DX =    0.0                 !
 ! R51   R(43,47)                1.407          -DE/DX =    0.0                 !
 ! R52   R(43,48)                1.0867         -DE/DX =    0.0                 !
 ! R53   R(45,47)                1.4088         -DE/DX =    0.0                 !
 ! R54   R(45,49)                1.0867         -DE/DX =    0.0                 !
 ! R55   R(47,50)                1.5034         -DE/DX =    0.0                 !
 ! R56   R(50,51)                1.0946         -DE/DX =    0.0                 !
 ! R57   R(50,52)                1.0976         -DE/DX =    0.0                 !
 ! R58   R(50,53)                1.5501         -DE/DX =    0.0                 !
 ! R59   R(53,54)                1.1046         -DE/DX =    0.0                 !
 ! R60   R(53,55)                1.0964         -DE/DX =    0.0                 !
 ! R61   R(53,56)                1.4577         -DE/DX =    0.0                 !
 ! R62   R(56,57)                1.0184         -DE/DX =    0.0                 !
 ! R63   R(56,58)                1.0174         -DE/DX =    0.0                 !
 ! A1    A(2,1,6)              121.4944         -DE/DX =    0.0                 !
 ! A2    A(2,1,7)              119.0232         -DE/DX =    0.0                 !
 ! A3    A(6,1,7)              119.4761         -DE/DX =    0.0                 !
 ! A4    A(1,2,3)              118.2273         -DE/DX =    0.0                 !
 ! A5    A(1,2,29)             121.5862         -DE/DX =    0.0                 !
 ! A6    A(3,2,29)             120.1778         -DE/DX =    0.0                 !
 ! A7    A(2,3,4)              120.4284         -DE/DX =    0.0                 !
 ! A8    A(2,3,8)              119.8028         -DE/DX =    0.0                 !
 ! A9    A(4,3,8)              119.6944         -DE/DX =    0.0                 !
 ! A10   A(3,4,5)              120.3064         -DE/DX =    0.0                 !
 ! A11   A(3,4,10)             129.0176         -DE/DX =    0.0                 !
 ! A12   A(5,4,10)             110.6739         -DE/DX =    0.0                 !
 ! A13   A(4,5,6)              120.2161         -DE/DX =    0.0                 !
 ! A14   A(4,5,16)             108.8561         -DE/DX =    0.0                 !
 ! A15   A(6,5,16)             130.9271         -DE/DX =    0.0                 !
 ! A16   A(1,6,5)              119.3181         -DE/DX =    0.0                 !
 ! A17   A(1,6,9)              119.91           -DE/DX =    0.0                 !
 ! A18   A(5,6,9)              120.7714         -DE/DX =    0.0                 !
 ! A19   A(4,10,11)            100.7823         -DE/DX =    0.0                 !
 ! A20   A(4,10,21)            111.367          -DE/DX =    0.0                 !
 ! A21   A(4,10,25)            111.5223         -DE/DX =    0.0                 !
 ! A22   A(11,10,21)           111.3191         -DE/DX =    0.0                 !
 ! A23   A(11,10,25)           111.4406         -DE/DX =    0.0                 !
 ! A24   A(21,10,25)           110.1323         -DE/DX =    0.0                 !
 ! A25   A(10,11,12)           128.9341         -DE/DX =    0.0                 !
 ! A26   A(10,11,16)           111.1918         -DE/DX =    0.0                 !
 ! A27   A(12,11,16)           119.8741         -DE/DX =    0.0                 !
 ! A28   A(11,12,13)           118.8508         -DE/DX =    0.0                 !
 ! A29   A(11,12,17)           121.2231         -DE/DX =    0.0                 !
 ! A30   A(13,12,17)           119.9261         -DE/DX =    0.0                 !
 ! A31   A(12,13,14)           121.2965         -DE/DX =    0.0                 !
 ! A32   A(12,13,18)           119.4249         -DE/DX =    0.0                 !
 ! A33   A(14,13,18)           119.2786         -DE/DX =    0.0                 !
 ! A34   A(13,14,15)           120.4072         -DE/DX =    0.0                 !
 ! A35   A(13,14,19)           119.5603         -DE/DX =    0.0                 !
 ! A36   A(15,14,19)           120.0326         -DE/DX =    0.0                 !
 ! A37   A(14,15,16)           118.463          -DE/DX =    0.0                 !
 ! A38   A(14,15,20)           120.6031         -DE/DX =    0.0                 !
 ! A39   A(16,15,20)           120.9339         -DE/DX =    0.0                 !
 ! A40   A(5,16,11)            108.4894         -DE/DX =    0.0                 !
 ! A41   A(5,16,15)            130.4022         -DE/DX =    0.0                 !
 ! A42   A(11,16,15)           121.1084         -DE/DX =    0.0                 !
 ! A43   A(10,21,22)           110.3686         -DE/DX =    0.0                 !
 ! A44   A(10,21,23)           110.625          -DE/DX =    0.0                 !
 ! A45   A(10,21,24)           111.4374         -DE/DX =    0.0                 !
 ! A46   A(22,21,23)           107.7217         -DE/DX =    0.0                 !
 ! A47   A(22,21,24)           108.2199         -DE/DX =    0.0                 !
 ! A48   A(23,21,24)           108.3493         -DE/DX =    0.0                 !
 ! A49   A(10,25,26)           110.6228         -DE/DX =    0.0                 !
 ! A50   A(10,25,27)           110.3993         -DE/DX =    0.0                 !
 ! A51   A(10,25,28)           111.4591         -DE/DX =    0.0                 !
 ! A52   A(26,25,27)           107.6488         -DE/DX =    0.0                 !
 ! A53   A(26,25,28)           108.3822         -DE/DX =    0.0                 !
 ! A54   A(27,25,28)           108.2063         -DE/DX =    0.0                 !
 ! A55   A(2,29,30)            124.2372         -DE/DX =    0.0                 !
 ! A56   A(2,29,31)            121.3758         -DE/DX =    0.0                 !
 ! A57   A(30,29,31)           114.3862         -DE/DX =    0.0                 !
 ! A58   A(29,30,32)           121.3661         -DE/DX =    0.0                 !
 ! A59   A(29,30,37)           125.5816         -DE/DX =    0.0                 !
 ! A60   A(32,30,37)           112.9936         -DE/DX =    0.0                 !
 ! A61   A(29,31,33)           124.1521         -DE/DX =    0.0                 !
 ! A62   A(29,31,34)           118.7501         -DE/DX =    0.0                 !
 ! A63   A(33,31,34)           116.9856         -DE/DX =    0.0                 !
 ! A64   A(30,32,35)           121.6844         -DE/DX =    0.0                 !
 ! A65   A(30,32,38)           113.0685         -DE/DX =    0.0                 !
 ! A66   A(35,32,38)           125.198          -DE/DX =    0.0                 !
 ! A67   A(31,33,35)           123.8799         -DE/DX =    0.0                 !
 ! A68   A(31,33,36)           117.3156         -DE/DX =    0.0                 !
 ! A69   A(35,33,36)           118.7093         -DE/DX =    0.0                 !
 ! A70   A(32,35,33)           114.5117         -DE/DX =    0.0                 !
 ! A71   A(32,35,40)           123.9544         -DE/DX =    0.0                 !
 ! A72   A(33,35,40)           121.5338         -DE/DX =    0.0                 !
 ! A73   A(30,37,39)           107.3119         -DE/DX =    0.0                 !
 ! A74   A(32,38,39)           107.3323         -DE/DX =    0.0                 !
 ! A75   A(37,39,38)            99.2908         -DE/DX =    0.0                 !
 ! A76   A(35,40,41)           122.2385         -DE/DX =    0.0                 !
 ! A77   A(35,40,42)           120.1936         -DE/DX =    0.0                 !
 ! A78   A(41,40,42)           117.5549         -DE/DX =    0.0                 !
 ! A79   A(40,41,43)           120.7475         -DE/DX =    0.0                 !
 ! A80   A(40,41,44)           119.6871         -DE/DX =    0.0                 !
 ! A81   A(43,41,44)           119.549          -DE/DX =    0.0                 !
 ! A82   A(40,42,45)           121.1011         -DE/DX =    0.0                 !
 ! A83   A(40,42,46)           120.0123         -DE/DX =    0.0                 !
 ! A84   A(45,42,46)           118.8281         -DE/DX =    0.0                 !
 ! A85   A(41,43,47)           121.5281         -DE/DX =    0.0                 !
 ! A86   A(41,43,48)           119.1927         -DE/DX =    0.0                 !
 ! A87   A(47,43,48)           119.2754         -DE/DX =    0.0                 !
 ! A88   A(42,45,47)           121.2014         -DE/DX =    0.0                 !
 ! A89   A(42,45,49)           119.5241         -DE/DX =    0.0                 !
 ! A90   A(47,45,49)           119.2745         -DE/DX =    0.0                 !
 ! A91   A(43,47,45)           117.8549         -DE/DX =    0.0                 !
 ! A92   A(43,47,50)           121.3283         -DE/DX =    0.0                 !
 ! A93   A(45,47,50)           120.7872         -DE/DX =    0.0                 !
 ! A94   A(47,50,51)           110.6973         -DE/DX =    0.0                 !
 ! A95   A(47,50,52)           109.8864         -DE/DX =    0.0                 !
 ! A96   A(47,50,53)           112.5875         -DE/DX =    0.0                 !
 ! A97   A(51,50,52)           107.311          -DE/DX =    0.0                 !
 ! A98   A(51,50,53)           107.5647         -DE/DX =    0.0                 !
 ! A99   A(52,50,53)           108.6171         -DE/DX =    0.0                 !
 ! A100  A(50,53,54)           108.7543         -DE/DX =    0.0                 !
 ! A101  A(50,53,55)           108.8305         -DE/DX =    0.0                 !
 ! A102  A(50,53,56)           109.5456         -DE/DX =    0.0                 !
 ! A103  A(54,53,55)           106.6487         -DE/DX =    0.0                 !
 ! A104  A(54,53,56)           114.8682         -DE/DX =    0.0                 !
 ! A105  A(55,53,56)           108.0213         -DE/DX =    0.0                 !
 ! A106  A(53,56,57)           110.7605         -DE/DX =    0.0                 !
 ! A107  A(53,56,58)           110.5916         -DE/DX =    0.0                 !
 ! A108  A(57,56,58)           106.7871         -DE/DX =    0.0                 !
 ! D1    D(6,1,2,3)             -0.6174         -DE/DX =    0.0                 !
 ! D2    D(6,1,2,29)           178.3137         -DE/DX =    0.0                 !
 ! D3    D(7,1,2,3)           -179.6927         -DE/DX =    0.0                 !
 ! D4    D(7,1,2,29)            -0.7616         -DE/DX =    0.0                 !
 ! D5    D(2,1,6,5)              0.9284         -DE/DX =    0.0                 !
 ! D6    D(2,1,6,9)           -178.8118         -DE/DX =    0.0                 !
 ! D7    D(7,1,6,5)            179.9996         -DE/DX =    0.0                 !
 ! D8    D(7,1,6,9)              0.2594         -DE/DX =    0.0                 !
 ! D9    D(1,2,3,4)             -0.2912         -DE/DX =    0.0                 !
 ! D10   D(1,2,3,8)           -177.1438         -DE/DX =    0.0                 !
 ! D11   D(29,2,3,4)          -179.2379         -DE/DX =    0.0                 !
 ! D12   D(29,2,3,8)             3.9095         -DE/DX =    0.0                 !
 ! D13   D(1,2,29,30)           23.7848         -DE/DX =    0.0                 !
 ! D14   D(1,2,29,31)         -155.8891         -DE/DX =    0.0                 !
 ! D15   D(3,2,29,30)         -157.3045         -DE/DX =    0.0                 !
 ! D16   D(3,2,29,31)           23.0215         -DE/DX =    0.0                 !
 ! D17   D(2,3,4,5)              0.8561         -DE/DX =    0.0                 !
 ! D18   D(2,3,4,10)          -178.5738         -DE/DX =    0.0                 !
 ! D19   D(8,3,4,5)            177.7121         -DE/DX =    0.0                 !
 ! D20   D(8,3,4,10)            -1.7178         -DE/DX =    0.0                 !
 ! D21   D(3,4,5,6)             -0.544          -DE/DX =    0.0                 !
 ! D22   D(3,4,5,16)           179.7042         -DE/DX =    0.0                 !
 ! D23   D(10,4,5,6)           178.9826         -DE/DX =    0.0                 !
 ! D24   D(10,4,5,16)           -0.7693         -DE/DX =    0.0                 !
 ! D25   D(3,4,10,11)         -179.7269         -DE/DX =    0.0                 !
 ! D26   D(3,4,10,21)           62.1142         -DE/DX =    0.0                 !
 ! D27   D(3,4,10,25)          -61.3612         -DE/DX =    0.0                 !
 ! D28   D(5,4,10,11)            0.7992         -DE/DX =    0.0                 !
 ! D29   D(5,4,10,21)         -117.3597         -DE/DX =    0.0                 !
 ! D30   D(5,4,10,25)          119.1649         -DE/DX =    0.0                 !
 ! D31   D(4,5,6,1)             -0.3518         -DE/DX =    0.0                 !
 ! D32   D(4,5,6,9)            179.3861         -DE/DX =    0.0                 !
 ! D33   D(16,5,6,1)           179.3374         -DE/DX =    0.0                 !
 ! D34   D(16,5,6,9)            -0.9247         -DE/DX =    0.0                 !
 ! D35   D(4,5,16,11)            0.382          -DE/DX =    0.0                 !
 ! D36   D(4,5,16,15)         -179.6229         -DE/DX =    0.0                 !
 ! D37   D(6,5,16,11)         -179.3342         -DE/DX =    0.0                 !
 ! D38   D(6,5,16,15)            0.661          -DE/DX =    0.0                 !
 ! D39   D(4,10,11,12)         179.5127         -DE/DX =    0.0                 !
 ! D40   D(4,10,11,16)          -0.5659         -DE/DX =    0.0                 !
 ! D41   D(21,10,11,12)        -62.2935         -DE/DX =    0.0                 !
 ! D42   D(21,10,11,16)        117.6279         -DE/DX =    0.0                 !
 ! D43   D(25,10,11,12)         61.0876         -DE/DX =    0.0                 !
 ! D44   D(25,10,11,16)       -118.9911         -DE/DX =    0.0                 !
 ! D45   D(4,10,21,22)         175.8467         -DE/DX =    0.0                 !
 ! D46   D(4,10,21,23)         -65.0314         -DE/DX =    0.0                 !
 ! D47   D(4,10,21,24)          55.5759         -DE/DX =    0.0                 !
 ! D48   D(11,10,21,22)         64.2341         -DE/DX =    0.0                 !
 ! D49   D(11,10,21,23)       -176.6439         -DE/DX =    0.0                 !
 ! D50   D(11,10,21,24)        -56.0366         -DE/DX =    0.0                 !
 ! D51   D(25,10,21,22)        -59.8901         -DE/DX =    0.0                 !
 ! D52   D(25,10,21,23)         59.2318         -DE/DX =    0.0                 !
 ! D53   D(25,10,21,24)        179.8391         -DE/DX =    0.0                 !
 ! D54   D(4,10,25,26)          65.1324         -DE/DX =    0.0                 !
 ! D55   D(4,10,25,27)        -175.8181         -DE/DX =    0.0                 !
 ! D56   D(4,10,25,28)         -55.5296         -DE/DX =    0.0                 !
 ! D57   D(11,10,25,26)        176.9049         -DE/DX =    0.0                 !
 ! D58   D(11,10,25,27)        -64.0457         -DE/DX =    0.0                 !
 ! D59   D(11,10,25,28)         56.2429         -DE/DX =    0.0                 !
 ! D60   D(21,10,25,26)        -59.0411         -DE/DX =    0.0                 !
 ! D61   D(21,10,25,27)         60.0083         -DE/DX =    0.0                 !
 ! D62   D(21,10,25,28)       -179.7031         -DE/DX =    0.0                 !
 ! D63   D(10,11,12,13)        179.8426         -DE/DX =    0.0                 !
 ! D64   D(10,11,12,17)         -0.0826         -DE/DX =    0.0                 !
 ! D65   D(16,11,12,13)         -0.0728         -DE/DX =    0.0                 !
 ! D66   D(16,11,12,17)       -179.9981         -DE/DX =    0.0                 !
 ! D67   D(10,11,16,5)           0.1498         -DE/DX =    0.0                 !
 ! D68   D(10,11,16,15)       -179.8459         -DE/DX =    0.0                 !
 ! D69   D(12,11,16,5)        -179.9207         -DE/DX =    0.0                 !
 ! D70   D(12,11,16,15)          0.0836         -DE/DX =    0.0                 !
 ! D71   D(11,12,13,14)          0.0292         -DE/DX =    0.0                 !
 ! D72   D(11,12,13,18)       -179.9396         -DE/DX =    0.0                 !
 ! D73   D(17,12,13,14)        179.9554         -DE/DX =    0.0                 !
 ! D74   D(17,12,13,18)         -0.0134         -DE/DX =    0.0                 !
 ! D75   D(12,13,14,15)          0.0065         -DE/DX =    0.0                 !
 ! D76   D(12,13,14,19)        179.993          -DE/DX =    0.0                 !
 ! D77   D(18,13,14,15)        179.9754         -DE/DX =    0.0                 !
 ! D78   D(18,13,14,19)         -0.0382         -DE/DX =    0.0                 !
 ! D79   D(13,14,15,16)          0.0025         -DE/DX =    0.0                 !
 ! D80   D(13,14,15,20)        179.954          -DE/DX =    0.0                 !
 ! D81   D(19,14,15,16)       -179.9839         -DE/DX =    0.0                 !
 ! D82   D(19,14,15,20)         -0.0324         -DE/DX =    0.0                 !
 ! D83   D(14,15,16,5)         179.9582         -DE/DX =    0.0                 !
 ! D84   D(14,15,16,11)         -0.0471         -DE/DX =    0.0                 !
 ! D85   D(20,15,16,5)           0.0069         -DE/DX =    0.0                 !
 ! D86   D(20,15,16,11)       -179.9984         -DE/DX =    0.0                 !
 ! D87   D(2,29,30,32)        -178.723          -DE/DX =    0.0                 !
 ! D88   D(2,29,30,37)           4.2654         -DE/DX =    0.0                 !
 ! D89   D(31,29,30,32)          0.9714         -DE/DX =    0.0                 !
 ! D90   D(31,29,30,37)       -176.0403         -DE/DX =    0.0                 !
 ! D91   D(2,29,31,33)         178.4581         -DE/DX =    0.0                 !
 ! D92   D(2,29,31,34)           2.4312         -DE/DX =    0.0                 !
 ! D93   D(30,29,31,33)         -1.246          -DE/DX =    0.0                 !
 ! D94   D(30,29,31,34)       -177.2728         -DE/DX =    0.0                 !
 ! D95   D(29,30,32,35)          0.2264         -DE/DX =    0.0                 !
 ! D96   D(29,30,32,38)       -177.3487         -DE/DX =    0.0                 !
 ! D97   D(37,30,32,35)        177.5865         -DE/DX =    0.0                 !
 ! D98   D(37,30,32,38)          0.0114         -DE/DX =    0.0                 !
 ! D99   D(29,30,37,39)        177.5703         -DE/DX =    0.0                 !
 ! D100  D(32,30,37,39)          0.3421         -DE/DX =    0.0                 !
 ! D101  D(29,31,33,35)          0.278          -DE/DX =    0.0                 !
 ! D102  D(29,31,33,36)       -176.1209         -DE/DX =    0.0                 !
 ! D103  D(34,31,33,35)        176.3692         -DE/DX =    0.0                 !
 ! D104  D(34,31,33,36)         -0.0298         -DE/DX =    0.0                 !
 ! D105  D(30,32,35,33)         -1.1779         -DE/DX =    0.0                 !
 ! D106  D(30,32,35,40)        178.7526         -DE/DX =    0.0                 !
 ! D107  D(38,32,35,33)        176.0917         -DE/DX =    0.0                 !
 ! D108  D(38,32,35,40)         -3.9777         -DE/DX =    0.0                 !
 ! D109  D(30,32,38,39)         -0.3594         -DE/DX =    0.0                 !
 ! D110  D(35,32,38,39)       -177.8342         -DE/DX =    0.0                 !
 ! D111  D(31,33,35,32)          0.9642         -DE/DX =    0.0                 !
 ! D112  D(31,33,35,40)       -178.9682         -DE/DX =    0.0                 !
 ! D113  D(36,33,35,32)        177.3162         -DE/DX =    0.0                 !
 ! D114  D(36,33,35,40)         -2.6162         -DE/DX =    0.0                 !
 ! D115  D(32,35,40,41)        -26.5612         -DE/DX =    0.0                 !
 ! D116  D(32,35,40,42)        154.7818         -DE/DX =    0.0                 !
 ! D117  D(33,35,40,41)        153.3647         -DE/DX =    0.0                 !
 ! D118  D(33,35,40,42)        -25.2923         -DE/DX =    0.0                 !
 ! D119  D(30,37,39,38)         -0.4954         -DE/DX =    0.0                 !
 ! D120  D(32,38,39,37)          0.5016         -DE/DX =    0.0                 !
 ! D121  D(35,40,41,43)       -177.9793         -DE/DX =    0.0                 !
 ! D122  D(35,40,41,44)          0.5401         -DE/DX =    0.0                 !
 ! D123  D(42,40,41,43)          0.7114         -DE/DX =    0.0                 !
 ! D124  D(42,40,41,44)        179.2308         -DE/DX =    0.0                 !
 ! D125  D(35,40,42,45)        178.982          -DE/DX =    0.0                 !
 ! D126  D(35,40,42,46)         -3.8311         -DE/DX =    0.0                 !
 ! D127  D(41,40,42,45)          0.2632         -DE/DX =    0.0                 !
 ! D128  D(41,40,42,46)        177.4501         -DE/DX =    0.0                 !
 ! D129  D(40,41,43,47)         -0.9188         -DE/DX =    0.0                 !
 ! D130  D(40,41,43,48)        178.3674         -DE/DX =    0.0                 !
 ! D131  D(44,41,43,47)       -179.4402         -DE/DX =    0.0                 !
 ! D132  D(44,41,43,48)         -0.154          -DE/DX =    0.0                 !
 ! D133  D(40,42,45,47)         -1.055          -DE/DX =    0.0                 !
 ! D134  D(40,42,45,49)        178.9141         -DE/DX =    0.0                 !
 ! D135  D(46,42,45,47)       -178.2746         -DE/DX =    0.0                 !
 ! D136  D(46,42,45,49)          1.6946         -DE/DX =    0.0                 !
 ! D137  D(41,43,47,45)          0.1354         -DE/DX =    0.0                 !
 ! D138  D(41,43,47,50)       -177.9            -DE/DX =    0.0                 !
 ! D139  D(48,43,47,45)       -179.1503         -DE/DX =    0.0                 !
 ! D140  D(48,43,47,50)          2.8143         -DE/DX =    0.0                 !
 ! D141  D(42,45,47,43)          0.8492         -DE/DX =    0.0                 !
 ! D142  D(42,45,47,50)        178.8957         -DE/DX =    0.0                 !
 ! D143  D(49,45,47,43)       -179.1201         -DE/DX =    0.0                 !
 ! D144  D(49,45,47,50)         -1.0735         -DE/DX =    0.0                 !
 ! D145  D(43,47,50,51)       -153.1099         -DE/DX =    0.0                 !
 ! D146  D(43,47,50,52)        -34.7555         -DE/DX =    0.0                 !
 ! D147  D(43,47,50,53)         86.4541         -DE/DX =    0.0                 !
 ! D148  D(45,47,50,51)         28.9121         -DE/DX =    0.0                 !
 ! D149  D(45,47,50,52)        147.2664         -DE/DX =    0.0                 !
 ! D150  D(45,47,50,53)        -91.524          -DE/DX =    0.0                 !
 ! D151  D(47,50,53,54)        -58.3061         -DE/DX =    0.0                 !
 ! D152  D(47,50,53,55)         57.509          -DE/DX =    0.0                 !
 ! D153  D(47,50,53,56)        175.4083         -DE/DX =    0.0                 !
 ! D154  D(51,50,53,54)        179.4723         -DE/DX =    0.0                 !
 ! D155  D(51,50,53,55)        -64.7126         -DE/DX =    0.0                 !
 ! D156  D(51,50,53,56)         53.1868         -DE/DX =    0.0                 !
 ! D157  D(52,50,53,54)         63.6249         -DE/DX =    0.0                 !
 ! D158  D(52,50,53,55)        179.44           -DE/DX =    0.0                 !
 ! D159  D(52,50,53,56)        -62.6606         -DE/DX =    0.0                 !
 ! D160  D(50,53,56,57)         74.2098         -DE/DX =    0.0                 !
 ! D161  D(50,53,56,58)       -167.6018         -DE/DX =    0.0                 !
 ! D162  D(54,53,56,57)        -48.514          -DE/DX =    0.0                 !
 ! D163  D(54,53,56,58)         69.6743         -DE/DX =    0.0                 !
 ! D164  D(55,53,56,57)       -167.387          -DE/DX =    0.0                 !
 ! D165  D(55,53,56,58)        -49.1986         -DE/DX =    0.0                 !
 --------------------------------------------------------------------------------
 Lowest energy point so far.  Saving SCF results.
 Largest change from initial coordinates is atom   34       0.246 Angstoms.
 GradGradGradGradGradGradGradGradGradGradGradGradGradGradGradGradGradGrad

 Leave Link  103 at Thu Mar 14 11:41:26 2024, MaxMem= 32212254720 cpu:               2.3 elap:               0.1
 (Enter /home/<user>/g16/l202.exe)
 Stoichiometry    C29H25N3S(1+,2)
 Framework group  C1[X(C29H25N3S)]
 Deg. of freedom   168
 Full point group                 C1      NOp   1
 RotChk:  IX=0 Diff= 4.35D-16
 Largest Abelian subgroup         C1      NOp   1
 Largest concise Abelian subgroup C1      NOp   1
                         Standard orientation:                         
 ---------------------------------------------------------------------
 Center     Atomic      Atomic             Coordinates (Angstroms)
 Number     Number       Type             X           Y           Z
 ---------------------------------------------------------------------
      1          6           0       -2.437354    1.612708   -0.421714
      2          6           0       -1.785402    0.369225   -0.158390
      3          6           0       -2.596764   -0.781503    0.080884
      4          6           0       -3.966721   -0.682916    0.062051
      5          6           0       -4.593876    0.565964   -0.214654
      6          6           0       -3.813662    1.711495   -0.459721
      7          1           0       -1.835631    2.490922   -0.609559
      8          1           0       -2.129446   -1.728602    0.329291
      9          1           0       -4.282046    2.665610   -0.681279
     10          6           0       -5.012716   -1.766827    0.317932
     11          6           0       -6.301348   -0.970487    0.128834
     12          6           0       -7.616206   -1.404440    0.221364
     13          6           0       -8.648899   -0.482327    0.008253
     14          6           0       -8.375528    0.863518   -0.295740
     15          6           0       -7.064434    1.309889   -0.391874
     16          6           0       -6.025001    0.387127   -0.178785
     17          1           0       -7.852765   -2.438513    0.455582
     18          1           0       -9.681443   -0.811681    0.079352
     19          1           0       -9.197642    1.554070   -0.455646
     20          1           0       -6.849705    2.348215   -0.627162
     21          6           0       -4.903682   -2.327065    1.755611
     22          1           0       -5.705516   -3.048234    1.945461
     23          1           0       -3.948786   -2.845335    1.896442
     24          1           0       -4.976473   -1.530086    2.502038
     25          6           0       -4.902262   -2.915890   -0.710820
     26          1           0       -3.948717   -3.443749   -0.598867
     27          1           0       -5.705096   -3.644450   -0.556922
     28          1           0       -4.971565   -2.542405   -1.737212
     29          6           0       -0.340099    0.255663   -0.153565
     30          6           0        0.563830    1.362511    0.086079
     31          6           0        0.299140   -0.974822   -0.395514
     32          6           0        2.007216    1.183104    0.049395
     33          6           0        1.683984   -1.143901   -0.435097
     34          1           0       -0.308964   -1.841399   -0.627806
     35          6           0        2.606173   -0.103548   -0.231915
     36          1           0        2.057735   -2.127746   -0.694243
     37          7           0        0.201085    2.604824    0.411057
     38          7           0        2.680446    2.296416    0.348234
     39         16           0        1.576241    3.471069    0.639978
     40          6           0        4.041508   -0.333222   -0.306556
     41          6           0        4.954675    0.693733   -0.655668
     42          6           0        4.571658   -1.624962   -0.053602
     43          6           0        6.311112    0.430791   -0.757932
     44          1           0        4.586611    1.688520   -0.867984
     45          6           0        5.930515   -1.869088   -0.139749
     46          1           0        3.914115   -2.430187    0.256897
     47          6           0        6.833453   -0.850450   -0.502748
     48          1           0        6.985244    1.230375   -1.053249
     49          1           0        6.310644   -2.863852    0.076570
     50          6           0        8.311037   -1.119757   -0.569568
     51          1           0        8.502290   -2.168680   -0.817334
     52          1           0        8.766450   -0.509227   -1.359841
     53          6           0        9.032704   -0.816002    0.768275
     54          1           0        8.860141    0.242544    1.032508
     55          1           0        8.573748   -1.416803    1.562291
     56          7           0       10.434718   -1.201205    0.664508
     57          1           0       10.950592   -0.535395    0.092050
     58          1           0       10.874310   -1.202390    1.581990
 ---------------------------------------------------------------------
 Rotational constants (GHZ):           0.3683846           0.0395020           0.0363979
 Leave Link  202 at Thu Mar 14 11:41:26 2024, MaxMem= 32212254720 cpu:               0.1 elap:               0.0
 (Enter /home/<user>/g16/l601.exe)
 Copying SCF densities to generalized density rwf, IOpCl= 1 IROHF=0.

 **********************************************************************

            Population analysis using the SCF Density.

 **********************************************************************

 Orbital symmetries:
 Alpha Orbitals:
       Occupied  (A) (A) (A) (A) (A) (A) (A) (A) (A) (A) (A) (A)
                 (A) (A) (A) (A) (A) (A) (A) (A) (A) (A) (A) (A)
                 (A) (A) (A) (A) (A) (A) (A) (A) (A) (A) (A) (A)
                 (A) (A) (A) (A) (A) (A) (A) (A) (A) (A) (A) (A)
                 (A) (A) (A) (A) (A) (A) (A) (A) (A) (A) (A) (A)
                 (A) (A) (A) (A) (A) (A) (A) (A) (A) (A) (A) (A)
                 (A) (A) (A) (A) (A) (A) (A) (A) (A) (A) (A) (A)
                 (A) (A) (A) (A) (A) (A) (A) (A) (A) (A) (A) (A)
                 (A) (A) (A) (A) (A) (A) (A) (A) (A) (A) (A) (A)
                 (A) (A) (A) (A) (A) (A) (A) (A) (A) (A)
       Virtual   (A) (A) (A) (A) (A) (A) (A) (A) (A) (A) (A) (A)
                 (A) (A) (A) (A) (A) (A) (A) (A) (A) (A) (A) (A)
                 (A) (A) (A) (A) (A) (A) (A) (A) (A) (A) (A) (A)
                 (A) (A) (A) (A) (A) (A) (A) (A) (A) (A) (A) (A)
                 (A) (A) (A) (A) (A) (A) (A) (A) (A) (A) (A) (A)
                 (A) (A) (A) (A) (A) (A) (A) (A) (A) (A) (A) (A)
                 (A) (A) (A) (A) (A) (A) (A) (A) (A) (A) (A) (A)
                 (A) (A) (A) (A) (A) (A) (A) (A) (A) (A) (A) (A)
                 (A) (A) (A) (A) (A) (A) (A) (A) (A) (A) (A) (A)
                 (A) (A) (A) (A) (A) (A) (A) (A) (A) (A) (A) (A)
                 (A) (A) (A) (A) (A) (A) (A) (A) (A) (A) (A) (A)
                 (A) (A) (A) (A) (A) (A) (A) (A) (A) (A) (A) (A)
                 (A) (A) (A) (A) (A) (A) (A) (A) (A) (A) (A) (A)
                 (A) (A) (A) (A) (A) (A) (A) (A) (A) (A) (A) (A)
                 (A) (A) (A) (A) (A) (A) (A) (A) (A) (A) (A) (A)
                 (A) (A) (A) (A) (A) (A) (A) (A) (A) (A) (A) (A)
                 (A) (A) (A) (A) (A) (A) (A) (A) (A) (A) (A) (A)
                 (A) (A) (A) (A) (A) (A) (A) (A) (A) (A) (A) (A)
                 (A) (A) (A) (A) (A) (A) (A) (A) (A) (A) (A) (A)
                 (A) (A) (A) (A) (A) (A) (A) (A) (A) (A) (A) (A)
                 (A) (A) (A) (A) (A) (A) (A) (A) (A) (A) (A) (A)
                 (A) (A) (A) (A) (A) (A) (A) (A) (A) (A) (A) (A)
                 (A) (A) (A) (A) (A) (A) (A) (A) (A) (A) (A) (A)
                 (A) (A) (A) (A) (A) (A) (A) (A) (A) (A) (A) (A)
                 (A) (A) (A) (A) (A) (A) (A) (A) (A) (A) (A) (A)
                 (A) (A) (A) (A) (A) (A) (A) (A) (A) (A) (A) (A)
                 (A) (A) (A) (A) (A) (A) (A) (A) (A) (A) (A) (A)
                 (A) (A) (A) (A) (A) (A) (A) (A) (A) (A) (A) (A)
                 (A) (A) (A) (A) (A) (A) (A) (A) (A) (A) (A) (A)
                 (A) (A) (A) (A) (A) (A) (A) (A) (A) (A) (A) (A)
                 (A) (A) (A) (A) (A) (A) (A) (A) (A) (A) (A) (A)
                 (A) (A) (A) (A) (A) (A) (A) (A) (A) (A) (A) (A)
                 (A) (A) (A) (A) (A) (A) (A) (A) (A) (A) (A) (A)
                 (A) (A) (A) (A) (A) (A) (A) (A) (A) (A) (A) (A)
                 (A) (A) (A) (A) (A) (A) (A) (A) (A) (A) (A) (A)
                 (A) (A) (A) (A) (A) (A) (A) (A) (A) (A) (A)
 Beta  Orbitals:
       Occupied  (A) (A) (A) (A) (A) (A) (A) (A) (A) (A) (A) (A)
                 (A) (A) (A) (A) (A) (A) (A) (A) (A) (A) (A) (A)
                 (A) (A) (A) (A) (A) (A) (A) (A) (A) (A) (A) (A)
                 (A) (A) (A) (A) (A) (A) (A) (A) (A) (A) (A) (A)
                 (A) (A) (A) (A) (A) (A) (A) (A) (A) (A) (A) (A)
                 (A) (A) (A) (A) (A) (A) (A) (A) (A) (A) (A) (A)
                 (A) (A) (A) (A) (A) (A) (A) (A) (A) (A) (A) (A)
                 (A) (A) (A) (A) (A) (A) (A) (A) (A) (A) (A) (A)
                 (A) (A) (A) (A) (A) (A) (A) (A) (A) (A) (A) (A)
                 (A) (A) (A) (A) (A) (A) (A) (A) (A)
       Virtual   (A) (A) (A) (A) (A) (A) (A) (A) (A) (A) (A) (A)
                 (A) (A) (A) (A) (A) (A) (A) (A) (A) (A) (A) (A)
                 (A) (A) (A) (A) (A) (A) (A) (A) (A) (A) (A) (A)
                 (A) (A) (A) (A) (A) (A) (A) (A) (A) (A) (A) (A)
                 (A) (A) (A) (A) (A) (A) (A) (A) (A) (A) (A) (A)
                 (A) (A) (A) (A) (A) (A) (A) (A) (A) (A) (A) (A)
                 (A) (A) (A) (A) (A) (A) (A) (A) (A) (A) (A) (A)
                 (A) (A) (A) (A) (A) (A) (A) (A) (A) (A) (A) (A)
                 (A) (A) (A) (A) (A) (A) (A) (A) (A) (A) (A) (A)
                 (A) (A) (A) (A) (A) (A) (A) (A) (A) (A) (A) (A)
                 (A) (A) (A) (A) (A) (A) (A) (A) (A) (A) (A) (A)
                 (A) (A) (A) (A) (A) (A) (A) (A) (A) (A) (A) (A)
                 (A) (A) (A) (A) (A) (A) (A) (A) (A) (A) (A) (A)
                 (A) (A) (A) (A) (A) (A) (A) (A) (A) (A) (A) (A)
                 (A) (A) (A) (A) (A) (A) (A) (A) (A) (A) (A) (A)
                 (A) (A) (A) (A) (A) (A) (A) (A) (A) (A) (A) (A)
                 (A) (A) (A) (A) (A) (A) (A) (A) (A) (A) (A) (A)
                 (A) (A) (A) (A) (A) (A) (A) (A) (A) (A) (A) (A)
                 (A) (A) (A) (A) (A) (A) (A) (A) (A) (A) (A) (A)
                 (A) (A) (A) (A) (A) (A) (A) (A) (A) (A) (A) (A)
                 (A) (A) (A) (A) (A) (A) (A) (A) (A) (A) (A) (A)
                 (A) (A) (A) (A) (A) (A) (A) (A) (A) (A) (A) (A)
                 (A) (A) (A) (A) (A) (A) (A) (A) (A) (A) (A) (A)
                 (A) (A) (A) (A) (A) (A) (A) (A) (A) (A) (A) (A)
                 (A) (A) (A) (A) (A) (A) (A) (A) (A) (A) (A) (A)
                 (A) (A) (A) (A) (A) (A) (A) (A) (A) (A) (A) (A)
                 (A) (A) (A) (A) (A) (A) (A) (A) (A) (A) (A) (A)
                 (A) (A) (A) (A) (A) (A) (A) (A) (A) (A) (A) (A)
                 (A) (A) (A) (A) (A) (A) (A) (A) (A) (A) (A) (A)
                 (A) (A) (A) (A) (A) (A) (A) (A) (A) (A) (A) (A)
                 (A) (A) (A) (A) (A) (A) (A) (A) (A) (A) (A) (A)
                 (A) (A) (A) (A) (A) (A) (A) (A) (A) (A) (A) (A)
                 (A) (A) (A) (A) (A) (A) (A) (A) (A) (A) (A) (A)
                 (A) (A) (A) (A) (A) (A) (A) (A) (A) (A) (A) (A)
                 (A) (A) (A) (A) (A) (A) (A) (A) (A) (A) (A) (A)
                 (A) (A) (A) (A) (A) (A) (A) (A) (A) (A) (A) (A)
 The electronic state is 2-A.
 Alpha  occ. eigenvalues --  -89.08169 -14.48311 -14.48257 -14.38345 -10.36237
 Alpha  occ. eigenvalues --  -10.36065 -10.34752 -10.34713 -10.33695 -10.33039
 Alpha  occ. eigenvalues --  -10.32503 -10.32485 -10.31755 -10.31436 -10.31392
 Alpha  occ. eigenvalues --  -10.31197 -10.31190 -10.30960 -10.30744 -10.30692
 Alpha  occ. eigenvalues --  -10.30445 -10.30226 -10.30173 -10.30081 -10.29793
 Alpha  occ. eigenvalues --  -10.29340 -10.29333 -10.29090 -10.28920 -10.28909
 Alpha  occ. eigenvalues --  -10.27632 -10.27571 -10.26963  -8.13700  -6.10248
 Alpha  occ. eigenvalues --   -6.09649  -6.09423  -1.13289  -1.01117  -1.00568
 Alpha  occ. eigenvalues --   -0.99116  -0.96717  -0.95719  -0.95064  -0.92517
 Alpha  occ. eigenvalues --   -0.90932  -0.88781  -0.88068  -0.86200  -0.85748
 Alpha  occ. eigenvalues --   -0.85050  -0.83893  -0.82741  -0.79714  -0.78351
 Alpha  occ. eigenvalues --   -0.76938  -0.75741  -0.74250  -0.73554  -0.71888
 Alpha  occ. eigenvalues --   -0.70793  -0.69597  -0.69011  -0.68469  -0.67179
 Alpha  occ. eigenvalues --   -0.66124  -0.62978  -0.62287  -0.61893  -0.60895
 Alpha  occ. eigenvalues --   -0.60519  -0.58382  -0.57407  -0.57155  -0.56743
 Alpha  occ. eigenvalues --   -0.56305  -0.55871  -0.55063  -0.54877  -0.54750
 Alpha  occ. eigenvalues --   -0.53697  -0.53515  -0.53095  -0.52636  -0.52447
 Alpha  occ. eigenvalues --   -0.52123  -0.50423  -0.50074  -0.49861  -0.49677
 Alpha  occ. eigenvalues --   -0.49430  -0.49174  -0.48829  -0.48551  -0.48291
 Alpha  occ. eigenvalues --   -0.47409  -0.46461  -0.46162  -0.45271  -0.45194
 Alpha  occ. eigenvalues --   -0.44869  -0.44467  -0.44298  -0.43518  -0.43242
 Alpha  occ. eigenvalues --   -0.42556  -0.42367  -0.42064  -0.40723  -0.40499
 Alpha  occ. eigenvalues --   -0.38085  -0.37431  -0.36805  -0.35624  -0.35251
 Alpha  occ. eigenvalues --   -0.34039  -0.31361  -0.30459
 Alpha virt. eigenvalues --   -0.21025  -0.16049  -0.13228  -0.12289  -0.11044
 Alpha virt. eigenvalues --   -0.10199  -0.10087  -0.09574  -0.08873  -0.05901
 Alpha virt. eigenvalues --   -0.03185  -0.01770  -0.00202   0.00518   0.00993
 Alpha virt. eigenvalues --    0.01220   0.01348   0.01601   0.03122   0.03491
 Alpha virt. eigenvalues --    0.04094   0.04349   0.05144   0.05837   0.06060
 Alpha virt. eigenvalues --    0.06826   0.06979   0.07275   0.07333   0.07549
 Alpha virt. eigenvalues --    0.08396   0.09025   0.09408   0.09971   0.10150
 Alpha virt. eigenvalues --    0.10555   0.10651   0.11369   0.11759   0.12397
 Alpha virt. eigenvalues --    0.12442   0.12711   0.13027   0.13510   0.13948
 Alpha virt. eigenvalues --    0.14507   0.15126   0.15580   0.15850   0.16969
 Alpha virt. eigenvalues --    0.17350   0.17517   0.17753   0.18504   0.19166
 Alpha virt. eigenvalues --    0.19416   0.20375   0.22054   0.22490   0.22993
 Alpha virt. eigenvalues --    0.23900   0.24357   0.25183   0.25546   0.26130
 Alpha virt. eigenvalues --    0.26960   0.28310   0.29053   0.29804   0.31568
 Alpha virt. eigenvalues --    0.32912   0.33927   0.36115   0.37674   0.38566
 Alpha virt. eigenvalues --    0.38674   0.39263   0.39319   0.39782   0.40507
 Alpha virt. eigenvalues --    0.40673   0.41411   0.41860   0.42225   0.42375
 Alpha virt. eigenvalues --    0.42671   0.43550   0.43663   0.43951   0.44532
 Alpha virt. eigenvalues --    0.44746   0.45213   0.45418   0.45868   0.45959
 Alpha virt. eigenvalues --    0.46434   0.47092   0.47302   0.47617   0.48007
 Alpha virt. eigenvalues --    0.48390   0.48542   0.48879   0.49427   0.49502
 Alpha virt. eigenvalues --    0.49953   0.50513   0.50886   0.51172   0.51786
 Alpha virt. eigenvalues --    0.51937   0.52146   0.53039   0.53430   0.53480
 Alpha virt. eigenvalues --    0.53911   0.54378   0.54593   0.55002   0.55289
 Alpha virt. eigenvalues --    0.56037   0.56437   0.57838   0.58264   0.58466
 Alpha virt. eigenvalues --    0.59257   0.59888   0.61481   0.62287   0.63456
 Alpha virt. eigenvalues --    0.64475   0.64954   0.65372   0.66240   0.67008
 Alpha virt. eigenvalues --    0.67034   0.67321   0.67904   0.68190   0.68775
 Alpha virt. eigenvalues --    0.69433   0.70394   0.70900   0.71302   0.72066
 Alpha virt. eigenvalues --    0.72467   0.72778   0.73289   0.73679   0.74489
 Alpha virt. eigenvalues --    0.74813   0.75047   0.75759   0.75993   0.76384
 Alpha virt. eigenvalues --    0.76911   0.77129   0.77732   0.78192   0.78805
 Alpha virt. eigenvalues --    0.79912   0.81007   0.81529   0.81693   0.81936
 Alpha virt. eigenvalues --    0.82160   0.82931   0.83416   0.83912   0.84452
 Alpha virt. eigenvalues --    0.84753   0.85120   0.86107   0.86498   0.86637
 Alpha virt. eigenvalues --    0.87245   0.87915   0.88001   0.88544   0.89010
 Alpha virt. eigenvalues --    0.89715   0.89981   0.90038   0.90793   0.91406
 Alpha virt. eigenvalues --    0.92054   0.92739   0.92998   0.94753   0.95185
 Alpha virt. eigenvalues --    0.95781   0.96575   0.96923   0.97831   0.98797
 Alpha virt. eigenvalues --    0.99726   1.00716   1.00932   1.02140   1.02918
 Alpha virt. eigenvalues --    1.03805   1.04167   1.05011   1.05797   1.06206
 Alpha virt. eigenvalues --    1.07270   1.09165   1.09446   1.10502   1.11244
 Alpha virt. eigenvalues --    1.12704   1.12964   1.13775   1.14983   1.15696
 Alpha virt. eigenvalues --    1.18363   1.19170   1.19473   1.21993   1.22243
 Alpha virt. eigenvalues --    1.23107   1.24272   1.25132   1.26366   1.28254
 Alpha virt. eigenvalues --    1.28935   1.29912   1.30932   1.31636   1.32238
 Alpha virt. eigenvalues --    1.32751   1.34078   1.34736   1.34823   1.35579
 Alpha virt. eigenvalues --    1.36345   1.36437   1.36882   1.37229   1.38398
 Alpha virt. eigenvalues --    1.39011   1.39159   1.39629   1.41405   1.42154
 Alpha virt. eigenvalues --    1.43085   1.45133   1.46862   1.48229   1.49971
 Alpha virt. eigenvalues --    1.50878   1.53324   1.54055   1.56089   1.57425
 Alpha virt. eigenvalues --    1.58783   1.60948   1.61414   1.61740   1.61929
 Alpha virt. eigenvalues --    1.63699   1.64889   1.65404   1.65762   1.66540
 Alpha virt. eigenvalues --    1.67480   1.69134   1.69230   1.69450   1.70168
 Alpha virt. eigenvalues --    1.70600   1.71800   1.72708   1.74014   1.74976
 Alpha virt. eigenvalues --    1.75630   1.75739   1.76753   1.78204   1.79438
 Alpha virt. eigenvalues --    1.79773   1.80176   1.80918   1.81406   1.81856
 Alpha virt. eigenvalues --    1.82384   1.83055   1.83915   1.84849   1.86108
 Alpha virt. eigenvalues --    1.86628   1.87785   1.88648   1.89391   1.89980
 Alpha virt. eigenvalues --    1.91642   1.92885   1.93414   1.93477   1.93700
 Alpha virt. eigenvalues --    1.94680   1.95498   1.96690   1.98523   1.99677
 Alpha virt. eigenvalues --    2.00187   2.01271   2.01497   2.02941   2.03303
 Alpha virt. eigenvalues --    2.05426   2.05489   2.06575   2.07666   2.08144
 Alpha virt. eigenvalues --    2.08617   2.09761   2.09893   2.12046   2.12161
 Alpha virt. eigenvalues --    2.13348   2.13889   2.14118   2.15096   2.15261
 Alpha virt. eigenvalues --    2.16741   2.17005   2.17418   2.18703   2.19199
 Alpha virt. eigenvalues --    2.19697   2.20030   2.20695   2.20995   2.21559
 Alpha virt. eigenvalues --    2.23318   2.24142   2.25610   2.26614   2.27710
 Alpha virt. eigenvalues --    2.28830   2.30401   2.31000   2.31880   2.32138
 Alpha virt. eigenvalues --    2.33444   2.34925   2.36273   2.37749   2.39320
 Alpha virt. eigenvalues --    2.40092   2.41907   2.44135   2.45361   2.46269
 Alpha virt. eigenvalues --    2.47620   2.48001   2.49018   2.50411   2.51557
 Alpha virt. eigenvalues --    2.51756   2.53754   2.54232   2.55531   2.55881
 Alpha virt. eigenvalues --    2.56414   2.57884   2.58444   2.59535   2.62689
 Alpha virt. eigenvalues --    2.63946   2.64062   2.64866   2.65103   2.65605
 Alpha virt. eigenvalues --    2.67007   2.70353   2.71038   2.72408   2.73942
 Alpha virt. eigenvalues --    2.76507   2.77023   2.81289   2.81417   2.83789
 Alpha virt. eigenvalues --    2.84835   2.87023   2.88686   2.90423   2.94320
 Alpha virt. eigenvalues --    2.97242   3.05473   3.16296   3.18893   3.21995
 Alpha virt. eigenvalues --    3.25968   3.34052   3.39849   3.71716   3.75368
 Alpha virt. eigenvalues --    3.89670   3.90553   3.94697   3.96775   3.98635
 Alpha virt. eigenvalues --    3.98846   3.99381   4.01725   4.03771   4.04498
 Alpha virt. eigenvalues --    4.04753   4.06033   4.07025   4.09972   4.12994
 Alpha virt. eigenvalues --    4.13972   4.19189   4.19579   4.22812   4.23224
 Alpha virt. eigenvalues --    4.24264   4.26211   4.31438   4.32181   4.39136
 Alpha virt. eigenvalues --    4.41668   4.49536   4.58815   4.68081   4.70679
 Alpha virt. eigenvalues --    4.74295
  Beta  occ. eigenvalues --  -89.08181 -14.48229 -14.48215 -14.38321 -10.36231
  Beta  occ. eigenvalues --  -10.36086 -10.34600 -10.34547 -10.33560 -10.32940
  Beta  occ. eigenvalues --  -10.32486 -10.32305 -10.31719 -10.31411 -10.31399
  Beta  occ. eigenvalues --  -10.31163 -10.31125 -10.30961 -10.30726 -10.30543
  Beta  occ. eigenvalues --  -10.30332 -10.30150 -10.30019 -10.30004 -10.29711
  Beta  occ. eigenvalues --  -10.29396 -10.29365 -10.29118 -10.28941 -10.28896
  Beta  occ. eigenvalues --  -10.27632 -10.27571 -10.26965  -8.13712  -6.10257
  Beta  occ. eigenvalues --   -6.09658  -6.09457  -1.13211  -1.00918  -1.00344
  Beta  occ. eigenvalues --   -0.98800  -0.96486  -0.95532  -0.94935  -0.92316
  Beta  occ. eigenvalues --   -0.90671  -0.88525  -0.88007  -0.85994  -0.85586
  Beta  occ. eigenvalues --   -0.84962  -0.83833  -0.82425  -0.79489  -0.78347
  Beta  occ. eigenvalues --   -0.76758  -0.75611  -0.74110  -0.73411  -0.71748
  Beta  occ. eigenvalues --   -0.70667  -0.69448  -0.68864  -0.68344  -0.67086
  Beta  occ. eigenvalues --   -0.66027  -0.62889  -0.62216  -0.61815  -0.60774
  Beta  occ. eigenvalues --   -0.60404  -0.58265  -0.57323  -0.56998  -0.56604
  Beta  occ. eigenvalues --   -0.56219  -0.55751  -0.54982  -0.54796  -0.54680
  Beta  occ. eigenvalues --   -0.53442  -0.53354  -0.53056  -0.52561  -0.52398
  Beta  occ. eigenvalues --   -0.52043  -0.50299  -0.49946  -0.49678  -0.49480
  Beta  occ. eigenvalues --   -0.49140  -0.49129  -0.48537  -0.48254  -0.48095
  Beta  occ. eigenvalues --   -0.46933  -0.46398  -0.45721  -0.45197  -0.44932
  Beta  occ. eigenvalues --   -0.44547  -0.44307  -0.44104  -0.43203  -0.43167
  Beta  occ. eigenvalues --   -0.42500  -0.42291  -0.42003  -0.40572  -0.39550
  Beta  occ. eigenvalues --   -0.38021  -0.36583  -0.36276  -0.35397  -0.35024
  Beta  occ. eigenvalues --   -0.32625  -0.30313
  Beta virt. eigenvalues --   -0.27369  -0.20204  -0.15384  -0.12530  -0.11783
  Beta virt. eigenvalues --   -0.10541  -0.09816  -0.09677  -0.09333  -0.08215
  Beta virt. eigenvalues --   -0.04959  -0.03164  -0.01739  -0.00156   0.00621
  Beta virt. eigenvalues --    0.01025   0.01302   0.01567   0.01801   0.03166
  Beta virt. eigenvalues --    0.03746   0.04260   0.04402   0.05248   0.06049
  Beta virt. eigenvalues --    0.06148   0.06989   0.07138   0.07313   0.07566
  Beta virt. eigenvalues --    0.07722   0.08465   0.09105   0.09496   0.09983
  Beta virt. eigenvalues --    0.10189   0.10652   0.10704   0.11437   0.11850
  Beta virt. eigenvalues --    0.12473   0.12623   0.12819   0.13256   0.13667
  Beta virt. eigenvalues --    0.14133   0.14602   0.15285   0.15699   0.15952
  Beta virt. eigenvalues --    0.17084   0.17466   0.17584   0.17800   0.18629
  Beta virt. eigenvalues --    0.19269   0.19564   0.20542   0.22185   0.22597
  Beta virt. eigenvalues --    0.23092   0.23918   0.24404   0.25282   0.25642
  Beta virt. eigenvalues --    0.26248   0.27032   0.28379   0.29199   0.29998
  Beta virt. eigenvalues --    0.31707   0.33049   0.34119   0.36230   0.37942
  Beta virt. eigenvalues --    0.38682   0.38764   0.39375   0.39510   0.39945
  Beta virt. eigenvalues --    0.40660   0.40863   0.41555   0.42053   0.42369
  Beta virt. eigenvalues --    0.42490   0.42847   0.43711   0.43812   0.44132
  Beta virt. eigenvalues --    0.44692   0.44903   0.45355   0.45624   0.45970
  Beta virt. eigenvalues --    0.46127   0.46536   0.47258   0.47456   0.47783
  Beta virt. eigenvalues --    0.48170   0.48543   0.48686   0.48994   0.49557
  Beta virt. eigenvalues --    0.49618   0.50072   0.50574   0.51008   0.51386
  Beta virt. eigenvalues --    0.51940   0.52047   0.52251   0.53159   0.53505
  Beta virt. eigenvalues --    0.53619   0.54131   0.54471   0.54658   0.55218
  Beta virt. eigenvalues --    0.55429   0.56266   0.56586   0.57981   0.58377
  Beta virt. eigenvalues --    0.58532   0.59423   0.60066   0.61715   0.62461
  Beta virt. eigenvalues --    0.63703   0.64604   0.65050   0.65505   0.66396
  Beta virt. eigenvalues --    0.67054   0.67277   0.67383   0.68011   0.68402
  Beta virt. eigenvalues --    0.68836   0.69643   0.70584   0.70980   0.71346
  Beta virt. eigenvalues --    0.72148   0.72576   0.72879   0.73393   0.73772
  Beta virt. eigenvalues --    0.74574   0.74875   0.75112   0.75846   0.76034
  Beta virt. eigenvalues --    0.76439   0.77015   0.77174   0.77798   0.78348
  Beta virt. eigenvalues --    0.78920   0.79985   0.81102   0.81606   0.81727
  Beta virt. eigenvalues --    0.81994   0.82227   0.82983   0.83468   0.84138
  Beta virt. eigenvalues --    0.84543   0.84849   0.85288   0.86159   0.86571
  Beta virt. eigenvalues --    0.86720   0.87332   0.88012   0.88094   0.88582
  Beta virt. eigenvalues --    0.89074   0.89748   0.90030   0.90075   0.90863
  Beta virt. eigenvalues --    0.91488   0.92144   0.92808   0.93097   0.94843
  Beta virt. eigenvalues --    0.95249   0.95886   0.96648   0.97025   0.97932
  Beta virt. eigenvalues --    0.98895   0.99834   1.00825   1.01010   1.02239
  Beta virt. eigenvalues --    1.03037   1.03981   1.04311   1.05101   1.05918
  Beta virt. eigenvalues --    1.06297   1.07362   1.09344   1.09620   1.10624
  Beta virt. eigenvalues --    1.11507   1.12839   1.13044   1.13908   1.15199
  Beta virt. eigenvalues --    1.15875   1.18545   1.19332   1.19685   1.22337
  Beta virt. eigenvalues --    1.22457   1.23240   1.24400   1.25348   1.26575
  Beta virt. eigenvalues --    1.28394   1.29160   1.30077   1.31156   1.31802
  Beta virt. eigenvalues --    1.32370   1.32903   1.34227   1.34942   1.35022
  Beta virt. eigenvalues --    1.35722   1.36522   1.36632   1.37052   1.37486
  Beta virt. eigenvalues --    1.38616   1.39330   1.39350   1.39898   1.41535
  Beta virt. eigenvalues --    1.42316   1.43287   1.45296   1.47008   1.48395
  Beta virt. eigenvalues --    1.50110   1.51035   1.53506   1.54185   1.56236
  Beta virt. eigenvalues --    1.57577   1.58970   1.61045   1.61694   1.61907
  Beta virt. eigenvalues --    1.62137   1.63796   1.65045   1.65539   1.65918
  Beta virt. eigenvalues --    1.66744   1.67701   1.69336   1.69455   1.69617
  Beta virt. eigenvalues --    1.70378   1.70793   1.71982   1.72814   1.74197
  Beta virt. eigenvalues --    1.75171   1.75698   1.75905   1.76971   1.78450
  Beta virt. eigenvalues --    1.79595   1.79927   1.80278   1.81042   1.81579
  Beta virt. eigenvalues --    1.81974   1.82529   1.83170   1.84008   1.84989
  Beta virt. eigenvalues --    1.86235   1.86711   1.87856   1.88848   1.89593
  Beta virt. eigenvalues --    1.90188   1.91739   1.92957   1.93541   1.93611
  Beta virt. eigenvalues --    1.93835   1.94813   1.95693   1.96967   1.98683
  Beta virt. eigenvalues --    1.99909   2.00479   2.01340   2.01679   2.03306
  Beta virt. eigenvalues --    2.03517   2.05577   2.05832   2.06836   2.07898
  Beta virt. eigenvalues --    2.08398   2.08908   2.09983   2.10188   2.12242
  Beta virt. eigenvalues --    2.12501   2.13535   2.14216   2.14290   2.15287
  Beta virt. eigenvalues --    2.15500   2.16799   2.17147   2.17632   2.18778
  Beta virt. eigenvalues --    2.19411   2.19842   2.20308   2.20869   2.21265
  Beta virt. eigenvalues --    2.21720   2.23379   2.24423   2.25742   2.26810
  Beta virt. eigenvalues --    2.27904   2.29004   2.30476   2.31193   2.32082
  Beta virt. eigenvalues --    2.32416   2.33713   2.35036   2.36435   2.37887
  Beta virt. eigenvalues --    2.39403   2.40278   2.42034   2.44273   2.45590
  Beta virt. eigenvalues --    2.46527   2.47852   2.48250   2.49269   2.50636
  Beta virt. eigenvalues --    2.51679   2.51977   2.53876   2.54451   2.55744
  Beta virt. eigenvalues --    2.56139   2.56623   2.58143   2.58684   2.59737
  Beta virt. eigenvalues --    2.62800   2.64044   2.64215   2.64938   2.65212
  Beta virt. eigenvalues --    2.65724   2.67141   2.70442   2.71125   2.72525
  Beta virt. eigenvalues --    2.74022   2.76604   2.77115   2.81402   2.81519
  Beta virt. eigenvalues --    2.83962   2.84932   2.87181   2.88825   2.90681
  Beta virt. eigenvalues --    2.94646   2.97352   3.05563   3.16404   3.18964
  Beta virt. eigenvalues --    3.22091   3.26033   3.34119   3.39921   3.71765
  Beta virt. eigenvalues --    3.75434   3.89712   3.90722   3.94946   3.96972
  Beta virt. eigenvalues --    3.98799   3.99048   3.99535   4.01802   4.03881
  Beta virt. eigenvalues --    4.04634   4.04839   4.06186   4.07167   4.10206
  Beta virt. eigenvalues --    4.13071   4.14033   4.19329   4.19582   4.22898
  Beta virt. eigenvalues --    4.23393   4.24376   4.26349   4.31592   4.32355
  Beta virt. eigenvalues --    4.39305   4.41773   4.49661   4.58970   4.68239
  Beta virt. eigenvalues --    4.70798   4.74492
          Condensed to atoms (all electrons):
          Atomic-Atomic Spin Densities.
 Mulliken charges and spin densities:
               1          2
     1  C   -0.153578   0.052016
     2  C    0.111331   0.097662
     3  C   -0.244859   0.016172
     4  C    0.117516   0.012084
     5  C    0.093614   0.132919
     6  C   -0.178353  -0.009236
     7  H    0.192389  -0.002636
     8  H    0.155945  -0.000922
     9  H    0.170081  -0.000235
    10  C   -0.075666  -0.007823
    11  C    0.119799   0.084858
    12  C   -0.196234  -0.047932
    13  C   -0.112739   0.118849
    14  C   -0.132375  -0.028881
    15  C   -0.163643   0.057225
    16  C    0.073914   0.004925
    17  H    0.158208   0.001624
    18  H    0.170675  -0.005367
    19  H    0.168172   0.000836
    20  H    0.161059  -0.002729
    21  C   -0.440684  -0.000276
    22  H    0.167467  -0.000075
    23  H    0.155977   0.000488
    24  H    0.168208  -0.000083
    25  C   -0.441220  -0.000309
    26  H    0.153138   0.000555
    27  H    0.167953   0.000059
    28  H    0.167377  -0.000080
    29  C    0.126501   0.075170
    30  C    0.202651   0.001481
    31  C   -0.188544   0.066386
    32  C    0.194403  -0.020639
    33  C   -0.199917   0.001746
    34  H    0.171413  -0.003426
    35  C    0.141947   0.148103
    36  H    0.175198  -0.000812
    37  N   -0.568489   0.022944
    38  N   -0.554214   0.041849
    39  S    0.640848  -0.018001
    40  C    0.090456   0.021781
    41  C   -0.136678   0.060694
    42  C   -0.156872   0.054697
    43  C   -0.181734  -0.029801
    44  H    0.180292  -0.002828
    45  C   -0.179875  -0.026079
    46  H    0.154968  -0.002468
    47  C    0.187089   0.112841
    48  H    0.157710   0.000957
    49  H    0.162048   0.000813
    50  C   -0.351703  -0.005688
    51  H    0.179126   0.002210
    52  H    0.159136   0.002025
    53  C   -0.135259   0.008994
    54  H    0.131112   0.002111
    55  H    0.152920  -0.000324
    56  N   -0.708792   0.011197
    57  H    0.306123  -0.000258
    58  H    0.314664   0.000637
 Sum of Mulliken charges =   1.00000   1.00000
 Mulliken charges and spin densities with hydrogens summed into heavy atoms:
               1          2
     1  C    0.038811   0.049380
     2  C    0.111331   0.097662
     3  C   -0.088914   0.015249
     4  C    0.117516   0.012084
     5  C    0.093614   0.132919
     6  C   -0.008272  -0.009471
    10  C   -0.075666  -0.007823
    11  C    0.119799   0.084858
    12  C   -0.038025  -0.046308
    13  C    0.057936   0.113482
    14  C    0.035796  -0.028045
    15  C   -0.002584   0.054497
    16  C    0.073914   0.004925
    21  C    0.050968   0.000054
    25  C    0.047248   0.000225
    29  C    0.126501   0.075170
    30  C    0.202651   0.001481
    31  C   -0.017131   0.062960
    32  C    0.194403  -0.020639
    33  C   -0.024720   0.000933
    35  C    0.141947   0.148103
    37  N   -0.568489   0.022944
    38  N   -0.554214   0.041849
    39  S    0.640848  -0.018001
    40  C    0.090456   0.021781
    41  C    0.043614   0.057866
    42  C   -0.001904   0.052230
    43  C   -0.024024  -0.028844
    45  C   -0.017827  -0.025266
    47  C    0.187089   0.112841
    50  C   -0.013441  -0.001454
    53  C    0.148773   0.010780
    56  N   -0.088005   0.011575
 Electronic spatial extent (au):  <R**2>=          27583.3752
 Charge=              1.0000 electrons
 Dipole moment (field-independent basis, Debye):
    X=             -2.1303    Y=             -0.4723    Z=             -0.1712  Tot=              2.1888
 Quadrupole moment (field-independent basis, Debye-Ang):
   XX=            -14.0792   YY=           -166.0283   ZZ=           -194.8969
   XY=              9.5705   XZ=              4.5929   YZ=             -4.4786
 Traceless Quadrupole moment (field-independent basis, Debye-Ang):
   XX=            110.9223   YY=            -41.0268   ZZ=            -69.8954
   XY=              9.5705   XZ=              4.5929   YZ=             -4.4786
 Octapole moment (field-independent basis, Debye-Ang**2):
  XXX=              4.1061  YYY=             29.7839  ZZZ=             16.3258  XYY=            -46.2482
  XXY=             45.8114  XXZ=             55.6790  XZZ=             44.2384  YZZ=              2.2043
  YYZ=              3.3963  XYZ=              7.1422
 Hexadecapole moment (field-independent basis, Debye-Ang**3):
 XXXX=         -19694.3609 YYYY=          -3075.8926 ZZZZ=           -602.8166 XXXY=           1037.7045
 XXXZ=            808.3578 YYYX=             97.2375 YYYZ=              5.3996 ZZZX=             68.4096
 ZZZY=             -1.3495 XXYY=          -5799.0727 XXZZ=          -5563.9497 YYZZ=           -652.9681
 XXYZ=           -290.8336 YYXZ=             26.8419 ZZXY=             -4.5469
 N-N= 3.079658764243D+03 E-N=-1.005500592464D+04  KE= 1.668650864109D+03
                          Isotropic Fermi Contact Couplings
        Atom                 a.u.       MegaHertz       Gauss      10(-4) cm-1
     1  C(13)              0.00377       4.24097       1.51328       1.41464
     2  C(13)              0.00750       8.43316       3.00916       2.81300
     3  C(13)              0.00067       0.75157       0.26818       0.25070
     4  C(13)              0.00008       0.09035       0.03224       0.03014
     5  C(13)              0.01249      14.04479       5.01153       4.68484
     6  C(13)             -0.00327      -3.67080      -1.30983      -1.22445
     7  H(1)              -0.00096      -4.27693      -1.52612      -1.42663
     8  H(1)              -0.00042      -1.86110      -0.66409      -0.62080
     9  H(1)              -0.00011      -0.47112      -0.16811      -0.15715
    10  C(13)             -0.00192      -2.16159      -0.77131      -0.72103
    11  C(13)              0.00877       9.85689       3.51718       3.28791
    12  C(13)             -0.00711      -7.98947      -2.85084      -2.66500
    13  C(13)              0.01209      13.58598       4.84782       4.53180
    14  C(13)             -0.00494      -5.54848      -1.97983      -1.85077
    15  C(13)              0.00549       6.17509       2.20343       2.05979
    16  C(13)             -0.00275      -3.08967      -1.10247      -1.03060
    17  H(1)               0.00051       2.30177       0.82133       0.76779
    18  H(1)              -0.00175      -7.84394      -2.79891      -2.61646
    19  H(1)               0.00026       1.15719       0.41291       0.38600
    20  H(1)              -0.00094      -4.20778      -1.50144      -1.40356
    21  C(13)             -0.00018      -0.19749      -0.07047      -0.06588
    22  H(1)               0.00001       0.03837       0.01369       0.01280
    23  H(1)               0.00017       0.78130       0.27879       0.26061
    24  H(1)               0.00001       0.02965       0.01058       0.00989
    25  C(13)             -0.00018      -0.19676      -0.07021      -0.06563
    26  H(1)               0.00019       0.86819       0.30979       0.28960
    27  H(1)               0.00007       0.32576       0.11624       0.10866
    28  H(1)               0.00001       0.02446       0.00873       0.00816
    29  C(13)              0.00540       6.06984       2.16587       2.02468
    30  C(13)             -0.00146      -1.64251      -0.58609      -0.54788
    31  C(13)              0.00645       7.24566       2.58543       2.41689
    32  C(13)             -0.00520      -5.84355      -2.08512      -1.94920
    33  C(13)             -0.00168      -1.88849      -0.67386      -0.62993
    34  H(1)              -0.00123      -5.48864      -1.95848      -1.83081
    35  C(13)              0.01459      16.40479       5.85364       5.47205
    36  H(1)              -0.00035      -1.57871      -0.56332      -0.52660
    37  N(14)              0.00280       0.90605       0.32330       0.30223
    38  N(14)              0.00557       1.80124       0.64273       0.60083
    39  S(33)             -0.00296      -1.01562      -0.36240      -0.33877
    40  C(13)             -0.00152      -1.71326      -0.61134      -0.57148
    41  C(13)              0.00605       6.80571       2.42845       2.27014
    42  C(13)              0.00631       7.09699       2.53238       2.36730
    43  C(13)             -0.00490      -5.51135      -1.96659      -1.83839
    44  H(1)              -0.00096      -4.29491      -1.53253      -1.43263
    45  C(13)             -0.00442      -4.96685      -1.77229      -1.65676
    46  H(1)              -0.00089      -3.98897      -1.42336      -1.33058
    47  C(13)              0.01148      12.90471       4.60472       4.30455
    48  H(1)               0.00028       1.24369       0.44378       0.41485
    49  H(1)               0.00027       1.18681       0.42348       0.39588
    50  C(13)             -0.00315      -3.54154      -1.26371      -1.18133
    51  H(1)               0.00106       4.72507       1.68602       1.57611
    52  H(1)               0.00107       4.77643       1.70435       1.59325
    53  C(13)              0.00929      10.44738       3.72788       3.48487
    54  H(1)               0.00054       2.41959       0.86337       0.80709
    55  H(1)              -0.00016      -0.71135      -0.25383      -0.23728
    56  N(14)              0.00918       2.96455       1.05782       0.98887
    57  H(1)              -0.00004      -0.18996      -0.06778      -0.06336
    58  H(1)               0.00049       2.20389       0.78640       0.73514
 --------------------------------------------------------
       Center         ----  Spin Dipole Couplings  ----
                      3XX-RR        3YY-RR        3ZZ-RR
 --------------------------------------------------------
     1   Atom       -0.031176     -0.018707      0.049883
     2   Atom       -0.054391     -0.054947      0.109338
     3   Atom       -0.010079     -0.008586      0.018665
     4   Atom       -0.012159     -0.010443      0.022602
     5   Atom       -0.069464     -0.063470      0.132935
     6   Atom       -0.002112     -0.001129      0.003240
     7   Atom       -0.002310      0.004755     -0.002445
     8   Atom       -0.000747      0.003896     -0.003149
     9   Atom       -0.001046      0.003203     -0.002156
    10   Atom       -0.000661      0.002287     -0.001626
    11   Atom       -0.043806     -0.035793      0.079599
    12   Atom        0.020670      0.014256     -0.034926
    13   Atom       -0.057238     -0.052172      0.109410
    14   Atom        0.009364      0.008359     -0.017722
    15   Atom       -0.030013     -0.024481      0.054494
    16   Atom       -0.010721     -0.012725      0.023445
    17   Atom        0.001882     -0.000262     -0.001620
    18   Atom        0.007279     -0.005868     -0.001410
    19   Atom       -0.000135      0.001564     -0.001429
    20   Atom       -0.003272      0.004709     -0.001437
    21   Atom        0.000185      0.000620     -0.000805
    22   Atom       -0.000398      0.000690     -0.000292
    23   Atom       -0.000095      0.000529     -0.000434
    24   Atom       -0.000227     -0.000543      0.000770
    25   Atom        0.000161      0.001325     -0.001486
    26   Atom       -0.000068      0.001092     -0.001023
    27   Atom       -0.000386      0.001324     -0.000938
    28   Atom       -0.000232      0.000924     -0.000692
    29   Atom       -0.045395     -0.047015      0.092409
    30   Atom       -0.004247      0.001420      0.002827
    31   Atom       -0.039511     -0.030171      0.069683
    32   Atom        0.002645      0.009360     -0.012005
    33   Atom       -0.008845     -0.008675      0.017519
    34   Atom       -0.002721      0.005776     -0.003055
    35   Atom       -0.077942     -0.074409      0.152351
    36   Atom       -0.001400      0.004501     -0.003101
    37   Atom       -0.019337     -0.013604      0.032941
    38   Atom       -0.039597     -0.032343      0.071940
    39   Atom        0.036239      0.027882     -0.064121
    40   Atom       -0.017402     -0.022410      0.039812
    41   Atom       -0.028421     -0.017841      0.046262
    42   Atom       -0.029344     -0.018042      0.047387
    43   Atom        0.010060      0.008162     -0.018221
    44   Atom       -0.002542      0.004485     -0.001942
    45   Atom        0.008410      0.006505     -0.014916
    46   Atom       -0.001222      0.003715     -0.002493
    47   Atom       -0.052880     -0.050723      0.103604
    48   Atom        0.000220      0.001244     -0.001464
    49   Atom        0.000274      0.001131     -0.001405
    50   Atom       -0.001223     -0.005153      0.006377
    51   Atom        0.000874      0.000404     -0.001278
    52   Atom        0.001567     -0.000876     -0.000691
    53   Atom       -0.001172     -0.005911      0.007083
    54   Atom        0.000544      0.000210     -0.000754
    55   Atom        0.000092     -0.001377      0.001286
    56   Atom       -0.006771      0.010700     -0.003929
    57   Atom        0.000437     -0.000187     -0.000250
    58   Atom       -0.000037     -0.000829      0.000866
 --------------------------------------------------------
                        XY            XZ            YZ
 --------------------------------------------------------
     1   Atom       -0.002237     -0.004255      0.030500
     2   Atom       -0.001757     -0.000964      0.021652
     3   Atom        0.003402      0.008573      0.009521
     4   Atom        0.000949      0.006148      0.009239
     5   Atom       -0.000485     -0.002920      0.042451
     6   Atom        0.000706     -0.002585      0.003375
     7   Atom        0.003168     -0.000990     -0.001771
     8   Atom       -0.000059     -0.000396     -0.000818
     9   Atom       -0.000072      0.000037     -0.001542
    10   Atom        0.000198     -0.000090     -0.000995
    11   Atom       -0.000478     -0.001975      0.029105
    12   Atom       -0.000249      0.000174     -0.011784
    13   Atom        0.001276     -0.000307      0.038030
    14   Atom        0.001275     -0.000051     -0.006184
    15   Atom       -0.001189      0.000130      0.019213
    16   Atom       -0.001003     -0.000998      0.008535
    17   Atom       -0.000644      0.000150     -0.000329
    18   Atom        0.005189     -0.001152      0.001056
    19   Atom       -0.000159      0.000048     -0.000716
    20   Atom       -0.000289      0.000037     -0.001529
    21   Atom       -0.000189      0.000453     -0.001196
    22   Atom        0.000192     -0.000157     -0.001045
    23   Atom        0.000086     -0.000089     -0.000990
    24   Atom        0.000093      0.000054     -0.001530
    25   Atom       -0.000343     -0.000300      0.000195
    26   Atom        0.000096      0.000027      0.000215
    27   Atom        0.000249      0.000040      0.000227
    28   Atom        0.000021     -0.000117      0.001430
    29   Atom       -0.001577     -0.005123     -0.018949
    30   Atom        0.002205     -0.002994     -0.006474
    31   Atom       -0.002089      0.003178     -0.032246
    32   Atom        0.000139      0.000727      0.000705
    33   Atom        0.002659     -0.001588     -0.010267
    34   Atom        0.004061      0.000369      0.001219
    35   Atom       -0.001036      0.009434     -0.041341
    36   Atom        0.000190      0.000465      0.001116
    37   Atom       -0.004797      0.018567     -0.022037
    38   Atom        0.005908     -0.023638     -0.033294
    39   Atom        0.001350      0.001041      0.029191
    40   Atom        0.000182      0.004685      0.003120
    41   Atom        0.007599      0.016123      0.032011
    42   Atom       -0.001286     -0.001641      0.027860
    43   Atom       -0.001786     -0.001933     -0.005904
    44   Atom       -0.001125      0.000469     -0.001685
    45   Atom       -0.000766     -0.006298     -0.003552
    46   Atom        0.002612     -0.000303     -0.001026
    47   Atom        0.004662      0.022718      0.036806
    48   Atom       -0.000329     -0.000075     -0.000844
    49   Atom        0.000420     -0.000350     -0.000983
    50   Atom        0.000312      0.003615      0.003154
    51   Atom       -0.001506     -0.000100      0.000241
    52   Atom        0.000613     -0.001054     -0.000550
    53   Atom        0.003417      0.008885      0.005956
    54   Atom        0.000350      0.000870      0.000833
    55   Atom       -0.000347      0.000535     -0.001012
    56   Atom        0.008834      0.005038      0.012384
    57   Atom        0.000896     -0.000495     -0.000581
    58   Atom       -0.000122      0.001223     -0.000386
 --------------------------------------------------------


 ---------------------------------------------------------------------------------
              Anisotropic Spin Dipole Couplings in Principal Axis System
 ---------------------------------------------------------------------------------

       Atom             a.u.   MegaHertz   Gauss  10(-4) cm-1        Axes

              Baa    -0.0317    -4.249    -1.516    -1.417  0.9191  0.3823 -0.0950
     1 C(13)  Bbb    -0.0301    -4.034    -1.439    -1.346 -0.3906  0.8530 -0.3462
              Bcc     0.0617     8.283     2.956     2.763 -0.0513  0.3553  0.9333
 
              Baa    -0.0584    -7.838    -2.797    -2.614  0.3744  0.9199 -0.1166
     2 C(13)  Bbb    -0.0537    -7.212    -2.573    -2.406  0.9272 -0.3705  0.0547
              Bcc     0.1122    15.050     5.370     5.020 -0.0071  0.1286  0.9917
 
              Baa    -0.0129    -1.728    -0.617    -0.576  0.8640 -0.4963 -0.0850
     3 C(13)  Bbb    -0.0113    -1.511    -0.539    -0.504  0.4313  0.8167 -0.3834
              Bcc     0.0241     3.239     1.156     1.080  0.2597  0.2946  0.9197
 
              Baa    -0.0136    -1.832    -0.654    -0.611  0.7780  0.5645 -0.2758
     4 C(13)  Bbb    -0.0124    -1.659    -0.592    -0.553 -0.6075  0.7878 -0.1013
              Bcc     0.0260     3.491     1.246     1.164  0.1601  0.2464  0.9559
 
              Baa    -0.0723    -9.696    -3.460    -3.234 -0.0424  0.9783 -0.2030
     5 C(13)  Bbb    -0.0695    -9.326    -3.328    -3.111  0.9990  0.0443  0.0051
              Bcc     0.1418    19.023     6.788     6.345 -0.0140  0.2026  0.9792
 
              Baa    -0.0046    -0.617    -0.220    -0.206  0.6558 -0.5905  0.4704
     6 C(13)  Bbb    -0.0010    -0.132    -0.047    -0.044  0.7103  0.6937 -0.1195
              Bcc     0.0056     0.750     0.268     0.250 -0.2557  0.4125  0.8743
 
              Baa    -0.0036    -1.938    -0.692    -0.647  0.8971 -0.2640  0.3542
     7 H(1)   Bbb    -0.0028    -1.488    -0.531    -0.496 -0.2634  0.3239  0.9087
              Bcc     0.0064     3.427     1.223     1.143  0.3546  0.9085 -0.2210
 
              Baa    -0.0033    -1.763    -0.629    -0.588  0.1544  0.1128  0.9815
     8 H(1)   Bbb    -0.0007    -0.365    -0.130    -0.122  0.9880 -0.0147 -0.1538
              Bcc     0.0040     2.129     0.760     0.710 -0.0029  0.9935 -0.1137
 
              Baa    -0.0026    -1.371    -0.489    -0.457 -0.0112  0.2580  0.9661
     9 H(1)   Bbb    -0.0010    -0.559    -0.199    -0.186  0.9998  0.0192  0.0064
              Bcc     0.0036     1.929     0.688     0.644 -0.0169  0.9660 -0.2582
 
              Baa    -0.0019    -0.250    -0.089    -0.084  0.0346  0.2313  0.9723
    10 C(13)  Bbb    -0.0007    -0.090    -0.032    -0.030  0.9972 -0.0728 -0.0181
              Bcc     0.0025     0.341     0.122     0.114  0.0666  0.9701 -0.2332
 
              Baa    -0.0438    -5.883    -2.099    -1.962  0.9999  0.0103  0.0136
    11 C(13)  Bbb    -0.0427    -5.732    -2.045    -1.912 -0.0069  0.9728 -0.2316
              Bcc     0.0866    11.615     4.145     3.874 -0.0156  0.2315  0.9727
 
              Baa    -0.0376    -5.046    -1.801    -1.683 -0.0020  0.2216  0.9751
    12 C(13)  Bbb     0.0169     2.269     0.810     0.757  0.0746  0.9725 -0.2208
              Bcc     0.0207     2.777     0.991     0.926  0.9972 -0.0723  0.0184
 
              Baa    -0.0611    -8.202    -2.927    -2.736 -0.3204  0.9244 -0.2067
    13 C(13)  Bbb    -0.0568    -7.621    -2.719    -2.542  0.9473  0.3127 -0.0698
              Bcc     0.1179    15.823     5.646     5.278 -0.0001  0.2182  0.9759
 
              Baa    -0.0191    -2.565    -0.915    -0.856 -0.0081  0.2199  0.9755
    14 C(13)  Bbb     0.0083     1.112     0.397     0.371  0.7588 -0.6339  0.1492
              Bcc     0.0108     1.453     0.518     0.485  0.6512  0.7414 -0.1618
 
              Baa    -0.0308    -4.129    -1.473    -1.377  0.8432  0.5242 -0.1194
    15 C(13)  Bbb    -0.0281    -3.777    -1.348    -1.260 -0.5376  0.8215 -0.1901
              Bcc     0.0589     7.907     2.821     2.637 -0.0016  0.2245  0.9745
 
              Baa    -0.0148    -1.983    -0.708    -0.662  0.1856  0.9600 -0.2095
    16 C(13)  Bbb    -0.0106    -1.425    -0.508    -0.475  0.9821 -0.1741  0.0724
              Bcc     0.0254     3.408     1.216     1.137 -0.0330  0.2192  0.9751
 
              Baa    -0.0017    -0.905    -0.323    -0.302 -0.0006  0.2238  0.9746
    17 H(1)   Bbb    -0.0004    -0.203    -0.072    -0.068  0.2805  0.9356 -0.2146
              Bcc     0.0021     1.107     0.395     0.369  0.9599 -0.2733  0.0634
 
              Baa    -0.0080    -4.247    -1.515    -1.417 -0.3294  0.9214 -0.2064
    18 H(1)   Bbb    -0.0012    -0.626    -0.223    -0.209 -0.0010  0.2183  0.9759
              Bcc     0.0091     4.873     1.739     1.625  0.9442  0.3216 -0.0710
 
              Baa    -0.0016    -0.849    -0.303    -0.283 -0.0082  0.2209  0.9753
    19 H(1)   Bbb    -0.0001    -0.080    -0.028    -0.027  0.9961  0.0876 -0.0115
              Bcc     0.0017     0.929     0.331     0.310 -0.0880  0.9714 -0.2207
 
              Baa    -0.0033    -1.751    -0.625    -0.584  0.9992  0.0384  0.0117
    20 H(1)   Bbb    -0.0018    -0.958    -0.342    -0.320 -0.0202  0.2280  0.9735
              Bcc     0.0051     2.710     0.967     0.904 -0.0347  0.9729 -0.2286
 
              Baa    -0.0015    -0.206    -0.074    -0.069 -0.1773  0.4649  0.8674
    21 C(13)  Bbb     0.0001     0.015     0.006     0.005  0.9355  0.3534  0.0018
              Bcc     0.0014     0.191     0.068     0.064 -0.3057  0.8118 -0.4976
 
              Baa    -0.0010    -0.511    -0.182    -0.170  0.0560  0.5302  0.8460
    22 H(1)   Bbb    -0.0004    -0.230    -0.082    -0.077  0.9890 -0.1454  0.0257
              Bcc     0.0014     0.740     0.264     0.247  0.1366  0.8353 -0.5326
 
              Baa    -0.0011    -0.563    -0.201    -0.188  0.0312  0.5288  0.8482
    23 H(1)   Bbb    -0.0001    -0.056    -0.020    -0.019  0.9950 -0.0973  0.0240
              Bcc     0.0012     0.619     0.221     0.206  0.0952  0.8431 -0.5292
 
              Baa    -0.0016    -0.832    -0.297    -0.278 -0.0805  0.8324  0.5483
    24 H(1)   Bbb    -0.0002    -0.116    -0.042    -0.039  0.9968  0.0655  0.0468
              Bcc     0.0018     0.949     0.338     0.316 -0.0031 -0.5503  0.8349
 
              Baa    -0.0015    -0.207    -0.074    -0.069  0.1638 -0.0472  0.9854
    25 C(13)  Bbb     0.0001     0.014     0.005     0.005  0.9466  0.2887 -0.1435
              Bcc     0.0014     0.194     0.069     0.065 -0.2777  0.9563  0.0920
 
              Baa    -0.0010    -0.558    -0.199    -0.186 -0.0173 -0.0992  0.9949
    26 H(1)   Bbb    -0.0001    -0.041    -0.014    -0.014  0.9965 -0.0834  0.0090
              Bcc     0.0011     0.598     0.214     0.200  0.0821  0.9916  0.1003
 
              Baa    -0.0010    -0.513    -0.183    -0.171 -0.0273 -0.0960  0.9950
    27 H(1)   Bbb    -0.0004    -0.225    -0.080    -0.075  0.9897 -0.1427  0.0134
              Bcc     0.0014     0.738     0.263     0.246  0.1407  0.9851  0.0989
 
              Baa    -0.0015    -0.820    -0.292    -0.273  0.0850 -0.5012  0.8611
    28 H(1)   Bbb    -0.0002    -0.119    -0.042    -0.040  0.9962  0.0606 -0.0631
              Bcc     0.0018     0.939     0.335     0.313 -0.0206  0.8632  0.5044
 
              Baa    -0.0505    -6.783    -2.420    -2.263  0.4094  0.9024  0.1343
    29 C(13)  Bbb    -0.0446    -5.979    -2.134    -1.994  0.9117 -0.4103 -0.0227
              Bcc     0.0951    12.763     4.554     4.257 -0.0346 -0.1317  0.9907
 
              Baa    -0.0054    -0.719    -0.257    -0.240  0.9104  0.0896  0.4038
    30 C(13)  Bbb    -0.0043    -0.573    -0.204    -0.191 -0.3234  0.7629  0.5599
              Bcc     0.0096     1.291     0.461     0.431 -0.2579 -0.6403  0.7235
 
              Baa    -0.0408    -5.469    -1.951    -1.824  0.6977  0.6928  0.1822
    31 C(13)  Bbb    -0.0385    -5.173    -1.846    -1.725  0.7157 -0.6633 -0.2186
              Bcc     0.0793    10.642     3.797     3.550  0.0306 -0.2830  0.9586
 
              Baa    -0.0121    -1.619    -0.578    -0.540 -0.0491 -0.0325  0.9983
    32 C(13)  Bbb     0.0027     0.359     0.128     0.120  0.9985 -0.0258  0.0482
              Bcc     0.0094     1.260     0.449     0.420  0.0242  0.9991  0.0337
 
              Baa    -0.0132    -1.768    -0.631    -0.590 -0.4317  0.8619  0.2660
    33 C(13)  Bbb    -0.0081    -1.084    -0.387    -0.361  0.8986  0.3852  0.2103
              Bcc     0.0213     2.852     1.018     0.951 -0.0788 -0.3298  0.9408
 
              Baa    -0.0044    -2.326    -0.830    -0.776  0.9201 -0.3800  0.0946
    34 H(1)   Bbb    -0.0032    -1.705    -0.608    -0.569 -0.1323 -0.0744  0.9884
              Bcc     0.0076     4.032     1.439     1.345  0.3686  0.9220  0.1187
 
              Baa    -0.0818   -10.980    -3.918    -3.662 -0.1744  0.9685  0.1780
    35 C(13)  Bbb    -0.0782   -10.495    -3.745    -3.501  0.9839  0.1786 -0.0082
              Bcc     0.1600    21.474     7.663     7.163  0.0398 -0.1737  0.9840
 
              Baa    -0.0034    -1.792    -0.639    -0.598 -0.2169 -0.1321  0.9672
    36 H(1)   Bbb    -0.0013    -0.701    -0.250    -0.234  0.9753 -0.0719  0.2088
              Bcc     0.0047     2.493     0.889     0.832  0.0420  0.9886  0.1444
 
              Baa    -0.0262    -1.010    -0.360    -0.337  0.8221 -0.3984 -0.4066
    37 N(14)  Bbb    -0.0210    -0.809    -0.289    -0.270  0.4983  0.8491  0.1755
              Bcc     0.0472     1.819     0.649     0.607  0.2753 -0.3469  0.8966
 
              Baa    -0.0446    -1.722    -0.614    -0.574  0.9227  0.2783  0.2666
    38 N(14)  Bbb    -0.0417    -1.609    -0.574    -0.537 -0.3354  0.9206  0.1999
              Bcc     0.0864     3.331     1.189     1.111 -0.1898 -0.2739  0.9429
 
              Baa    -0.0726    -2.977    -1.062    -0.993 -0.0057 -0.2789  0.9603
    39 S(33)  Bbb     0.0347     1.423     0.508     0.475  0.7203 -0.6673 -0.1895
              Bcc     0.0379     1.553     0.554     0.518  0.6936  0.6906  0.2047
 
              Baa    -0.0226    -3.028    -1.081    -1.010  0.0108  0.9987 -0.0508
    40 C(13)  Bbb    -0.0178    -2.386    -0.851    -0.796  0.9967 -0.0149 -0.0803
              Bcc     0.0403     5.414     1.932     1.806  0.0809  0.0497  0.9955
 
              Baa    -0.0324    -4.350    -1.552    -1.451  0.8301 -0.5548  0.0556
    41 C(13)  Bbb    -0.0306    -4.101    -1.463    -1.368  0.5238  0.7417 -0.4190
              Bcc     0.0630     8.451     3.016     2.819  0.1912  0.3769  0.9063
 
              Baa    -0.0297    -3.983    -1.421    -1.329  0.9078  0.4002 -0.1253
    42 C(13)  Bbb    -0.0280    -3.758    -1.341    -1.253 -0.4188  0.8488 -0.3228
              Bcc     0.0577     7.741     2.762     2.582 -0.0228  0.3455  0.9381
 
              Baa    -0.0197    -2.638    -0.941    -0.880  0.0761  0.2117  0.9744
    43 C(13)  Bbb     0.0084     1.131     0.404     0.377  0.5942  0.7751 -0.2148
              Bcc     0.0112     1.507     0.538     0.503  0.8007 -0.5953  0.0668
 
              Baa    -0.0028    -1.498    -0.535    -0.500  0.9143  0.0481 -0.4021
    44 H(1)   Bbb    -0.0023    -1.218    -0.434    -0.406  0.3737  0.2822  0.8836
              Bcc     0.0051     2.716     0.969     0.906 -0.1560  0.9581 -0.2400
 
              Baa    -0.0171    -2.290    -0.817    -0.764  0.2415  0.1522  0.9584
    45 C(13)  Bbb     0.0071     0.947     0.338     0.316 -0.0789  0.9874 -0.1370
              Bcc     0.0100     1.343     0.479     0.448  0.9672  0.0426 -0.2505
 
              Baa    -0.0027    -1.435    -0.512    -0.479 -0.2666  0.2576  0.9288
    46 H(1)   Bbb    -0.0023    -1.227    -0.438    -0.409  0.8816 -0.3243  0.3430
              Bcc     0.0050     2.663     0.950     0.888  0.3895  0.9102 -0.1406
 
              Baa    -0.0591    -7.934    -2.831    -2.646  0.1488  0.9598 -0.2379
    47 C(13)  Bbb    -0.0560    -7.516    -2.682    -2.507  0.9794 -0.1763 -0.0987
              Bcc     0.1151    15.450     5.513     5.153  0.1367  0.2183  0.9663
 
              Baa    -0.0017    -0.917    -0.327    -0.306  0.0846  0.2816  0.9558
    48 H(1)   Bbb     0.0002     0.090     0.032     0.030  0.9723  0.1864 -0.1410
              Bcc     0.0016     0.828     0.295     0.276 -0.2179  0.9412 -0.2580
 
              Baa    -0.0018    -0.939    -0.335    -0.313  0.0994  0.3073  0.9464
    49 H(1)   Bbb     0.0001     0.055     0.020     0.018  0.9320 -0.3620  0.0197
              Bcc     0.0017     0.884     0.315     0.295  0.3487  0.8801 -0.3224
 
              Baa    -0.0061    -0.812    -0.290    -0.271  0.1517  0.9466 -0.2844
    50 C(13)  Bbb    -0.0025    -0.329    -0.117    -0.110  0.9259 -0.2368 -0.2945
              Bcc     0.0085     1.141     0.407     0.381  0.3461  0.2186  0.9124
 
              Baa    -0.0013    -0.707    -0.252    -0.236 -0.1200 -0.2389  0.9636
    51 H(1)   Bbb    -0.0009    -0.455    -0.162    -0.152  0.6433  0.7206  0.2587
              Bcc     0.0022     1.162     0.415     0.388  0.7562 -0.6509 -0.0672
 
              Baa    -0.0014    -0.730    -0.261    -0.244  0.1250  0.6661  0.7353
    52 H(1)   Bbb    -0.0008    -0.433    -0.154    -0.144 -0.4316  0.7038 -0.5642
              Bcc     0.0022     1.163     0.415     0.388  0.8934  0.2468 -0.3755
 
              Baa    -0.0082    -1.104    -0.394    -0.368  0.0189  0.9280 -0.3720
    53 C(13)  Bbb    -0.0068    -0.909    -0.324    -0.303  0.8616 -0.2039 -0.4648
              Bcc     0.0150     2.013     0.718     0.672  0.5072  0.3117  0.8035
 
              Baa    -0.0014    -0.763    -0.272    -0.254 -0.3175 -0.3748  0.8710
    54 H(1)   Bbb     0.0000     0.006     0.002     0.002 -0.6458  0.7581  0.0908
              Bcc     0.0014     0.757     0.270     0.252  0.6944  0.5337  0.4827
 
              Baa    -0.0017    -0.925    -0.330    -0.308  0.0921  0.9489  0.3018
    55 H(1)   Bbb    -0.0001    -0.060    -0.021    -0.020  0.9383  0.0188 -0.3454
              Bcc     0.0018     0.984     0.351     0.328  0.3335 -0.3150  0.8886
 
              Baa    -0.0110    -0.424    -0.151    -0.141  0.0057 -0.4974  0.8675
    56 N(14)  Bbb    -0.0104    -0.403    -0.144    -0.134  0.9407 -0.2916 -0.1733
              Bcc     0.0214     0.827     0.295     0.276  0.3392  0.8170  0.4663
 
              Baa    -0.0009    -0.488    -0.174    -0.163 -0.3846  0.8174  0.4289
    57 H(1)   Bbb    -0.0005    -0.263    -0.094    -0.088  0.5742 -0.1520  0.8045
              Bcc     0.0014     0.751     0.268     0.251  0.7228  0.5557 -0.4109
 
              Baa    -0.0010    -0.537    -0.192    -0.179 -0.5268  0.6965  0.4873
    58 H(1)   Bbb    -0.0008    -0.410    -0.146    -0.137  0.6395  0.7024 -0.3126
              Bcc     0.0018     0.947     0.338     0.316  0.5600 -0.1469  0.8154
 

 ---------------------------------------------------------------------------------

 No NMR shielding tensors so no spin-rotation constants.
 Leave Link  601 at Thu Mar 14 11:41:26 2024, MaxMem= 32212254720 cpu:               8.3 elap:               0.3
 (Enter /home/<user>/g16/l9999.exe)

 Test job not archived.
 1\1\GINC-PB-207\FOpt\UB3LYP\6-31G(d)\C29H25N3S1(1+,2)\PB-207\14-Mar-20
 24\0\\#p opt b3lyp/6-31g(d)\\H0OPT\\1,2\C,-2.4399868685,1.6038229656,-
 0.5126091648\C,-1.784986349,0.3743647109,-0.1963198111\C,-2.5935303131
 ,-0.7663747058,0.0947230375\C,-3.9637198299,-0.671416616,0.0742511392\
 C,-4.5939597339,0.5628948281,-0.2556913428\C,-3.816563527,1.6981275227
 ,-0.5522327631\H,-1.8404244946,2.4741499462,-0.7399233427\H,-2.1238009
 351,-1.7007528266,0.3834817003\H,-4.2873234229,2.6406885643,-0.8144737
 11\C,-5.00700194,-1.7451401441,0.3794130707\C,-6.2976210912,-0.9604019
 517,0.1581086271\C,-7.611408249,-1.3924830787,0.2721195753\C,-8.646392
 7446,-0.4826384556,0.0208163398\C,-8.3763602985,0.8491310497,-0.342386
 8233\C,-7.0663695908,1.2934522472,-0.4605353741\C,-6.024643768,0.38297
 18206,-0.20923887\H,-7.8454003139,-2.4157646837,0.5518818063\H,-9.6781
 220005,-0.8106012561,0.1082857963\H,-9.2001917077,1.5303851452,-0.5307
 988098\H,-6.8542179762,2.3208932873,-0.741510552\C,-4.8941466072,-2.24
 16228463,1.8400444489\H,-5.6941390907,-2.9553638912,2.0628695658\H,-3.
 9379255145,-2.7513342915,2.0015928149\H,-4.9671952702,-1.412846105,2.5
 509735446\C,-4.896088796,-2.9379600339,-0.5982151617\H,-3.9412519292,-
 3.4585189499,-0.4650940244\H,-5.6971331846,-3.6606624768,-0.4109807449
 \H,-4.9680653316,-2.6099488144,-1.6398496903\C,-0.3394461832,0.2639816
 654,-0.1893327619\C,0.5626426325,1.3820533489,-0.0001750712\C,0.301877
 7329,-0.9746570175,-0.3783746547\C,2.0063254149,1.2040660563,-0.031768
 5477\C,1.6869915601,-1.1425689283,-0.4132032818\H,-0.3048688225,-1.851
 7818774,-0.5712905977\C,2.6074091068,-0.092489896,-0.2575948789\H,2.06
 22878057,-2.136084189,-0.6297173811\N,0.1979417692,2.6366938647,0.2707
 602461\N,2.6778124908,2.3307332691,0.2166919157\S,1.5717325339,3.51485
 66016,0.45883122\C,4.0430739675,-0.3223755431,-0.3248902932\C,4.953473
 044,0.6900983889,-0.7204394106\C,4.5763528984,-1.6007386134,-0.0166092
 4\C,6.3102567317,0.4256104018,-0.813720127\H,4.5829663976,1.6738966668
 ,-0.975424819\C,5.9355479701,-1.8457171595,-0.0946178854\H,3.921048410
 3,-2.3928825797,0.3301510192\C,6.8357105385,-0.8421810719,-0.503656743
 7\H,6.9821906687,1.2128170368,-1.145099237\H,6.3181274379,-2.829293207
 8,0.1643415789\C,8.313719963,-1.1112350065,-0.5614843923\H,8.506674002
 7,-2.1696276932,-0.7634222225\H,8.7664059462,-0.5350229642,-1.37863387
 57\C,9.0372394574,-0.7477196273,0.7603590388\H,8.8629865908,0.32104455
 61,0.9782904662\H,8.5809971008,-1.3140551601,1.5808279959\N,10.4398494
 203,-1.1343265961,0.6708449502\H,10.9532878271,-0.493223195,0.06876111
 63\H,10.8811444641,-1.094436491,1.5866415931\\Version=ES64L-G16RevC.01
 \State=2-A\HF=-1682.3679002\S2=0.76245\S2-1=0.\S2A=0.750118\RMSD=9.643
 e-09\RMSF=3.071e-06\Dipole=-0.8378797,-0.1902369,-0.0575326\Quadrupole
 =82.4504089,-30.8060535,-51.6443554,7.473939,2.847415,-4.2649567\PG=C0
 1 [X(C29H25N3S1)]\\@


 SI MONUMENTUM REQUIRIS, CIRCUMSPICE
     -- FROM SIR CHRISTOPHER WREN'S TOMBSTONE
 Job cpu time:       0 days  5 hours  3 minutes 33.3 seconds.
 Elapsed time:       0 days  0 hours 10 minutes  8.2 seconds.
 File lengths (MBytes):  RWF=    335 Int=      0 D2E=      0 Chk=     32 Scr=      1
 Normal termination of Gaussian 16 at Thu Mar 14 11:41:26 2024.
