%mem=240GB
%nprocshared=30
%chk=FBTP_S1abs.chk
#p td=(nstates=40) cam-b3lyp/def2tzvp

S1ABS

0 1
C	 -2.447773    1.657266   -0.310994
C	 -1.767663    0.407159   -0.176522
C	 -2.565522   -0.763398    0.005384
C	 -3.938766   -0.680423    0.034250
C	 -4.589726    0.571825   -0.121319
C	 -3.828830    1.738901   -0.293075
H	 -1.848595    2.550684   -0.419819
H	 -2.083003   -1.721915    0.162172
H	 -4.312954    2.704902   -0.408765
C	 -4.961469   -1.800109    0.230788
C	 -6.270235   -1.015971    0.151730
C	 -7.574156   -1.481179    0.252998
C	 -8.632676   -0.569053    0.150335
C	 -8.388250    0.797627   -0.051959
C	 -7.084995    1.275108   -0.155080
C	 -6.022615    0.364068   -0.053008
H	 -7.781115   -2.536736    0.410358
H	 -9.656546   -0.924117    0.228662
H	 -9.224376    1.486873   -0.128307
H	 -6.895542    2.333374   -0.311612
C	 -4.796572   -2.480021    1.608985
H	 -5.577202   -3.233613    1.763756
H	 -3.825558   -2.983310    1.676461
H	 -4.859382   -1.749120    2.421224
C	 -4.868413   -2.855187   -0.894417
H	 -3.898819   -3.364956   -0.864618
H	 -5.650305   -3.614380   -0.778421
H	 -4.981986   -2.394049   -1.880608
C	 -0.313601    0.312763   -0.230114
C	  0.569989    1.426722   -0.008868
C	  0.297817   -0.934934   -0.525381
C	  2.000801    1.246809   -0.046375
C	  1.668513   -1.105617   -0.569391
H	 -0.326456   -1.781519   -0.787173
C	  2.575989   -0.046168   -0.315899
H	  2.055516   -2.074830   -0.861609
N	  0.171866    2.684243    0.286464
N	  2.714331    2.360198    0.226106
S	  1.585798    3.579167    0.491758
C	  4.015709   -0.299960   -0.344990
C	  4.964831    0.726171   -0.582953
C	  4.523133   -1.611204   -0.151344
C	  6.322606    0.443714   -0.642701
H	  4.612204    1.739472   -0.718434
C	  5.882351   -1.876708   -0.197617
H	  3.842029   -2.424181    0.076215
C	  6.815831   -0.856428   -0.450902
H	  7.021675    1.252254   -0.846017
H	  6.234977   -2.892497   -0.032377
C	  8.296189   -1.144834   -0.462478
H	  8.491159   -2.164239   -0.814422
H	  8.801856   -0.462254   -1.159508
C	  8.940123   -0.993855    0.930147
H	  8.736567    0.023797    1.308296
H	  8.451698   -1.688416    1.624283
N	 10.362033   -1.345183    0.867745
H	 10.865165   -0.639418    0.330467
H	 10.762905   -1.321784    1.804080

