%mem=240GB
%nprocshared=30
%chk=FBTP_H0abs.chk
#p td=(nstates=10) cam-b3lyp/def2tzvp

H0ABS

1 2
C	 -2.437354    1.612708   -0.421714
C	 -1.785402    0.369225   -0.158390
C	 -2.596764   -0.781503    0.080884
C	 -3.966721   -0.682916    0.062051
C	 -4.593876    0.565964   -0.214654
C	 -3.813662    1.711495   -0.459721
H	 -1.835631    2.490922   -0.609559
H	 -2.129446   -1.728602    0.329291
H	 -4.282046    2.665610   -0.681279
C	 -5.012716   -1.766827    0.317932
C	 -6.301348   -0.970487    0.128834
C	 -7.616206   -1.404440    0.221364
C	 -8.648899   -0.482327    0.008253
C	 -8.375528    0.863518   -0.295740
C	 -7.064434    1.309889   -0.391874
C	 -6.025001    0.387127   -0.178785
H	 -7.852765   -2.438513    0.455582
H	 -9.681443   -0.811681    0.079352
H	 -9.197642    1.554070   -0.455646
H	 -6.849705    2.348215   -0.627162
C	 -4.903682   -2.327065    1.755611
H	 -5.705516   -3.048234    1.945461
H	 -3.948786   -2.845335    1.896442
H	 -4.976473   -1.530086    2.502038
C	 -4.902262   -2.915890   -0.710820
H	 -3.948717   -3.443749   -0.598867
H	 -5.705096   -3.644450   -0.556922
H	 -4.971565   -2.542405   -1.737212
C	 -0.340099    0.255663   -0.153565
C	  0.563830    1.362511    0.086079
C	  0.299140   -0.974822   -0.395514
C	  2.007216    1.183104    0.049395
C	  1.683984   -1.143901   -0.435097
H	 -0.308964   -1.841399   -0.627806
C	  2.606173   -0.103548   -0.231915
H	  2.057735   -2.127746   -0.694243
N	  0.201085    2.604824    0.411057
N	  2.680446    2.296416    0.348234
S	  1.576241    3.471069    0.639978
C	  4.041508   -0.333222   -0.306556
C	  4.954675    0.693733   -0.655668
C	  4.571658   -1.624962   -0.053602
C	  6.311112    0.430791   -0.757932
H	  4.586611    1.688520   -0.867984
C	  5.930515   -1.869088   -0.139749
H	  3.914115   -2.430187    0.256897
C	  6.833453   -0.850450   -0.502748
H	  6.985244    1.230375   -1.053249
H	  6.310644   -2.863852    0.076570
C	  8.311037   -1.119757   -0.569568
H	  8.502290   -2.168680   -0.817334
H	  8.766450   -0.509227   -1.359841
C	  9.032704   -0.816002    0.768275
H	  8.860141    0.242544    1.032508
H	  8.573748   -1.416803    1.562291
N	 10.434718   -1.201205    0.664508
H	 10.950592   -0.535395    0.092050
H	 10.874310   -1.202390    1.581990

