 Entering Gaussian System, Link 0=g16
 Initial command:
 /home/<user>/g16/l1.exe "/media/<user>/Gaussian/g16/scratch/Gau-202846.inp" -scrdir="/media/<user>/Gaussian/g16/scratch/"
 Default is to use a total of  96 processors:
                               96 via shared-memory
                                1 via Linda
 Entering Link 1 = /home/<user>/g16/l1.exe PID=    202851.
  
 Copyright (c) 1988-2019, Gaussian, Inc.  All Rights Reserved.
  
 This is part of the Gaussian(R) 16 program.  It is based on
 the Gaussian(R) 09 system (copyright 2009, Gaussian, Inc.),
 the Gaussian(R) 03 system (copyright 2003, Gaussian, Inc.),
 the Gaussian(R) 98 system (copyright 1998, Gaussian, Inc.),
 the Gaussian(R) 94 system (copyright 1995, Gaussian, Inc.),
 the Gaussian 92(TM) system (copyright 1992, Gaussian, Inc.),
 the Gaussian 90(TM) system (copyright 1990, Gaussian, Inc.),
 the Gaussian 88(TM) system (copyright 1988, Gaussian, Inc.),
 the Gaussian 86(TM) system (copyright 1986, Carnegie Mellon
 University), and the Gaussian 82(TM) system (copyright 1983,
 Carnegie Mellon University). Gaussian is a federally registered
 trademark of Gaussian, Inc.
  
 This software contains proprietary and confidential information,
 including trade secrets, belonging to Gaussian, Inc.
  
 This software is provided under written license and may be
 used, copied, transmitted, or stored only in accord with that
 written license.
  
 The following legend is applicable only to US Government
 contracts under FAR:
  
                    RESTRICTED RIGHTS LEGEND
  
 Use, reproduction and disclosure by the US Government is
 subject to restrictions as set forth in subparagraphs (a)
 and (c) of the Commercial Computer Software - Restricted
 Rights clause in FAR 52.227-19.
  
 Gaussian, Inc.
 340 Quinnipiac St., Bldg. 40, Wallingford CT 06492
  
  
 ---------------------------------------------------------------
 Warning -- This program may not be used in any manner that
 competes with the business of Gaussian, Inc. or will provide
 assistance to any competitor of Gaussian, Inc.  The licensee
 of this program is prohibited from giving any competitor of
 Gaussian, Inc. access to this program.  By using this program,
 the user acknowledges that Gaussian, Inc. is engaged in the
 business of creating and licensing software in the field of
 computational chemistry and represents and warrants to the
 licensee that it is not a competitor of Gaussian, Inc. and that
 it will not use this program in any manner prohibited above.
 ---------------------------------------------------------------
  

 Cite this work as:
 Gaussian 16, Revision C.01,
 M. J. Frisch, G. W. Trucks, H. B. Schlegel, G. E. Scuseria, 
 M. A. Robb, J. R. Cheeseman, G. Scalmani, V. Barone, 
 G. A. Petersson, H. Nakatsuji, X. Li, M. Caricato, A. V. Marenich, 
 J. Bloino, B. G. Janesko, R. Gomperts, B. Mennucci, H. P. Hratchian, 
 J. V. Ortiz, A. F. Izmaylov, J. L. Sonnenberg, D. Williams-Young, 
 F. Ding, F. Lipparini, F. Egidi, J. Goings, B. Peng, A. Petrone, 
 T. Henderson, D. Ranasinghe, V. G. Zakrzewski, J. Gao, N. Rega, 
 G. Zheng, W. Liang, M. Hada, M. Ehara, K. Toyota, R. Fukuda, 
 J. Hasegawa, M. Ishida, T. Nakajima, Y. Honda, O. Kitao, H. Nakai, 
 T. Vreven, K. Throssell, J. A. Montgomery, Jr., J. E. Peralta, 
 F. Ogliaro, M. J. Bearpark, J. J. Heyd, E. N. Brothers, K. N. Kudin, 
 V. N. Staroverov, T. A. Keith, R. Kobayashi, J. Normand, 
 K. Raghavachari, A. P. Rendell, J. C. Burant, S. S. Iyengar, 
 J. Tomasi, M. Cossi, J. M. Millam, M. Klene, C. Adamo, R. Cammi, 
 J. W. Ochterski, R. L. Martin, K. Morokuma, O. Farkas, 
 J. B. Foresman, and D. J. Fox, Gaussian, Inc., Wallingford CT, 2019.
 
 ******************************************
 Gaussian 16:  ES64L-G16RevC.01  3-Jul-2019
                14-Mar-2024 
 ******************************************
 %mem=240GB
 %nprocshared=30
 Will use up to   30 processors via shared memory.
 %chk=FBTP_T1opt.chk
 Default route: IOp(8/117=-99) IOp(7/127=-99)
 ---------------------
 #p opt b3lyp/6-31g(d)
 ---------------------
 1/18=20,19=15,26=3,38=1/1,3;
 2/9=110,12=2,17=6,18=5,40=1/2;
 3/5=1,6=6,7=1,11=2,25=1,30=1,71=1,74=-5/1,2,3;
 4//1;
 5/5=2,38=5/2;
 6/7=2,8=2,9=2,10=2,28=1/1;
 7/127=-99/1,2,3,16;
 1/18=20,19=15,26=3/3(2);
 2/9=110/2;
 99//99;
 2/9=110/2;
 3/5=1,6=6,7=1,11=2,25=1,30=1,71=1,74=-5/1,2,3;
 4/5=5,16=3,69=1/1;
 5/5=2,38=5/2;
 7/127=-99/1,2,3,16;
 1/18=20,19=15,26=3/3(-5);
 2/9=110/2;
 6/7=2,8=2,9=2,10=2,19=2,28=1/1;
 99/9=1/99;
 Leave Link    1 at Thu Mar 14 09:19:50 2024, MaxMem= 32212254720 cpu:               4.3 elap:               0.1
 (Enter /home/<user>/g16/l101.exe)
 -----
 T1OPT
 -----
 Symbolic Z-matrix:
 Charge =  0 Multiplicity = 3
 C                    -2.44542   1.57695  -0.64076 
 C                    -1.80077   0.3779   -0.27654 
 C                    -2.59319  -0.73283   0.08439 
 C                    -3.97616  -0.63937   0.06755 
 C                    -4.60488   0.56401  -0.30831 
 C                    -3.8351    1.67379  -0.66176 
 H                    -1.84701   2.4381   -0.91227 
 H                    -2.10824  -1.65197   0.40334 
 H                    -4.30591   2.60911  -0.95355 
 C                    -5.01102  -1.70522   0.42978 
 C                    -6.31491  -0.94163   0.19669 
 C                    -7.62391  -1.38318   0.3531 
 C                    -8.6784   -0.50296   0.08175 
 C                    -8.42139   0.80541  -0.34166 
 C                    -7.1091    1.25543  -0.5009 
 C                    -6.05737   0.37695  -0.23066 
 H                    -7.83509  -2.39808   0.68234 
 H                    -9.70499  -0.83893   0.20136 
 H                    -9.2502    1.47734  -0.54828 
 H                    -6.91421   2.27303  -0.82994 
 C                    -4.87345  -2.14582   1.90459 
 H                    -5.66193  -2.85955   2.17027 
 H                    -3.90685  -2.6342    2.07473 
 H                    -4.94654  -1.28807   2.58062 
 C                    -4.90395  -2.93496  -0.49962 
 H                    -3.93825  -3.43701  -0.36795 
 H                    -5.6931   -3.66141  -0.2734 
 H                    -4.99819  -2.64437  -1.55083 
 C                    -0.3266    0.25076  -0.29718 
 C                     0.5618    1.31728   0.08692 
 C                     0.29685  -0.92087  -0.68218 
 C                     2.01063   1.14113   0.06218 
 C                     1.70739  -1.09191  -0.70634 
 H                    -0.31617  -1.75125  -1.01973 
 C                     2.60447  -0.10485  -0.34686 
 H                     2.09278  -2.04338  -1.06061 
 N                     0.18514   2.52621   0.51989 
 N                     2.68058   2.22307   0.47675 
 S                     1.5587    3.35942   0.85873 
 C                     4.06691  -0.33176  -0.37637 
 C                     4.97177   0.6724   -0.76291 
 C                     4.59257  -1.59367  -0.04558 
 C                     6.33845   0.41378  -0.82591 
 H                     4.60057   1.65686  -1.02192 
 C                     5.96046  -1.84282  -0.10778 
 H                     3.92282  -2.3818    0.28715 
 C                     6.86199  -0.84468  -0.5009 
 H                     7.01344   1.20664  -1.14169 
 H                     6.33657  -2.82831   0.15869 
 C                     8.35077  -1.10594  -0.52408 
 H                     8.55692  -2.15344  -0.7719 
 H                     8.82176  -0.4961   -1.3078 
 C                     9.02992  -0.7933    0.82109 
 H                     8.81369   0.25527   1.09479 
 H                     8.57745  -1.41786   1.60108 
 N                     10.45827  -1.11993   0.75581 
 H                     10.92674  -0.47468   0.12 
 H                     10.8867  -0.97225   1.66832 
 
 ITRead=  0  0  0  0  0  0  0  0  0  0  0  0  0  0  0  0  0  0  0  0
 ITRead=  0  0  0  0  0  0  0  0  0  0  0  0  0  0  0  0  0  0  0  0
 ITRead=  0  0  0  0  0  0  0  0  0  0  0  0  0  0  0  0  0  0
 MicOpt= -1 -1 -1 -1 -1 -1 -1 -1 -1 -1 -1 -1 -1 -1 -1 -1 -1 -1 -1 -1
 MicOpt= -1 -1 -1 -1 -1 -1 -1 -1 -1 -1 -1 -1 -1 -1 -1 -1 -1 -1 -1 -1
 MicOpt= -1 -1 -1 -1 -1 -1 -1 -1 -1 -1 -1 -1 -1 -1 -1 -1 -1 -1
 NAtoms=     58 NQM=       58 NQMF=       0 NMMI=      0 NMMIF=      0
                NMic=       0 NMicF=      0.
                    Isotopes and Nuclear Properties:
 (Nuclear quadrupole moments (NQMom) in fm**2, nuclear magnetic moments (NMagM)
  in nuclear magnetons)

  Atom         1           2           3           4           5           6           7           8           9          10
 IAtWgt=          12          12          12          12          12          12           1           1           1          12
 AtmWgt=  12.0000000  12.0000000  12.0000000  12.0000000  12.0000000  12.0000000   1.0078250   1.0078250   1.0078250  12.0000000
 NucSpn=           0           0           0           0           0           0           1           1           1           0
 AtZEff=  -0.0000000  -0.0000000  -0.0000000  -0.0000000  -0.0000000  -0.0000000  -0.0000000  -0.0000000  -0.0000000  -0.0000000
 NQMom=    0.0000000   0.0000000   0.0000000   0.0000000   0.0000000   0.0000000   0.0000000   0.0000000   0.0000000   0.0000000
 NMagM=    0.0000000   0.0000000   0.0000000   0.0000000   0.0000000   0.0000000   2.7928460   2.7928460   2.7928460   0.0000000
 AtZNuc=   6.0000000   6.0000000   6.0000000   6.0000000   6.0000000   6.0000000   1.0000000   1.0000000   1.0000000   6.0000000

  Atom        11          12          13          14          15          16          17          18          19          20
 IAtWgt=          12          12          12          12          12          12           1           1           1           1
 AtmWgt=  12.0000000  12.0000000  12.0000000  12.0000000  12.0000000  12.0000000   1.0078250   1.0078250   1.0078250   1.0078250
 NucSpn=           0           0           0           0           0           0           1           1           1           1
 AtZEff=  -0.0000000  -0.0000000  -0.0000000  -0.0000000  -0.0000000  -0.0000000  -0.0000000  -0.0000000  -0.0000000  -0.0000000
 NQMom=    0.0000000   0.0000000   0.0000000   0.0000000   0.0000000   0.0000000   0.0000000   0.0000000   0.0000000   0.0000000
 NMagM=    0.0000000   0.0000000   0.0000000   0.0000000   0.0000000   0.0000000   2.7928460   2.7928460   2.7928460   2.7928460
 AtZNuc=   6.0000000   6.0000000   6.0000000   6.0000000   6.0000000   6.0000000   1.0000000   1.0000000   1.0000000   1.0000000

  Atom        21          22          23          24          25          26          27          28          29          30
 IAtWgt=          12           1           1           1          12           1           1           1          12          12
 AtmWgt=  12.0000000   1.0078250   1.0078250   1.0078250  12.0000000   1.0078250   1.0078250   1.0078250  12.0000000  12.0000000
 NucSpn=           0           1           1           1           0           1           1           1           0           0
 AtZEff=  -0.0000000  -0.0000000  -0.0000000  -0.0000000  -0.0000000  -0.0000000  -0.0000000  -0.0000000  -0.0000000  -0.0000000
 NQMom=    0.0000000   0.0000000   0.0000000   0.0000000   0.0000000   0.0000000   0.0000000   0.0000000   0.0000000   0.0000000
 NMagM=    0.0000000   2.7928460   2.7928460   2.7928460   0.0000000   2.7928460   2.7928460   2.7928460   0.0000000   0.0000000
 AtZNuc=   6.0000000   1.0000000   1.0000000   1.0000000   6.0000000   1.0000000   1.0000000   1.0000000   6.0000000   6.0000000

  Atom        31          32          33          34          35          36          37          38          39          40
 IAtWgt=          12          12          12           1          12           1          14          14          32          12
 AtmWgt=  12.0000000  12.0000000  12.0000000   1.0078250  12.0000000   1.0078250  14.0030740  14.0030740  31.9720718  12.0000000
 NucSpn=           0           0           0           1           0           1           2           2           0           0
 AtZEff=  -0.0000000  -0.0000000  -0.0000000  -0.0000000  -0.0000000  -0.0000000  -0.0000000  -0.0000000  -0.0000000  -0.0000000
 NQMom=    0.0000000   0.0000000   0.0000000   0.0000000   0.0000000   0.0000000   2.0440000   2.0440000   0.0000000   0.0000000
 NMagM=    0.0000000   0.0000000   0.0000000   2.7928460   0.0000000   2.7928460   0.4037610   0.4037610   0.0000000   0.0000000
 AtZNuc=   6.0000000   6.0000000   6.0000000   1.0000000   6.0000000   1.0000000   7.0000000   7.0000000  16.0000000   6.0000000

  Atom        41          42          43          44          45          46          47          48          49          50
 IAtWgt=          12          12          12           1          12           1          12           1           1          12
 AtmWgt=  12.0000000  12.0000000  12.0000000   1.0078250  12.0000000   1.0078250  12.0000000   1.0078250   1.0078250  12.0000000
 NucSpn=           0           0           0           1           0           1           0           1           1           0
 AtZEff=  -0.0000000  -0.0000000  -0.0000000  -0.0000000  -0.0000000  -0.0000000  -0.0000000  -0.0000000  -0.0000000  -0.0000000
 NQMom=    0.0000000   0.0000000   0.0000000   0.0000000   0.0000000   0.0000000   0.0000000   0.0000000   0.0000000   0.0000000
 NMagM=    0.0000000   0.0000000   0.0000000   2.7928460   0.0000000   2.7928460   0.0000000   2.7928460   2.7928460   0.0000000
 AtZNuc=   6.0000000   6.0000000   6.0000000   1.0000000   6.0000000   1.0000000   6.0000000   1.0000000   1.0000000   6.0000000

  Atom        51          52          53          54          55          56          57          58
 IAtWgt=           1           1          12           1           1          14           1           1
 AtmWgt=   1.0078250   1.0078250  12.0000000   1.0078250   1.0078250  14.0030740   1.0078250   1.0078250
 NucSpn=           1           1           0           1           1           2           1           1
 AtZEff=  -0.0000000  -0.0000000  -0.0000000  -0.0000000  -0.0000000  -0.0000000  -0.0000000  -0.0000000
 NQMom=    0.0000000   0.0000000   0.0000000   0.0000000   0.0000000   2.0440000   0.0000000   0.0000000
 NMagM=    2.7928460   2.7928460   0.0000000   2.7928460   2.7928460   0.4037610   2.7928460   2.7928460
 AtZNuc=   1.0000000   1.0000000   6.0000000   1.0000000   1.0000000   7.0000000   1.0000000   1.0000000
 Leave Link  101 at Thu Mar 14 09:19:51 2024, MaxMem= 32212254720 cpu:              15.3 elap:               0.5
 (Enter /home/<user>/g16/l103.exe)

 GradGradGradGradGradGradGradGradGradGradGradGradGradGradGradGradGradGrad
 Berny optimization.
 Initialization pass.
                           ----------------------------
                           !    Initial Parameters    !
                           ! (Angstroms and Degrees)  !
 --------------------------                            --------------------------
 ! Name  Definition              Value          Derivative Info.                !
 --------------------------------------------------------------------------------
 ! R1    R(1,2)                  1.4092         estimate D2E/DX2                !
 ! R2    R(1,6)                  1.3932         estimate D2E/DX2                !
 ! R3    R(1,7)                  1.0832         estimate D2E/DX2                !
 ! R4    R(2,3)                  1.4114         estimate D2E/DX2                !
 ! R5    R(2,29)                 1.4798         estimate D2E/DX2                !
 ! R6    R(3,4)                  1.3862         estimate D2E/DX2                !
 ! R7    R(3,8)                  1.0871         estimate D2E/DX2                !
 ! R8    R(4,5)                  1.4088         estimate D2E/DX2                !
 ! R9    R(4,10)                 1.5291         estimate D2E/DX2                !
 ! R10   R(5,6)                  1.3961         estimate D2E/DX2                !
 ! R11   R(5,16)                 1.4665         estimate D2E/DX2                !
 ! R12   R(6,9)                  1.087          estimate D2E/DX2                !
 ! R13   R(10,11)                1.5289         estimate D2E/DX2                !
 ! R14   R(10,21)                1.5454         estimate D2E/DX2                !
 ! R15   R(10,25)                1.5452         estimate D2E/DX2                !
 ! R16   R(11,12)                1.3903         estimate D2E/DX2                !
 ! R17   R(11,16)                1.4098         estimate D2E/DX2                !
 ! R18   R(12,13)                1.4001         estimate D2E/DX2                !
 ! R19   R(12,17)                1.0877         estimate D2E/DX2                !
 ! R20   R(13,14)                1.399          estimate D2E/DX2                !
 ! R21   R(13,18)                1.0868         estimate D2E/DX2                !
 ! R22   R(14,15)                1.3964         estimate D2E/DX2                !
 ! R23   R(14,19)                1.0868         estimate D2E/DX2                !
 ! R24   R(15,16)                1.3967         estimate D2E/DX2                !
 ! R25   R(15,20)                1.0871         estimate D2E/DX2                !
 ! R26   R(21,22)                1.0962         estimate D2E/DX2                !
 ! R27   R(21,23)                1.0963         estimate D2E/DX2                !
 ! R28   R(21,24)                1.0946         estimate D2E/DX2                !
 ! R29   R(25,26)                1.0963         estimate D2E/DX2                !
 ! R30   R(25,27)                1.0962         estimate D2E/DX2                !
 ! R31   R(25,28)                1.0947         estimate D2E/DX2                !
 ! R32   R(29,30)                1.4402         estimate D2E/DX2                !
 ! R33   R(29,31)                1.3819         estimate D2E/DX2                !
 ! R34   R(30,32)                1.4597         estimate D2E/DX2                !
 ! R35   R(30,37)                1.3382         estimate D2E/DX2                !
 ! R36   R(31,33)                1.4211         estimate D2E/DX2                !
 ! R37   R(31,34)                1.0859         estimate D2E/DX2                !
 ! R38   R(32,35)                1.4396         estimate D2E/DX2                !
 ! R39   R(32,38)                1.3384         estimate D2E/DX2                !
 ! R40   R(33,35)                1.3814         estimate D2E/DX2                !
 ! R41   R(33,36)                1.086          estimate D2E/DX2                !
 ! R42   R(35,40)                1.4802         estimate D2E/DX2                !
 ! R43   R(37,39)                1.6419         estimate D2E/DX2                !
 ! R44   R(38,39)                1.6419         estimate D2E/DX2                !
 ! R45   R(40,41)                1.4059         estimate D2E/DX2                !
 ! R46   R(40,42)                1.4065         estimate D2E/DX2                !
 ! R47   R(41,43)                1.3924         estimate D2E/DX2                !
 ! R48   R(41,44)                1.0835         estimate D2E/DX2                !
 ! R49   R(42,45)                1.3918         estimate D2E/DX2                !
 ! R50   R(42,46)                1.0865         estimate D2E/DX2                !
 ! R51   R(43,47)                1.4012         estimate D2E/DX2                !
 ! R52   R(43,48)                1.0881         estimate D2E/DX2                !
 ! R53   R(45,47)                1.4013         estimate D2E/DX2                !
 ! R54   R(45,49)                1.088          estimate D2E/DX2                !
 ! R55   R(47,50)                1.5117         estimate D2E/DX2                !
 ! R56   R(50,51)                1.096          estimate D2E/DX2                !
 ! R57   R(50,52)                1.0991         estimate D2E/DX2                !
 ! R58   R(50,53)                1.539          estimate D2E/DX2                !
 ! R59   R(53,54)                1.1051         estimate D2E/DX2                !
 ! R60   R(53,55)                1.0969         estimate D2E/DX2                !
 ! R61   R(53,56)                1.4667         estimate D2E/DX2                !
 ! R62   R(56,57)                1.0198         estimate D2E/DX2                !
 ! R63   R(56,58)                1.0188         estimate D2E/DX2                !
 ! A1    A(2,1,6)              121.2868         estimate D2E/DX2                !
 ! A2    A(2,1,7)              119.241          estimate D2E/DX2                !
 ! A3    A(6,1,7)              119.4719         estimate D2E/DX2                !
 ! A4    A(1,2,3)              118.6118         estimate D2E/DX2                !
 ! A5    A(1,2,29)             121.6822         estimate D2E/DX2                !
 ! A6    A(3,2,29)             119.6882         estimate D2E/DX2                !
 ! A7    A(2,3,4)              120.2635         estimate D2E/DX2                !
 ! A8    A(2,3,8)              119.3396         estimate D2E/DX2                !
 ! A9    A(4,3,8)              120.3727         estimate D2E/DX2                !
 ! A10   A(3,4,5)              120.4023         estimate D2E/DX2                !
 ! A11   A(3,4,10)             128.7053         estimate D2E/DX2                !
 ! A12   A(5,4,10)             110.8896         estimate D2E/DX2                !
 ! A13   A(4,5,6)              120.0316         estimate D2E/DX2                !
 ! A14   A(4,5,16)             108.5981         estimate D2E/DX2                !
 ! A15   A(6,5,16)             131.3685         estimate D2E/DX2                !
 ! A16   A(1,6,5)              119.4009         estimate D2E/DX2                !
 ! A17   A(1,6,9)              119.7272         estimate D2E/DX2                !
 ! A18   A(5,6,9)              120.8718         estimate D2E/DX2                !
 ! A19   A(4,10,11)            101.1241         estimate D2E/DX2                !
 ! A20   A(4,10,21)            111.3808         estimate D2E/DX2                !
 ! A21   A(4,10,25)            111.4299         estimate D2E/DX2                !
 ! A22   A(11,10,21)           111.3347         estimate D2E/DX2                !
 ! A23   A(11,10,25)           111.4002         estimate D2E/DX2                !
 ! A24   A(21,10,25)           109.9349         estimate D2E/DX2                !
 ! A25   A(10,11,12)           128.8435         estimate D2E/DX2                !
 ! A26   A(10,11,16)           110.9487         estimate D2E/DX2                !
 ! A27   A(12,11,16)           120.2078         estimate D2E/DX2                !
 ! A28   A(11,12,13)           119.185          estimate D2E/DX2                !
 ! A29   A(11,12,17)           120.8776         estimate D2E/DX2                !
 ! A30   A(13,12,17)           119.9373         estimate D2E/DX2                !
 ! A31   A(12,13,14)           120.5472         estimate D2E/DX2                !
 ! A32   A(12,13,18)           119.7192         estimate D2E/DX2                !
 ! A33   A(14,13,18)           119.7336         estimate D2E/DX2                !
 ! A34   A(13,14,15)           120.5672         estimate D2E/DX2                !
 ! A35   A(13,14,19)           119.7133         estimate D2E/DX2                !
 ! A36   A(15,14,19)           119.7195         estimate D2E/DX2                !
 ! A37   A(14,15,16)           118.8733         estimate D2E/DX2                !
 ! A38   A(14,15,20)           120.3087         estimate D2E/DX2                !
 ! A39   A(16,15,20)           120.818          estimate D2E/DX2                !
 ! A40   A(5,16,11)            108.4379         estimate D2E/DX2                !
 ! A41   A(5,16,15)            130.9426         estimate D2E/DX2                !
 ! A42   A(11,16,15)           120.6195         estimate D2E/DX2                !
 ! A43   A(10,21,22)           110.6649         estimate D2E/DX2                !
 ! A44   A(10,21,23)           110.7091         estimate D2E/DX2                !
 ! A45   A(10,21,24)           111.1032         estimate D2E/DX2                !
 ! A46   A(22,21,23)           107.8508         estimate D2E/DX2                !
 ! A47   A(22,21,24)           108.2097         estimate D2E/DX2                !
 ! A48   A(23,21,24)           108.1878         estimate D2E/DX2                !
 ! A49   A(10,25,26)           110.6864         estimate D2E/DX2                !
 ! A50   A(10,25,27)           110.6954         estimate D2E/DX2                !
 ! A51   A(10,25,28)           111.123          estimate D2E/DX2                !
 ! A52   A(26,25,27)           107.8094         estimate D2E/DX2                !
 ! A53   A(26,25,28)           108.223          estimate D2E/DX2                !
 ! A54   A(27,25,28)           108.1866         estimate D2E/DX2                !
 ! A55   A(2,29,30)            123.1726         estimate D2E/DX2                !
 ! A56   A(2,29,31)            121.747          estimate D2E/DX2                !
 ! A57   A(30,29,31)           115.0785         estimate D2E/DX2                !
 ! A58   A(29,30,32)           121.2228         estimate D2E/DX2                !
 ! A59   A(29,30,37)           125.5659         estimate D2E/DX2                !
 ! A60   A(32,30,37)           113.1954         estimate D2E/DX2                !
 ! A61   A(29,31,33)           123.6823         estimate D2E/DX2                !
 ! A62   A(29,31,34)           118.7014         estimate D2E/DX2                !
 ! A63   A(33,31,34)           117.5807         estimate D2E/DX2                !
 ! A64   A(30,32,35)           121.2448         estimate D2E/DX2                !
 ! A65   A(30,32,38)           113.2054         estimate D2E/DX2                !
 ! A66   A(35,32,38)           125.5344         estimate D2E/DX2                !
 ! A67   A(31,33,35)           123.6528         estimate D2E/DX2                !
 ! A68   A(31,33,36)           117.597          estimate D2E/DX2                !
 ! A69   A(35,33,36)           118.7163         estimate D2E/DX2                !
 ! A70   A(32,35,33)           115.1186         estimate D2E/DX2                !
 ! A71   A(32,35,40)           123.0857         estimate D2E/DX2                !
 ! A72   A(33,35,40)           121.7943         estimate D2E/DX2                !
 ! A73   A(30,37,39)           106.8427         estimate D2E/DX2                !
 ! A74   A(32,38,39)           106.8291         estimate D2E/DX2                !
 ! A75   A(37,39,38)            99.927          estimate D2E/DX2                !
 ! A76   A(35,40,41)           122.1323         estimate D2E/DX2                !
 ! A77   A(35,40,42)           120.1391         estimate D2E/DX2                !
 ! A78   A(41,40,42)           117.7073         estimate D2E/DX2                !
 ! A79   A(40,41,43)           120.7653         estimate D2E/DX2                !
 ! A80   A(40,41,44)           119.6151         estimate D2E/DX2                !
 ! A81   A(43,41,44)           119.618          estimate D2E/DX2                !
 ! A82   A(40,42,45)           121.1602         estimate D2E/DX2                !
 ! A83   A(40,42,46)           119.5034         estimate D2E/DX2                !
 ! A84   A(45,42,46)           119.3203         estimate D2E/DX2                !
 ! A85   A(41,43,47)           121.5378         estimate D2E/DX2                !
 ! A86   A(41,43,48)           119.1223         estimate D2E/DX2                !
 ! A87   A(47,43,48)           119.3385         estimate D2E/DX2                !
 ! A88   A(42,45,47)           121.154          estimate D2E/DX2                !
 ! A89   A(42,45,49)           119.405          estimate D2E/DX2                !
 ! A90   A(47,45,49)           119.4402         estimate D2E/DX2                !
 ! A91   A(43,47,45)           117.6728         estimate D2E/DX2                !
 ! A92   A(43,47,50)           121.3071         estimate D2E/DX2                !
 ! A93   A(45,47,50)           120.984          estimate D2E/DX2                !
 ! A94   A(47,50,51)           110.7255         estimate D2E/DX2                !
 ! A95   A(47,50,52)           109.6983         estimate D2E/DX2                !
 ! A96   A(47,50,53)           112.7116         estimate D2E/DX2                !
 ! A97   A(51,50,52)           106.7673         estimate D2E/DX2                !
 ! A98   A(51,50,53)           107.987          estimate D2E/DX2                !
 ! A99   A(52,50,53)           108.7501         estimate D2E/DX2                !
 ! A100  A(50,53,54)           108.8386         estimate D2E/DX2                !
 ! A101  A(50,53,55)           108.8946         estimate D2E/DX2                !
 ! A102  A(50,53,56)           110.2197         estimate D2E/DX2                !
 ! A103  A(54,53,55)           106.4654         estimate D2E/DX2                !
 ! A104  A(54,53,56)           114.3872         estimate D2E/DX2                !
 ! A105  A(55,53,56)           107.8526         estimate D2E/DX2                !
 ! A106  A(53,56,57)           109.5245         estimate D2E/DX2                !
 ! A107  A(53,56,58)           109.7172         estimate D2E/DX2                !
 ! A108  A(57,56,58)           105.8733         estimate D2E/DX2                !
 ! D1    D(6,1,2,3)             -0.6548         estimate D2E/DX2                !
 ! D2    D(6,1,2,29)           177.8063         estimate D2E/DX2                !
 ! D3    D(7,1,2,3)            179.5348         estimate D2E/DX2                !
 ! D4    D(7,1,2,29)            -2.004          estimate D2E/DX2                !
 ! D5    D(2,1,6,5)              0.3501         estimate D2E/DX2                !
 ! D6    D(2,1,6,9)           -179.5662         estimate D2E/DX2                !
 ! D7    D(7,1,6,5)           -179.84           estimate D2E/DX2                !
 ! D8    D(7,1,6,9)              0.2438         estimate D2E/DX2                !
 ! D9    D(1,2,3,4)              0.5036         estimate D2E/DX2                !
 ! D10   D(1,2,3,8)           -177.7142         estimate D2E/DX2                !
 ! D11   D(29,2,3,4)          -177.9891         estimate D2E/DX2                !
 ! D12   D(29,2,3,8)             3.7931         estimate D2E/DX2                !
 ! D13   D(1,2,29,30)           37.3343         estimate D2E/DX2                !
 ! D14   D(1,2,29,31)         -143.1958         estimate D2E/DX2                !
 ! D15   D(3,2,29,30)         -144.2207         estimate D2E/DX2                !
 ! D16   D(3,2,29,31)           35.2491         estimate D2E/DX2                !
 ! D17   D(2,3,4,5)             -0.0579         estimate D2E/DX2                !
 ! D18   D(2,3,4,10)          -179.3905         estimate D2E/DX2                !
 ! D19   D(8,3,4,5)            178.1414         estimate D2E/DX2                !
 ! D20   D(8,3,4,10)            -1.1912         estimate D2E/DX2                !
 ! D21   D(3,4,5,6)             -0.2562         estimate D2E/DX2                !
 ! D22   D(3,4,5,16)          -179.809          estimate D2E/DX2                !
 ! D23   D(10,4,5,6)           179.1863         estimate D2E/DX2                !
 ! D24   D(10,4,5,16)           -0.3665         estimate D2E/DX2                !
 ! D25   D(3,4,10,11)          179.7934         estimate D2E/DX2                !
 ! D26   D(3,4,10,21)           61.4231         estimate D2E/DX2                !
 ! D27   D(3,4,10,25)          -61.7391         estimate D2E/DX2                !
 ! D28   D(5,4,10,11)            0.4095         estimate D2E/DX2                !
 ! D29   D(5,4,10,21)         -117.9607         estimate D2E/DX2                !
 ! D30   D(5,4,10,25)          118.877          estimate D2E/DX2                !
 ! D31   D(4,5,6,1)              0.1108         estimate D2E/DX2                !
 ! D32   D(4,5,6,9)           -179.974          estimate D2E/DX2                !
 ! D33   D(16,5,6,1)           179.546          estimate D2E/DX2                !
 ! D34   D(16,5,6,9)            -0.5388         estimate D2E/DX2                !
 ! D35   D(4,5,16,11)            0.1542         estimate D2E/DX2                !
 ! D36   D(4,5,16,15)         -179.8343         estimate D2E/DX2                !
 ! D37   D(6,5,16,11)         -179.3299         estimate D2E/DX2                !
 ! D38   D(6,5,16,15)            0.6816         estimate D2E/DX2                !
 ! D39   D(4,10,11,12)         179.747          estimate D2E/DX2                !
 ! D40   D(4,10,11,16)          -0.3125         estimate D2E/DX2                !
 ! D41   D(21,10,11,12)        -61.8494         estimate D2E/DX2                !
 ! D42   D(21,10,11,16)        118.091          estimate D2E/DX2                !
 ! D43   D(25,10,11,12)         61.258          estimate D2E/DX2                !
 ! D44   D(25,10,11,16)       -118.8016         estimate D2E/DX2                !
 ! D45   D(4,10,21,22)         176.2195         estimate D2E/DX2                !
 ! D46   D(4,10,21,23)         -64.2533         estimate D2E/DX2                !
 ! D47   D(4,10,21,24)          55.984          estimate D2E/DX2                !
 ! D48   D(11,10,21,22)         64.1734         estimate D2E/DX2                !
 ! D49   D(11,10,21,23)       -176.2995         estimate D2E/DX2                !
 ! D50   D(11,10,21,24)        -56.0621         estimate D2E/DX2                !
 ! D51   D(25,10,21,22)        -59.7683         estimate D2E/DX2                !
 ! D52   D(25,10,21,23)         59.7588         estimate D2E/DX2                !
 ! D53   D(25,10,21,24)        179.9962         estimate D2E/DX2                !
 ! D54   D(4,10,25,26)          64.3077         estimate D2E/DX2                !
 ! D55   D(4,10,25,27)        -176.2118         estimate D2E/DX2                !
 ! D56   D(4,10,25,28)         -55.972          estimate D2E/DX2                !
 ! D57   D(11,10,25,26)        176.4205         estimate D2E/DX2                !
 ! D58   D(11,10,25,27)        -64.099          estimate D2E/DX2                !
 ! D59   D(11,10,25,28)         56.1408         estimate D2E/DX2                !
 ! D60   D(21,10,25,26)        -59.6759         estimate D2E/DX2                !
 ! D61   D(21,10,25,27)         59.8046         estimate D2E/DX2                !
 ! D62   D(21,10,25,28)       -179.9556         estimate D2E/DX2                !
 ! D63   D(10,11,12,13)        179.9088         estimate D2E/DX2                !
 ! D64   D(10,11,12,17)         -0.0545         estimate D2E/DX2                !
 ! D65   D(16,11,12,13)         -0.0268         estimate D2E/DX2                !
 ! D66   D(16,11,12,17)       -179.9901         estimate D2E/DX2                !
 ! D67   D(10,11,16,5)           0.1174         estimate D2E/DX2                !
 ! D68   D(10,11,16,15)       -179.8926         estimate D2E/DX2                !
 ! D69   D(12,11,16,5)        -179.9363         estimate D2E/DX2                !
 ! D70   D(12,11,16,15)          0.0537         estimate D2E/DX2                !
 ! D71   D(11,12,13,14)         -0.0026         estimate D2E/DX2                !
 ! D72   D(11,12,13,18)       -179.9841         estimate D2E/DX2                !
 ! D73   D(17,12,13,14)        179.961          estimate D2E/DX2                !
 ! D74   D(17,12,13,18)         -0.0205         estimate D2E/DX2                !
 ! D75   D(12,13,14,15)          0.0061         estimate D2E/DX2                !
 ! D76   D(12,13,14,19)       -179.9853         estimate D2E/DX2                !
 ! D77   D(18,13,14,15)        179.9876         estimate D2E/DX2                !
 ! D78   D(18,13,14,19)         -0.0038         estimate D2E/DX2                !
 ! D79   D(13,14,15,16)          0.02           estimate D2E/DX2                !
 ! D80   D(13,14,15,20)       -179.9874         estimate D2E/DX2                !
 ! D81   D(19,14,15,16)       -179.9887         estimate D2E/DX2                !
 ! D82   D(19,14,15,20)          0.004          estimate D2E/DX2                !
 ! D83   D(14,15,16,5)         179.9378         estimate D2E/DX2                !
 ! D84   D(14,15,16,11)         -0.0496         estimate D2E/DX2                !
 ! D85   D(20,15,16,5)          -0.0549         estimate D2E/DX2                !
 ! D86   D(20,15,16,11)        179.9578         estimate D2E/DX2                !
 ! D87   D(2,29,30,32)         179.4232         estimate D2E/DX2                !
 ! D88   D(2,29,30,37)           0.9746         estimate D2E/DX2                !
 ! D89   D(31,29,30,32)         -0.0791         estimate D2E/DX2                !
 ! D90   D(31,29,30,37)       -178.5276         estimate D2E/DX2                !
 ! D91   D(2,29,31,33)        -179.4397         estimate D2E/DX2                !
 ! D92   D(2,29,31,34)           2.7851         estimate D2E/DX2                !
 ! D93   D(30,29,31,33)          0.0704         estimate D2E/DX2                !
 ! D94   D(30,29,31,34)       -177.7049         estimate D2E/DX2                !
 ! D95   D(29,30,32,35)         -0.0054         estimate D2E/DX2                !
 ! D96   D(29,30,32,38)       -178.6544         estimate D2E/DX2                !
 ! D97   D(37,30,32,35)        178.6216         estimate D2E/DX2                !
 ! D98   D(37,30,32,38)         -0.0273         estimate D2E/DX2                !
 ! D99   D(29,30,37,39)        178.7105         estimate D2E/DX2                !
 ! D100  D(32,30,37,39)          0.1539         estimate D2E/DX2                !
 ! D101  D(29,31,33,35)          0.0289         estimate D2E/DX2                !
 ! D102  D(29,31,33,36)       -177.821          estimate D2E/DX2                !
 ! D103  D(34,31,33,35)        177.8274         estimate D2E/DX2                !
 ! D104  D(34,31,33,36)         -0.0225         estimate D2E/DX2                !
 ! D105  D(30,32,35,33)          0.0997         estimate D2E/DX2                !
 ! D106  D(30,32,35,40)       -179.4686         estimate D2E/DX2                !
 ! D107  D(38,32,35,33)        178.5737         estimate D2E/DX2                !
 ! D108  D(38,32,35,40)         -0.9945         estimate D2E/DX2                !
 ! D109  D(30,32,38,39)         -0.1141         estimate D2E/DX2                !
 ! D110  D(35,32,38,39)       -178.6946         estimate D2E/DX2                !
 ! D111  D(31,33,35,32)         -0.1132         estimate D2E/DX2                !
 ! D112  D(31,33,35,40)        179.4612         estimate D2E/DX2                !
 ! D113  D(36,33,35,32)        177.7141         estimate D2E/DX2                !
 ! D114  D(36,33,35,40)         -2.7116         estimate D2E/DX2                !
 ! D115  D(32,35,40,41)        -37.2314         estimate D2E/DX2                !
 ! D116  D(32,35,40,42)        144.4877         estimate D2E/DX2                !
 ! D117  D(33,35,40,41)        143.2286         estimate D2E/DX2                !
 ! D118  D(33,35,40,42)        -35.0524         estimate D2E/DX2                !
 ! D119  D(30,37,39,38)         -0.199          estimate D2E/DX2                !
 ! D120  D(32,38,39,37)          0.1838         estimate D2E/DX2                !
 ! D121  D(35,40,41,43)       -177.707          estimate D2E/DX2                !
 ! D122  D(35,40,41,44)          1.8345         estimate D2E/DX2                !
 ! D123  D(42,40,41,43)          0.6138         estimate D2E/DX2                !
 ! D124  D(42,40,41,44)       -179.8447         estimate D2E/DX2                !
 ! D125  D(35,40,42,45)        177.9115         estimate D2E/DX2                !
 ! D126  D(35,40,42,46)         -3.5585         estimate D2E/DX2                !
 ! D127  D(41,40,42,45)         -0.4442         estimate D2E/DX2                !
 ! D128  D(41,40,42,46)        178.0858         estimate D2E/DX2                !
 ! D129  D(40,41,43,47)         -0.4117         estimate D2E/DX2                !
 ! D130  D(40,41,43,48)        179.1605         estimate D2E/DX2                !
 ! D131  D(44,41,43,47)       -179.9532         estimate D2E/DX2                !
 ! D132  D(44,41,43,48)         -0.381          estimate D2E/DX2                !
 ! D133  D(40,42,45,47)          0.0634         estimate D2E/DX2                !
 ! D134  D(40,42,45,49)        179.7307         estimate D2E/DX2                !
 ! D135  D(46,42,45,47)       -178.4692         estimate D2E/DX2                !
 ! D136  D(46,42,45,49)          1.1981         estimate D2E/DX2                !
 ! D137  D(41,43,47,45)          0.0168         estimate D2E/DX2                !
 ! D138  D(41,43,47,50)       -177.8182         estimate D2E/DX2                !
 ! D139  D(48,43,47,45)       -179.5545         estimate D2E/DX2                !
 ! D140  D(48,43,47,50)          2.6105         estimate D2E/DX2                !
 ! D141  D(42,45,47,43)          0.1561         estimate D2E/DX2                !
 ! D142  D(42,45,47,50)        177.9984         estimate D2E/DX2                !
 ! D143  D(49,45,47,43)       -179.5111         estimate D2E/DX2                !
 ! D144  D(49,45,47,50)         -1.6688         estimate D2E/DX2                !
 ! D145  D(43,47,50,51)       -150.0404         estimate D2E/DX2                !
 ! D146  D(43,47,50,52)        -32.4542         estimate D2E/DX2                !
 ! D147  D(43,47,50,53)         88.8758         estimate D2E/DX2                !
 ! D148  D(45,47,50,51)         32.1961         estimate D2E/DX2                !
 ! D149  D(45,47,50,52)        149.7824         estimate D2E/DX2                !
 ! D150  D(45,47,50,53)        -88.8876         estimate D2E/DX2                !
 ! D151  D(47,50,53,54)        -56.2397         estimate D2E/DX2                !
 ! D152  D(47,50,53,55)         59.4382         estimate D2E/DX2                !
 ! D153  D(47,50,53,56)        177.5618         estimate D2E/DX2                !
 ! D154  D(51,50,53,54)       -178.8718         estimate D2E/DX2                !
 ! D155  D(51,50,53,55)        -63.1939         estimate D2E/DX2                !
 ! D156  D(51,50,53,56)         54.9297         estimate D2E/DX2                !
 ! D157  D(52,50,53,54)         65.6278         estimate D2E/DX2                !
 ! D158  D(52,50,53,55)       -178.6943         estimate D2E/DX2                !
 ! D159  D(52,50,53,56)        -60.5708         estimate D2E/DX2                !
 ! D160  D(50,53,56,57)         68.1479         estimate D2E/DX2                !
 ! D161  D(50,53,56,58)       -176.0441         estimate D2E/DX2                !
 ! D162  D(54,53,56,57)        -54.8629         estimate D2E/DX2                !
 ! D163  D(54,53,56,58)         60.9451         estimate D2E/DX2                !
 ! D164  D(55,53,56,57)       -173.0895         estimate D2E/DX2                !
 ! D165  D(55,53,56,58)        -57.2816         estimate D2E/DX2                !
 --------------------------------------------------------------------------------
 Trust Radius=3.00D-01 FncErr=1.00D-07 GrdErr=1.00D-06 EigMax=2.50D+02 EigMin=1.00D-04
 Number of steps in this run=    346 maximum allowed number of steps=    348.
 GradGradGradGradGradGradGradGradGradGradGradGradGradGradGradGradGradGrad

 Leave Link  103 at Thu Mar 14 09:19:51 2024, MaxMem= 32212254720 cpu:               0.3 elap:               0.0
 (Enter /home/<user>/g16/l202.exe)
 Stoichiometry    C29H25N3S(3)
 Framework group  C1[X(C29H25N3S)]
 Deg. of freedom   168
 Full point group                 C1      NOp   1
 Largest Abelian subgroup         C1      NOp   1
 Largest concise Abelian subgroup C1      NOp   1
                         Standard orientation:                         
 ---------------------------------------------------------------------
 Center     Atomic      Atomic             Coordinates (Angstroms)
 Number     Number       Type             X           Y           Z
 ---------------------------------------------------------------------
      1          6           0       -2.445420    1.576952   -0.640756
      2          6           0       -1.800770    0.377898   -0.276543
      3          6           0       -2.593188   -0.732829    0.084386
      4          6           0       -3.976156   -0.639371    0.067553
      5          6           0       -4.604884    0.564012   -0.308309
      6          6           0       -3.835098    1.673787   -0.661764
      7          1           0       -1.847013    2.438095   -0.912271
      8          1           0       -2.108244   -1.651967    0.403337
      9          1           0       -4.305906    2.609112   -0.953548
     10          6           0       -5.011020   -1.705216    0.429783
     11          6           0       -6.314910   -0.941629    0.196693
     12          6           0       -7.623913   -1.383182    0.353095
     13          6           0       -8.678397   -0.502959    0.081747
     14          6           0       -8.421388    0.805409   -0.341662
     15          6           0       -7.109101    1.255427   -0.500897
     16          6           0       -6.057367    0.376946   -0.230661
     17          1           0       -7.835091   -2.398082    0.682337
     18          1           0       -9.704987   -0.838925    0.201362
     19          1           0       -9.250200    1.477337   -0.548281
     20          1           0       -6.914211    2.273031   -0.829937
     21          6           0       -4.873450   -2.145823    1.904592
     22          1           0       -5.661933   -2.859551    2.170274
     23          1           0       -3.906850   -2.634198    2.074728
     24          1           0       -4.946541   -1.288068    2.580623
     25          6           0       -4.903949   -2.934957   -0.499622
     26          1           0       -3.938253   -3.437009   -0.367953
     27          1           0       -5.693098   -3.661406   -0.273395
     28          1           0       -4.998190   -2.644371   -1.550825
     29          6           0       -0.326596    0.250758   -0.297183
     30          6           0        0.561803    1.317276    0.086920
     31          6           0        0.296845   -0.920873   -0.682176
     32          6           0        2.010629    1.141126    0.062178
     33          6           0        1.707388   -1.091909   -0.706344
     34          1           0       -0.316167   -1.751252   -1.019726
     35          6           0        2.604471   -0.104847   -0.346857
     36          1           0        2.092779   -2.043380   -1.060607
     37          7           0        0.185135    2.526214    0.519893
     38          7           0        2.680579    2.223073    0.476747
     39         16           0        1.558695    3.359421    0.858730
     40          6           0        4.066915   -0.331759   -0.376367
     41          6           0        4.971773    0.672396   -0.762914
     42          6           0        4.592573   -1.593667   -0.045584
     43          6           0        6.338455    0.413776   -0.825905
     44          1           0        4.600567    1.656859   -1.021918
     45          6           0        5.960456   -1.842817   -0.107780
     46          1           0        3.922815   -2.381800    0.287153
     47          6           0        6.861990   -0.844676   -0.500902
     48          1           0        7.013438    1.206643   -1.141689
     49          1           0        6.336570   -2.828307    0.158693
     50          6           0        8.350770   -1.105944   -0.524079
     51          1           0        8.556915   -2.153440   -0.771898
     52          1           0        8.821757   -0.496101   -1.307801
     53          6           0        9.029919   -0.793298    0.821086
     54          1           0        8.813687    0.255269    1.094789
     55          1           0        8.577448   -1.417855    1.601077
     56          7           0       10.458266   -1.119926    0.755806
     57          1           0       10.926743   -0.474683    0.119996
     58          1           0       10.886698   -0.972254    1.668323
 ---------------------------------------------------------------------
 Rotational constants (GHZ):           0.3750593           0.0391474           0.0364047
 Leave Link  202 at Thu Mar 14 09:19:51 2024, MaxMem= 32212254720 cpu:               0.1 elap:               0.0
 (Enter /home/<user>/g16/l301.exe)
 Standard basis: 6-31G(d) (6D, 7F)
 Ernie: Thresh=  0.10000D-02 Tol=  0.10000D-05 Strict=F.
 There are   549 symmetry adapted cartesian basis functions of A   symmetry.
 There are   549 symmetry adapted basis functions of A   symmetry.
   549 basis functions,  1048 primitive gaussians,   549 cartesian basis functions
   119 alpha electrons      117 beta electrons
       nuclear repulsion energy      3077.1700958446 Hartrees.
 IExCor=  402 DFT=T Ex+Corr=B3LYP ExCW=0 ScaHFX=  0.200000
 ScaDFX=  0.800000  0.720000  1.000000  0.810000 ScalE2=  1.000000  1.000000
 IRadAn=      5 IRanWt=     -1 IRanGd=            0 ICorTp=0 IEmpDi=  4
 NAtoms=   58 NActive=   58 NUniq=   58 SFac= 1.00D+00 NAtFMM=   60 NAOKFM=F Big=F
 Integral buffers will be    131072 words long.
 Raffenetti 2 integral format.
 Two-electron integral symmetry is turned on.
 Leave Link  301 at Thu Mar 14 09:19:51 2024, MaxMem= 32212254720 cpu:               0.8 elap:               0.0
 (Enter /home/<user>/g16/l302.exe)
 NPDir=0 NMtPBC=     1 NCelOv=     1 NCel=       1 NClECP=     1 NCelD=      1
         NCelK=      1 NCelE2=     1 NClLst=     1 CellRange=     0.0.
 One-electron integrals computed using PRISM.
 One-electron integral symmetry used in STVInt
 NBasis=   549 RedAO= T EigKep=  2.62D-04  NBF=   549
 NBsUse=   549 1.00D-06 EigRej= -1.00D+00 NBFU=   549
 Precomputing XC quadrature grid using
 IXCGrd= 4 IRadAn=           5 IRanWt=          -1 IRanGd=           0 AccXCQ= 0.00D+00.
 Generated NRdTot=       0 NPtTot=           0 NUsed=           0 NTot=          32
 NSgBfM=   513   513   513   513   513 MxSgAt=    58 MxSgA2=    58.
 Leave Link  302 at Thu Mar 14 09:19:51 2024, MaxMem= 32212254720 cpu:              12.4 elap:               0.4
 (Enter /home/<user>/g16/l303.exe)
 DipDrv:  MaxL=1.
 Leave Link  303 at Thu Mar 14 09:19:51 2024, MaxMem= 32212254720 cpu:               1.4 elap:               0.1
 (Enter /home/<user>/g16/l401.exe)
 ExpMin= 1.17D-01 ExpMax= 2.19D+04 ExpMxC= 3.30D+03 IAcc=3 IRadAn=         5 AccDes= 0.00D+00
 Harris functional with IExCor=  402 and IRadAn=       5 diagonalized for initial guess.
 HarFok:  IExCor=  402 AccDes= 0.00D+00 IRadAn=         5 IDoV= 1 UseB2=F ITyADJ=14
 ICtDFT=  3500011 ScaDFX=  1.000000  1.000000  1.000000  1.000000
 FoFCou: FMM=F IPFlag=           0 FMFlag=      100000 FMFlg1=           0
         NFxFlg=           0 DoJE=T BraDBF=F KetDBF=T FulRan=T
         wScrn=  0.000000 ICntrl=       500 IOpCl=  0 I1Cent=   200000004 NGrid=           0
         NMat0=    1 NMatS0=      1 NMatT0=    0 NMatD0=    1 NMtDS0=    0 NMtDT0=    0
 Petite list used in FoFCou.
 Harris En= -1682.49753534782    
 JPrj=0 DoOrth=F DoCkMO=F.
 Initial guess <Sx>= 0.0000 <Sy>= 0.0000 <Sz>= 1.0000 <S**2>= 2.0000 S= 1.0000
 Leave Link  401 at Thu Mar 14 09:19:52 2024, MaxMem= 32212254720 cpu:              30.9 elap:               1.0
 (Enter /home/<user>/g16/l502.exe)
 Integral symmetry usage will be decided dynamically.
 UHF open shell SCF:
 Using DIIS extrapolation, IDIIS=  1040.
 NGot= 32212254720 LenX= 32211628124 LenY= 32211326174
 Requested convergence on RMS density matrix=1.00D-08 within 128 cycles.
 Requested convergence on MAX density matrix=1.00D-06.
 Requested convergence on             energy=1.00D-06.
 No special actions if energy rises.
 Fock matrices will be formed incrementally for  20 cycles.
 Integral accuracy reduced to 1.0D-05 until final iterations.

 Cycle   1  Pass 0  IDiag  1:
 FoFJK:  IHMeth= 1 ICntrl=       0 DoSepK=F KAlg= 0 I1Cent=           0 FoldK=F
 IRaf= 550000000 NMat=       1 IRICut=       1 DoRegI=T DoRafI=F ISym2E= 0 IDoP0=0 IntGTp=1.
 FoFCou: FMM=F IPFlag=           0 FMFlag=      100000 FMFlg1=           0
         NFxFlg=           0 DoJE=F BraDBF=F KetDBF=F FulRan=T
         wScrn=  0.000000 ICntrl=         0 IOpCl=  1 I1Cent=           0 NGrid=           0
         NMat0=    1 NMatS0=      1 NMatT0=    0 NMatD0=    1 NMtDS0=    0 NMtDT0=    0
 Symmetry not used in FoFCou.
 E= -1681.44138552153    
 DIIS: error= 4.35D-02 at cycle   1 NSaved=   1.
 NSaved= 1 IEnMin= 1 EnMin= -1681.44138552153     IErMin= 1 ErrMin= 4.35D-02
 ErrMax= 4.35D-02  0.00D+00 EMaxC= 1.00D-01 BMatC= 3.44D+00 BMatP= 3.44D+00
 IDIUse=3 WtCom= 5.65D-01 WtEn= 4.35D-01
 Coeff-Com:  0.100D+01
 Coeff-En:   0.100D+01
 Coeff:      0.100D+01
 Gap=     0.072 Goal=   None    Shift=    0.000
 Gap=    -0.203 Goal=   None    Shift=    0.000
 GapD=   -0.203 DampG=0.250 DampE=0.500 DampFc=0.2500 IDamp=-1.
 Damping current iteration by 2.50D-01
 RMSDP=1.34D-02 MaxDP=2.15D+00              OVMax= 8.78D-01

 Cycle   2  Pass 0  IDiag  1:
 RMSU=  3.34D-03    CP:  9.88D-01
 E= -1681.41613651151     Delta-E=        0.025249010018 Rises=F Damp=T
 DIIS: error= 1.66D-02 at cycle   2 NSaved=   2.
 NSaved= 2 IEnMin= 1 EnMin= -1681.44138552153     IErMin= 2 ErrMin= 1.66D-02
 ErrMax= 1.66D-02  0.00D+00 EMaxC= 1.00D-01 BMatC= 9.21D-01 BMatP= 3.44D+00
 IDIUse=3 WtCom= 8.34D-01 WtEn= 1.66D-01
 Coeff-Com: -0.146D+00 0.115D+01
 Coeff-En:   0.516D+00 0.484D+00
 Coeff:     -0.358D-01 0.104D+01
 Gap=    -0.027 Goal=   None    Shift=    0.000
 Gap=    -0.072 Goal=   None    Shift=    0.000
 RMSDP=5.85D-03 MaxDP=5.28D-01 DE= 2.52D-02 OVMax= 9.99D-01

 Cycle   3  Pass 0  IDiag  1:
 RMSU=  4.97D-03    CP:  9.24D-01  1.24D-01
 E= -1673.74225434147     Delta-E=        7.673882170048 Rises=F Damp=F
 DIIS: error= 8.72D-02 at cycle   3 NSaved=   3.
 NSaved= 3 IEnMin= 1 EnMin= -1681.44138552153     IErMin= 2 ErrMin= 1.66D-02
 ErrMax= 8.72D-02  0.00D+00 EMaxC= 1.00D-01 BMatC= 1.47D+01 BMatP= 9.21D-01
 IDIUse=2 WtCom= 0.00D+00 WtEn= 1.00D+00
 Rare condition: small coef for last iteration:  0.000D+00
 Coeff-En:   0.410D+00 0.528D+00 0.622D-01
 Coeff:      0.410D+00 0.528D+00 0.622D-01
 Gap=     0.060 Goal=   None    Shift=    0.000
 Gap=     0.239 Goal=   None    Shift=    0.000
 RMSDP=5.04D-03 MaxDP=4.58D-01 DE= 7.67D+00 OVMax= 9.13D-01

 Cycle   4  Pass 0  IDiag  1:
 RMSU=  3.34D-03    CP:  9.42D-01  3.94D-01  2.64D-01
 E= -1681.96701869098     Delta-E=       -8.224764349512 Rises=F Damp=F
 DIIS: error= 2.40D-02 at cycle   4 NSaved=   4.
 NSaved= 4 IEnMin= 4 EnMin= -1681.96701869098     IErMin= 2 ErrMin= 1.66D-02
 ErrMax= 2.40D-02  0.00D+00 EMaxC= 1.00D-01 BMatC= 1.77D+00 BMatP= 9.21D-01
 IDIUse=2 WtCom= 0.00D+00 WtEn= 1.00D+00
 EnCoef did   100 forward-backward iterations
 Coeff-En:   0.353D+00 0.000D+00 0.243D-02 0.644D+00
 Coeff:      0.353D+00 0.000D+00 0.243D-02 0.644D+00
 Gap=     0.168 Goal=   None    Shift=    0.000
 Gap=     0.041 Goal=   None    Shift=    0.000
 RMSDP=2.70D-03 MaxDP=4.29D-01 DE=-8.22D+00 OVMax= 7.91D-01

 Cycle   5  Pass 0  IDiag  1:
 RMSU=  1.42D-03    CP:  9.55D-01  1.22D-01  1.96D-01  3.78D-01
 E= -1682.27076751397     Delta-E=       -0.303748822994 Rises=F Damp=F
 DIIS: error= 3.24D-02 at cycle   5 NSaved=   5.
 NSaved= 5 IEnMin= 5 EnMin= -1682.27076751397     IErMin= 2 ErrMin= 1.66D-02
 ErrMax= 3.24D-02  0.00D+00 EMaxC= 1.00D-01 BMatC= 5.11D-01 BMatP= 9.21D-01
 IDIUse=3 WtCom= 6.76D-01 WtEn= 3.24D-01
 Coeff-Com: -0.105D+00 0.356D+00 0.889D-02 0.203D+00 0.538D+00
 Coeff-En:   0.000D+00 0.000D+00 0.000D+00 0.335D+00 0.665D+00
 Coeff:     -0.712D-01 0.241D+00 0.602D-02 0.245D+00 0.579D+00
 Gap=     0.042 Goal=   None    Shift=    0.000
 Gap=    -0.016 Goal=   None    Shift=    0.000
 RMSDP=1.77D-03 MaxDP=2.67D-01 DE=-3.04D-01 OVMax= 8.88D-01

 Cycle   6  Pass 0  IDiag  1:
 RMSU=  9.94D-04    CP:  9.51D-01  2.30D-01  1.94D-01  6.64D-01  2.58D-01
 E= -1682.46682925602     Delta-E=       -0.196061742044 Rises=F Damp=F
 DIIS: error= 7.71D-03 at cycle   6 NSaved=   6.
 NSaved= 6 IEnMin= 6 EnMin= -1682.46682925602     IErMin= 6 ErrMin= 7.71D-03
 ErrMax= 7.71D-03  0.00D+00 EMaxC= 1.00D-01 BMatC= 1.83D-01 BMatP= 5.11D-01
 IDIUse=3 WtCom= 9.23D-01 WtEn= 7.71D-02
 Coeff-Com: -0.185D+00 0.265D+00 0.480D-02 0.183D-01 0.495D+00 0.401D+00
 Coeff-En:   0.000D+00 0.000D+00 0.000D+00 0.000D+00 0.191D+00 0.809D+00
 Coeff:     -0.170D+00 0.245D+00 0.443D-02 0.169D-01 0.472D+00 0.432D+00
 Gap=     0.047 Goal=   None    Shift=    0.000
 Gap=     0.033 Goal=   None    Shift=    0.000
 RMSDP=7.03D-04 MaxDP=6.21D-02 DE=-1.96D-01 OVMax= 2.62D-01

 Cycle   7  Pass 0  IDiag  1:
 RMSU=  5.09D-04    CP:  9.51D-01  1.99D-01  2.03D-01  6.00D-01  5.31D-01
                    CP:  8.29D-01
 E= -1682.51598114412     Delta-E=       -0.049151888106 Rises=F Damp=F
 DIIS: error= 3.83D-03 at cycle   7 NSaved=   7.
 NSaved= 7 IEnMin= 7 EnMin= -1682.51598114412     IErMin= 7 ErrMin= 3.83D-03
 ErrMax= 3.83D-03  0.00D+00 EMaxC= 1.00D-01 BMatC= 2.55D-02 BMatP= 1.83D-01
 IDIUse=3 WtCom= 9.62D-01 WtEn= 3.83D-02
 Coeff-Com: -0.132D+00 0.190D+00-0.189D-02-0.190D-01 0.272D+00 0.251D+00
 Coeff-Com:  0.440D+00
 Coeff-En:   0.000D+00 0.000D+00 0.000D+00 0.000D+00 0.000D+00 0.648D-01
 Coeff-En:   0.935D+00
 Coeff:     -0.127D+00 0.183D+00-0.182D-02-0.182D-01 0.262D+00 0.244D+00
 Coeff:      0.459D+00
 Gap=     0.057 Goal=   None    Shift=    0.000
 Gap=     0.047 Goal=   None    Shift=    0.000
 RMSDP=1.95D-04 MaxDP=1.48D-02 DE=-4.92D-02 OVMax= 4.56D-02

 Cycle   8  Pass 0  IDiag  1:
 RMSU=  1.76D-04    CP:  9.51D-01  1.99D-01  2.04D-01  5.98D-01  5.07D-01
                    CP:  8.88D-01  9.03D-01
 E= -1682.52216681356     Delta-E=       -0.006185669441 Rises=F Damp=F
 DIIS: error= 2.89D-03 at cycle   8 NSaved=   8.
 NSaved= 8 IEnMin= 8 EnMin= -1682.52216681356     IErMin= 8 ErrMin= 2.89D-03
 ErrMax= 2.89D-03  0.00D+00 EMaxC= 1.00D-01 BMatC= 8.05D-03 BMatP= 2.55D-02
 IDIUse=3 WtCom= 9.71D-01 WtEn= 2.89D-02
 Coeff-Com: -0.813D-01 0.128D+00-0.416D-02-0.136D-01 0.123D+00 0.832D-01
 Coeff-Com:  0.200D+00 0.564D+00
 Coeff-En:   0.000D+00 0.000D+00 0.000D+00 0.000D+00 0.000D+00 0.000D+00
 Coeff-En:   0.000D+00 0.100D+01
 Coeff:     -0.790D-01 0.125D+00-0.404D-02-0.132D-01 0.119D+00 0.808D-01
 Coeff:      0.194D+00 0.577D+00
 Gap=     0.065 Goal=   None    Shift=    0.000
 Gap=     0.063 Goal=   None    Shift=    0.000
 RMSDP=1.47D-04 MaxDP=1.06D-02 DE=-6.19D-03 OVMax= 4.85D-02

 Cycle   9  Pass 0  IDiag  1:
 RMSU=  1.38D-04    CP:  9.51D-01  2.01D-01  2.00D-01  6.03D-01  4.97D-01
                    CP:  8.84D-01  9.83D-01  9.55D-01
 E= -1682.52473797435     Delta-E=       -0.002571160784 Rises=F Damp=F
 DIIS: error= 2.00D-03 at cycle   9 NSaved=   9.
 NSaved= 9 IEnMin= 9 EnMin= -1682.52473797435     IErMin= 9 ErrMin= 2.00D-03
 ErrMax= 2.00D-03  0.00D+00 EMaxC= 1.00D-01 BMatC= 5.15D-03 BMatP= 8.05D-03
 IDIUse=3 WtCom= 9.80D-01 WtEn= 2.00D-02
 Coeff-Com: -0.340D-01 0.617D-01-0.732D-03 0.851D-02 0.385D-01 0.187D-01
 Coeff-Com: -0.235D+00 0.294D+00 0.848D+00
 Coeff-En:   0.000D+00 0.000D+00 0.000D+00 0.000D+00 0.000D+00 0.000D+00
 Coeff-En:   0.000D+00 0.000D+00 0.100D+01
 Coeff:     -0.334D-01 0.605D-01-0.717D-03 0.834D-02 0.377D-01 0.183D-01
 Coeff:     -0.230D+00 0.288D+00 0.851D+00
 Gap=     0.073 Goal=   None    Shift=    0.000
 Gap=     0.062 Goal=   None    Shift=    0.000
 RMSDP=1.57D-04 MaxDP=1.05D-02 DE=-2.57D-03 OVMax= 6.33D-02

 Cycle  10  Pass 0  IDiag  1:
 RMSU=  8.70D-05    CP:  9.50D-01  2.05D-01  2.01D-01  6.18D-01  4.60D-01
                    CP:  9.00D-01  9.11D-01  1.43D+00  1.40D+00
 E= -1682.52725328963     Delta-E=       -0.002515315281 Rises=F Damp=F
 DIIS: error= 6.50D-04 at cycle  10 NSaved=  10.
 NSaved=10 IEnMin=10 EnMin= -1682.52725328963     IErMin=10 ErrMin= 6.50D-04
 ErrMax= 6.50D-04  0.00D+00 EMaxC= 1.00D-01 BMatC= 1.54D-03 BMatP= 5.15D-03
 IDIUse=3 WtCom= 9.93D-01 WtEn= 6.50D-03
 Coeff-Com: -0.509D-02 0.107D-01 0.987D-03 0.106D-01 0.347D-02-0.113D-02
 Coeff-Com: -0.306D+00-0.112D+00 0.666D+00 0.733D+00
 Coeff-En:   0.000D+00 0.000D+00 0.000D+00 0.000D+00 0.000D+00 0.000D+00
 Coeff-En:   0.000D+00 0.000D+00 0.000D+00 0.100D+01
 Coeff:     -0.505D-02 0.106D-01 0.981D-03 0.106D-01 0.345D-02-0.112D-02
 Coeff:     -0.304D+00-0.111D+00 0.662D+00 0.735D+00
 Gap=     0.078 Goal=   None    Shift=    0.000
 Gap=     0.064 Goal=   None    Shift=    0.000
 RMSDP=1.06D-04 MaxDP=8.04D-03 DE=-2.52D-03 OVMax= 4.28D-02

 Cycle  11  Pass 0  IDiag  1:
 RMSU=  5.32D-05    CP:  9.50D-01  2.08D-01  2.01D-01  6.26D-01  4.34D-01
                    CP:  9.06D-01  8.78D-01  1.62D+00  1.89D+00  9.37D-01
 E= -1682.52796131955     Delta-E=       -0.000708029924 Rises=F Damp=F
 DIIS: error= 4.82D-04 at cycle  11 NSaved=  11.
 NSaved=11 IEnMin=11 EnMin= -1682.52796131955     IErMin=11 ErrMin= 4.82D-04
 ErrMax= 4.82D-04  0.00D+00 EMaxC= 1.00D-01 BMatC= 4.13D-04 BMatP= 1.54D-03
 IDIUse=3 WtCom= 9.95D-01 WtEn= 4.82D-03
 Coeff-Com:  0.511D-03-0.181D-02 0.365D-03 0.306D-02-0.771D-03-0.656D-02
 Coeff-Com: -0.140D+00-0.125D+00 0.272D+00 0.487D+00 0.511D+00
 Coeff-En:   0.000D+00 0.000D+00 0.000D+00 0.000D+00 0.000D+00 0.000D+00
 Coeff-En:   0.000D+00 0.000D+00 0.000D+00 0.000D+00 0.100D+01
 Coeff:      0.509D-03-0.180D-02 0.363D-03 0.304D-02-0.767D-03-0.653D-02
 Coeff:     -0.139D+00-0.124D+00 0.271D+00 0.484D+00 0.513D+00
 Gap=     0.080 Goal=   None    Shift=    0.000
 Gap=     0.064 Goal=   None    Shift=    0.000
 RMSDP=3.76D-05 MaxDP=2.39D-03 DE=-7.08D-04 OVMax= 1.11D-02

 Cycle  12  Pass 0  IDiag  1:
 RMSU=  2.78D-05    CP:  9.50D-01  2.09D-01  2.01D-01  6.27D-01  4.33D-01
                    CP:  9.09D-01  8.77D-01  1.68D+00  2.01D+00  1.10D+00
                    CP:  8.83D-01
 E= -1682.52810333681     Delta-E=       -0.000142017254 Rises=F Damp=F
 DIIS: error= 2.84D-04 at cycle  12 NSaved=  12.
 NSaved=12 IEnMin=12 EnMin= -1682.52810333681     IErMin=12 ErrMin= 2.84D-04
 ErrMax= 2.84D-04  0.00D+00 EMaxC= 1.00D-01 BMatC= 1.12D-04 BMatP= 4.13D-04
 IDIUse=3 WtCom= 9.97D-01 WtEn= 2.84D-03
 Coeff-Com: -0.637D-05-0.153D-02 0.269D-03-0.219D-02 0.680D-03-0.752D-02
 Coeff-Com:  0.213D-02-0.486D-01-0.141D-02 0.103D+00 0.326D+00 0.629D+00
 Coeff-En:   0.000D+00 0.000D+00 0.000D+00 0.000D+00 0.000D+00 0.000D+00
 Coeff-En:   0.000D+00 0.000D+00 0.000D+00 0.000D+00 0.000D+00 0.100D+01
 Coeff:     -0.635D-05-0.152D-02 0.268D-03-0.218D-02 0.678D-03-0.750D-02
 Coeff:      0.212D-02-0.485D-01-0.141D-02 0.102D+00 0.325D+00 0.631D+00
 Gap=     0.080 Goal=   None    Shift=    0.000
 Gap=     0.065 Goal=   None    Shift=    0.000
 RMSDP=2.14D-05 MaxDP=2.07D-03 DE=-1.42D-04 OVMax= 6.46D-03

 Cycle  13  Pass 0  IDiag  1:
 RMSU=  1.48D-05    CP:  9.50D-01  2.09D-01  2.02D-01  6.27D-01  4.33D-01
                    CP:  9.11D-01  8.74D-01  1.69D+00  2.05D+00  1.16D+00
                    CP:  1.12D+00  8.76D-01
 E= -1682.52815045062     Delta-E=       -0.000047113812 Rises=F Damp=F
 DIIS: error= 1.46D-04 at cycle  13 NSaved=  13.
 NSaved=13 IEnMin=13 EnMin= -1682.52815045062     IErMin=13 ErrMin= 1.46D-04
 ErrMax= 1.46D-04  0.00D+00 EMaxC= 1.00D-01 BMatC= 3.74D-05 BMatP= 1.12D-04
 IDIUse=3 WtCom= 9.99D-01 WtEn= 1.46D-03
 Coeff-Com:  0.260D-03-0.863D-03 0.137D-03-0.242D-02-0.787D-03-0.683D-02
 Coeff-Com:  0.397D-01 0.473D-02-0.621D-01-0.731D-01 0.471D-01 0.414D+00
 Coeff-Com:  0.640D+00
 Coeff-En:   0.000D+00 0.000D+00 0.000D+00 0.000D+00 0.000D+00 0.000D+00
 Coeff-En:   0.000D+00 0.000D+00 0.000D+00 0.000D+00 0.000D+00 0.000D+00
 Coeff-En:   0.100D+01
 Coeff:      0.260D-03-0.862D-03 0.137D-03-0.241D-02-0.786D-03-0.682D-02
 Coeff:      0.396D-01 0.472D-02-0.620D-01-0.730D-01 0.471D-01 0.414D+00
 Coeff:      0.640D+00
 Gap=     0.080 Goal=   None    Shift=    0.000
 Gap=     0.065 Goal=   None    Shift=    0.000
 RMSDP=1.27D-05 MaxDP=1.34D-03 DE=-4.71D-05 OVMax= 3.34D-03

 Cycle  14  Pass 0  IDiag  1:
 RMSU=  7.99D-06    CP:  9.50D-01  2.09D-01  2.02D-01  6.27D-01  4.33D-01
                    CP:  9.12D-01  8.74D-01  1.70D+00  2.08D+00  1.19D+00
                    CP:  1.21D+00  1.11D+00  1.03D+00
 E= -1682.52816935761     Delta-E=       -0.000018906989 Rises=F Damp=F
 DIIS: error= 8.13D-05 at cycle  14 NSaved=  14.
 NSaved=14 IEnMin=14 EnMin= -1682.52816935761     IErMin=14 ErrMin= 8.13D-05
 ErrMax= 8.13D-05  0.00D+00 EMaxC= 1.00D-01 BMatC= 9.37D-06 BMatP= 3.74D-05
 IDIUse=1 WtCom= 1.00D+00 WtEn= 0.00D+00
 Coeff-Com:  0.231D-04 0.318D-03 0.577D-04-0.757D-03-0.697D-03-0.271D-02
 Coeff-Com:  0.244D-01 0.228D-01-0.344D-01-0.914D-01-0.108D+00 0.264D-01
 Coeff-Com:  0.429D+00 0.736D+00
 Coeff:      0.231D-04 0.318D-03 0.577D-04-0.757D-03-0.697D-03-0.271D-02
 Coeff:      0.244D-01 0.228D-01-0.344D-01-0.914D-01-0.108D+00 0.264D-01
 Coeff:      0.429D+00 0.736D+00
 Gap=     0.080 Goal=   None    Shift=    0.000
 Gap=     0.065 Goal=   None    Shift=    0.000
 RMSDP=1.05D-05 MaxDP=1.14D-03 DE=-1.89D-05 OVMax= 3.72D-03

 Cycle  15  Pass 0  IDiag  1:
 RMSU=  4.86D-06    CP:  9.50D-01  2.09D-01  2.02D-01  6.27D-01  4.32D-01
                    CP:  9.13D-01  8.71D-01  1.70D+00  2.10D+00  1.21D+00
                    CP:  1.31D+00  1.23D+00  1.42D+00  1.07D+00
 E= -1682.52817662015     Delta-E=       -0.000007262542 Rises=F Damp=F
 DIIS: error= 2.83D-05 at cycle  15 NSaved=  15.
 NSaved=15 IEnMin=15 EnMin= -1682.52817662015     IErMin=15 ErrMin= 2.83D-05
 ErrMax= 2.83D-05  0.00D+00 EMaxC= 1.00D-01 BMatC= 2.42D-06 BMatP= 9.37D-06
 IDIUse=1 WtCom= 1.00D+00 WtEn= 0.00D+00
 Coeff-Com:  0.183D-03 0.596D-04-0.173D-04 0.107D-03-0.717D-03-0.426D-03
 Coeff-Com:  0.581D-02 0.120D-01-0.758D-02-0.395D-01-0.759D-01-0.701D-01
 Coeff-Com:  0.115D+00 0.449D+00 0.612D+00
 Coeff:      0.183D-03 0.596D-04-0.173D-04 0.107D-03-0.717D-03-0.426D-03
 Coeff:      0.581D-02 0.120D-01-0.758D-02-0.395D-01-0.759D-01-0.701D-01
 Coeff:      0.115D+00 0.449D+00 0.612D+00
 Gap=     0.080 Goal=   None    Shift=    0.000
 Gap=     0.065 Goal=   None    Shift=    0.000
 RMSDP=4.69D-06 MaxDP=4.94D-04 DE=-7.26D-06 OVMax= 1.45D-03

 Initial convergence to 1.0D-05 achieved.  Increase integral accuracy.
 Cycle  16  Pass 1  IDiag  1:
 E= -1682.52819509996     Delta-E=       -0.000018479814 Rises=F Damp=F
 DIIS: error= 1.02D-04 at cycle   1 NSaved=   1.
 NSaved= 1 IEnMin= 1 EnMin= -1682.52819509996     IErMin= 1 ErrMin= 1.02D-04
 ErrMax= 1.02D-04  0.00D+00 EMaxC= 1.00D-01 BMatC= 1.14D-05 BMatP= 1.14D-05
 IDIUse=3 WtCom= 9.99D-01 WtEn= 1.02D-03
 Coeff-Com:  0.100D+01
 Coeff-En:   0.100D+01
 Coeff:      0.100D+01
 Gap=     0.081 Goal=   None    Shift=    0.000
 Gap=     0.065 Goal=   None    Shift=    0.000
 RMSDP=4.69D-06 MaxDP=4.94D-04 DE=-1.85D-05 OVMax= 1.53D-03

 Cycle  17  Pass 1  IDiag  1:
 RMSU=  6.86D-05    CP:  1.00D+00
 E= -1682.52819742490     Delta-E=       -0.000002324933 Rises=F Damp=F
 DIIS: error= 3.33D-05 at cycle   2 NSaved=   2.
 NSaved= 2 IEnMin= 2 EnMin= -1682.52819742490     IErMin= 2 ErrMin= 3.33D-05
 ErrMax= 3.33D-05  0.00D+00 EMaxC= 1.00D-01 BMatC= 1.94D-06 BMatP= 1.14D-05
 IDIUse=1 WtCom= 1.00D+00 WtEn= 0.00D+00
 Coeff-Com:  0.175D+00 0.825D+00
 Coeff:      0.175D+00 0.825D+00
 Gap=     0.080 Goal=   None    Shift=    0.000
 Gap=     0.065 Goal=   None    Shift=    0.000
 RMSDP=4.81D-06 MaxDP=3.34D-04 DE=-2.32D-06 OVMax= 1.10D-03

 Cycle  18  Pass 1  IDiag  1:
 RMSU=  4.77D-06    CP:  1.00D+00  1.01D+00
 E= -1682.52819635372     Delta-E=        0.000001071174 Rises=F Damp=F
 DIIS: error= 4.47D-05 at cycle   3 NSaved=   3.
 NSaved= 3 IEnMin= 2 EnMin= -1682.52819742490     IErMin= 2 ErrMin= 3.33D-05
 ErrMax= 4.47D-05  0.00D+00 EMaxC= 1.00D-01 BMatC= 5.94D-06 BMatP= 1.94D-06
 IDIUse=1 WtCom= 1.00D+00 WtEn= 0.00D+00
 Coeff-Com: -0.205D-02 0.641D+00 0.361D+00
 Coeff:     -0.205D-02 0.641D+00 0.361D+00
 Gap=     0.081 Goal=   None    Shift=    0.000
 Gap=     0.065 Goal=   None    Shift=    0.000
 RMSDP=3.34D-06 MaxDP=2.91D-04 DE= 1.07D-06 OVMax= 1.16D-03

 Cycle  19  Pass 1  IDiag  1:
 RMSU=  1.28D-06    CP:  1.00D+00  1.01D+00  3.55D-01
 E= -1682.52819811108     Delta-E=       -0.000001757363 Rises=F Damp=F
 DIIS: error= 9.49D-06 at cycle   4 NSaved=   4.
 NSaved= 4 IEnMin= 4 EnMin= -1682.52819811108     IErMin= 4 ErrMin= 9.49D-06
 ErrMax= 9.49D-06  0.00D+00 EMaxC= 1.00D-01 BMatC= 1.58D-07 BMatP= 1.94D-06
 IDIUse=1 WtCom= 1.00D+00 WtEn= 0.00D+00
 Coeff-Com: -0.712D-02 0.382D+00 0.232D+00 0.393D+00
 Coeff:     -0.712D-02 0.382D+00 0.232D+00 0.393D+00
 Gap=     0.081 Goal=   None    Shift=    0.000
 Gap=     0.065 Goal=   None    Shift=    0.000
 RMSDP=5.44D-07 MaxDP=4.33D-05 DE=-1.76D-06 OVMax= 1.33D-04

 Cycle  20  Pass 1  IDiag  1:
 RMSU=  5.42D-07    CP:  1.00D+00  1.01D+00  3.55D-01  9.80D-01
 E= -1682.52819816623     Delta-E=       -0.000000055144 Rises=F Damp=F
 DIIS: error= 4.15D-06 at cycle   5 NSaved=   5.
 NSaved= 5 IEnMin= 5 EnMin= -1682.52819816623     IErMin= 5 ErrMin= 4.15D-06
 ErrMax= 4.15D-06  0.00D+00 EMaxC= 1.00D-01 BMatC= 2.12D-08 BMatP= 1.58D-07
 IDIUse=1 WtCom= 1.00D+00 WtEn= 0.00D+00
 Coeff-Com: -0.136D-02-0.151D+00-0.688D-01 0.118D+00 0.110D+01
 Coeff:     -0.136D-02-0.151D+00-0.688D-01 0.118D+00 0.110D+01
 Gap=     0.081 Goal=   None    Shift=    0.000
 Gap=     0.065 Goal=   None    Shift=    0.000
 RMSDP=8.20D-07 MaxDP=7.76D-05 DE=-5.51D-08 OVMax= 3.44D-04

 Cycle  21  Pass 1  IDiag  1:
 RMSU=  3.02D-07    CP:  1.00D+00  1.01D+00  3.39D-01  1.54D+00  1.47D+00
 E= -1682.52819820382     Delta-E=       -0.000000037595 Rises=F Damp=F
 DIIS: error= 3.25D-06 at cycle   6 NSaved=   6.
 NSaved= 6 IEnMin= 6 EnMin= -1682.52819820382     IErMin= 6 ErrMin= 3.25D-06
 ErrMax= 3.25D-06  0.00D+00 EMaxC= 1.00D-01 BMatC= 2.14D-08 BMatP= 2.12D-08
 IDIUse=1 WtCom= 1.00D+00 WtEn= 0.00D+00
 Coeff-Com:  0.325D-02-0.383D+00-0.204D+00-0.150D+00 0.102D+01 0.714D+00
 Coeff:      0.325D-02-0.383D+00-0.204D+00-0.150D+00 0.102D+01 0.714D+00
 Gap=     0.081 Goal=   None    Shift=    0.000
 Gap=     0.065 Goal=   None    Shift=    0.000
 RMSDP=7.13D-07 MaxDP=8.51D-05 DE=-3.76D-08 OVMax= 2.86D-04

 Cycle  22  Pass 1  IDiag  1:
 RMSU=  1.65D-07    CP:  1.00D+00  1.01D+00  3.37D-01  1.99D+00  2.16D+00
                    CP:  9.11D-01
 E= -1682.52819822285     Delta-E=       -0.000000019029 Rises=F Damp=F
 DIIS: error= 1.01D-06 at cycle   7 NSaved=   7.
 NSaved= 7 IEnMin= 7 EnMin= -1682.52819822285     IErMin= 7 ErrMin= 1.01D-06
 ErrMax= 1.01D-06  0.00D+00 EMaxC= 1.00D-01 BMatC= 3.04D-09 BMatP= 2.12D-08
 IDIUse=1 WtCom= 1.00D+00 WtEn= 0.00D+00
 Coeff-Com:  0.226D-02-0.227D+00-0.121D+00-0.114D+00 0.527D+00 0.458D+00
 Coeff-Com:  0.476D+00
 Coeff:      0.226D-02-0.227D+00-0.121D+00-0.114D+00 0.527D+00 0.458D+00
 Coeff:      0.476D+00
 Gap=     0.081 Goal=   None    Shift=    0.000
 Gap=     0.065 Goal=   None    Shift=    0.000
 RMSDP=1.27D-07 MaxDP=1.48D-05 DE=-1.90D-08 OVMax= 3.70D-05

 Cycle  23  Pass 1  IDiag  1:
 RMSU=  6.90D-08    CP:  1.00D+00  1.01D+00  3.39D-01  2.06D+00  2.24D+00
                    CP:  9.88D-01  8.42D-01
 E= -1682.52819822417     Delta-E=       -0.000000001319 Rises=F Damp=F
 DIIS: error= 2.73D-07 at cycle   8 NSaved=   8.
 NSaved= 8 IEnMin= 8 EnMin= -1682.52819822417     IErMin= 8 ErrMin= 2.73D-07
 ErrMax= 2.73D-07  0.00D+00 EMaxC= 1.00D-01 BMatC= 4.18D-10 BMatP= 3.04D-09
 IDIUse=1 WtCom= 1.00D+00 WtEn= 0.00D+00
 Coeff-Com:  0.641D-03-0.540D-01-0.282D-01-0.369D-01 0.109D+00 0.115D+00
 Coeff-Com:  0.257D+00 0.637D+00
 Coeff:      0.641D-03-0.540D-01-0.282D-01-0.369D-01 0.109D+00 0.115D+00
 Coeff:      0.257D+00 0.637D+00
 Gap=     0.081 Goal=   None    Shift=    0.000
 Gap=     0.065 Goal=   None    Shift=    0.000
 RMSDP=5.10D-08 MaxDP=4.60D-06 DE=-1.32D-09 OVMax= 1.65D-05

 Cycle  24  Pass 1  IDiag  1:
 RMSU=  3.62D-08    CP:  1.00D+00  1.01D+00  3.38D-01  2.08D+00  2.27D+00
                    CP:  1.01D+00  9.53D-01  9.47D-01
 E= -1682.52819822441     Delta-E=       -0.000000000243 Rises=F Damp=F
 DIIS: error= 2.30D-07 at cycle   9 NSaved=   9.
 NSaved= 9 IEnMin= 9 EnMin= -1682.52819822441     IErMin= 9 ErrMin= 2.30D-07
 ErrMax= 2.30D-07  0.00D+00 EMaxC= 1.00D-01 BMatC= 1.82D-10 BMatP= 4.18D-10
 IDIUse=1 WtCom= 1.00D+00 WtEn= 0.00D+00
 Coeff-Com: -0.606D-03 0.680D-01 0.369D-01 0.245D-01-0.165D+00-0.136D+00
 Coeff-Com: -0.587D-01 0.433D+00 0.797D+00
 Coeff:     -0.606D-03 0.680D-01 0.369D-01 0.245D-01-0.165D+00-0.136D+00
 Coeff:     -0.587D-01 0.433D+00 0.797D+00
 Gap=     0.081 Goal=   None    Shift=    0.000
 Gap=     0.065 Goal=   None    Shift=    0.000
 RMSDP=4.14D-08 MaxDP=2.71D-06 DE=-2.43D-10 OVMax= 9.75D-06

 Cycle  25  Pass 1  IDiag  1:
 RMSU=  2.77D-08    CP:  1.00D+00  1.01D+00  3.38D-01  2.09D+00  2.30D+00
                    CP:  1.04D+00  1.04D+00  1.22D+00  1.10D+00
 E= -1682.52819822461     Delta-E=       -0.000000000198 Rises=F Damp=F
 DIIS: error= 2.10D-07 at cycle  10 NSaved=  10.
 NSaved=10 IEnMin=10 EnMin= -1682.52819822461     IErMin=10 ErrMin= 2.10D-07
 ErrMax= 2.10D-07  0.00D+00 EMaxC= 1.00D-01 BMatC= 8.36D-11 BMatP= 1.82D-10
 IDIUse=1 WtCom= 1.00D+00 WtEn= 0.00D+00
 Coeff-Com: -0.674D-03 0.697D-01 0.373D-01 0.307D-01-0.161D+00-0.141D+00
 Coeff-Com: -0.128D+00 0.117D+00 0.587D+00 0.588D+00
 Coeff:     -0.674D-03 0.697D-01 0.373D-01 0.307D-01-0.161D+00-0.141D+00
 Coeff:     -0.128D+00 0.117D+00 0.587D+00 0.588D+00
 Gap=     0.081 Goal=   None    Shift=    0.000
 Gap=     0.065 Goal=   None    Shift=    0.000
 RMSDP=2.35D-08 MaxDP=1.77D-06 DE=-1.98D-10 OVMax= 5.97D-06

 Cycle  26  Pass 1  IDiag  1:
 RMSU=  1.39D-08    CP:  1.00D+00  1.01D+00  3.38D-01  2.09D+00  2.31D+00
                    CP:  1.05D+00  1.08D+00  1.34D+00  1.44D+00  1.07D+00
 E= -1682.52819822456     Delta-E=        0.000000000051 Rises=F Damp=F
 DIIS: error= 1.35D-07 at cycle  11 NSaved=  11.
 NSaved=11 IEnMin=10 EnMin= -1682.52819822461     IErMin=11 ErrMin= 1.35D-07
 ErrMax= 1.35D-07  0.00D+00 EMaxC= 1.00D-01 BMatC= 2.49D-11 BMatP= 8.36D-11
 IDIUse=1 WtCom= 1.00D+00 WtEn= 0.00D+00
 Coeff-Com: -0.238D-03 0.229D-01 0.118D-01 0.122D-01-0.505D-01-0.465D-01
 Coeff-Com: -0.662D-01-0.707D-01 0.135D+00 0.409D+00 0.643D+00
 Coeff:     -0.238D-03 0.229D-01 0.118D-01 0.122D-01-0.505D-01-0.465D-01
 Coeff:     -0.662D-01-0.707D-01 0.135D+00 0.409D+00 0.643D+00
 Gap=     0.081 Goal=   None    Shift=    0.000
 Gap=     0.065 Goal=   None    Shift=    0.000
 RMSDP=1.25D-08 MaxDP=9.00D-07 DE= 5.09D-11 OVMax= 3.16D-06

 Cycle  27  Pass 1  IDiag  1:
 RMSU=  7.22D-09    CP:  1.00D+00  1.01D+00  3.38D-01  2.09D+00  2.32D+00
                    CP:  1.05D+00  1.09D+00  1.40D+00  1.59D+00  1.30D+00
                    CP:  8.84D-01
 E= -1682.52819822464     Delta-E=       -0.000000000076 Rises=F Damp=F
 DIIS: error= 5.62D-08 at cycle  12 NSaved=  12.
 NSaved=12 IEnMin=12 EnMin= -1682.52819822464     IErMin=12 ErrMin= 5.62D-08
 ErrMax= 5.62D-08  0.00D+00 EMaxC= 1.00D-01 BMatC= 7.40D-12 BMatP= 2.49D-11
 IDIUse=1 WtCom= 1.00D+00 WtEn= 0.00D+00
 Coeff-Com:  0.633D-04-0.766D-02-0.447D-02-0.178D-02 0.191D-01 0.156D-01
 Coeff-Com: -0.122D-02-0.873D-01-0.103D+00 0.692D-01 0.422D+00 0.679D+00
 Coeff:      0.633D-04-0.766D-02-0.447D-02-0.178D-02 0.191D-01 0.156D-01
 Coeff:     -0.122D-02-0.873D-01-0.103D+00 0.692D-01 0.422D+00 0.679D+00
 Gap=     0.081 Goal=   None    Shift=    0.000
 Gap=     0.065 Goal=   None    Shift=    0.000
 RMSDP=7.42D-09 MaxDP=5.57D-07 DE=-7.64D-11 OVMax= 1.48D-06

 SCF Done:  E(UB3LYP) =  -1682.52819822     A.U. after   27 cycles
            NFock= 27  Conv=0.74D-08     -V/T= 2.0080
 <Sx>= 0.0000 <Sy>= 0.0000 <Sz>= 1.0000 <S**2>= 2.0278 S= 1.0092
 <L.S>= 0.000000000000E+00
 KE= 1.669111880121D+03 PE=-1.007649126024D+04 EE= 3.647681086055D+03
 Annihilation of the first spin contaminant:
 S**2 before annihilation     2.0278,   after     2.0005
 Leave Link  502 at Thu Mar 14 09:20:51 2024, MaxMem= 32212254720 cpu:            1747.3 elap:              58.3
 (Enter /home/<user>/g16/l601.exe)
 Copying SCF densities to generalized density rwf, IOpCl= 1 IROHF=0.

 **********************************************************************

            Population analysis using the SCF Density.

 **********************************************************************

 Orbital symmetries:
 Alpha Orbitals:
       Occupied  (A) (A) (A) (A) (A) (A) (A) (A) (A) (A) (A) (A)
                 (A) (A) (A) (A) (A) (A) (A) (A) (A) (A) (A) (A)
                 (A) (A) (A) (A) (A) (A) (A) (A) (A) (A) (A) (A)
                 (A) (A) (A) (A) (A) (A) (A) (A) (A) (A) (A) (A)
                 (A) (A) (A) (A) (A) (A) (A) (A) (A) (A) (A) (A)
                 (A) (A) (A) (A) (A) (A) (A) (A) (A) (A) (A) (A)
                 (A) (A) (A) (A) (A) (A) (A) (A) (A) (A) (A) (A)
                 (A) (A) (A) (A) (A) (A) (A) (A) (A) (A) (A) (A)
                 (A) (A) (A) (A) (A) (A) (A) (A) (A) (A) (A) (A)
                 (A) (A) (A) (A) (A) (A) (A) (A) (A) (A) (A)
       Virtual   (A) (A) (A) (A) (A) (A) (A) (A) (A) (A) (A) (A)
                 (A) (A) (A) (A) (A) (A) (A) (A) (A) (A) (A) (A)
                 (A) (A) (A) (A) (A) (A) (A) (A) (A) (A) (A) (A)
                 (A) (A) (A) (A) (A) (A) (A) (A) (A) (A) (A) (A)
                 (A) (A) (A) (A) (A) (A) (A) (A) (A) (A) (A) (A)
                 (A) (A) (A) (A) (A) (A) (A) (A) (A) (A) (A) (A)
                 (A) (A) (A) (A) (A) (A) (A) (A) (A) (A) (A) (A)
                 (A) (A) (A) (A) (A) (A) (A) (A) (A) (A) (A) (A)
                 (A) (A) (A) (A) (A) (A) (A) (A) (A) (A) (A) (A)
                 (A) (A) (A) (A) (A) (A) (A) (A) (A) (A) (A) (A)
                 (A) (A) (A) (A) (A) (A) (A) (A) (A) (A) (A) (A)
                 (A) (A) (A) (A) (A) (A) (A) (A) (A) (A) (A) (A)
                 (A) (A) (A) (A) (A) (A) (A) (A) (A) (A) (A) (A)
                 (A) (A) (A) (A) (A) (A) (A) (A) (A) (A) (A) (A)
                 (A) (A) (A) (A) (A) (A) (A) (A) (A) (A) (A) (A)
                 (A) (A) (A) (A) (A) (A) (A) (A) (A) (A) (A) (A)
                 (A) (A) (A) (A) (A) (A) (A) (A) (A) (A) (A) (A)
                 (A) (A) (A) (A) (A) (A) (A) (A) (A) (A) (A) (A)
                 (A) (A) (A) (A) (A) (A) (A) (A) (A) (A) (A) (A)
                 (A) (A) (A) (A) (A) (A) (A) (A) (A) (A) (A) (A)
                 (A) (A) (A) (A) (A) (A) (A) (A) (A) (A) (A) (A)
                 (A) (A) (A) (A) (A) (A) (A) (A) (A) (A) (A) (A)
                 (A) (A) (A) (A) (A) (A) (A) (A) (A) (A) (A) (A)
                 (A) (A) (A) (A) (A) (A) (A) (A) (A) (A) (A) (A)
                 (A) (A) (A) (A) (A) (A) (A) (A) (A) (A) (A) (A)
                 (A) (A) (A) (A) (A) (A) (A) (A) (A) (A) (A) (A)
                 (A) (A) (A) (A) (A) (A) (A) (A) (A) (A) (A) (A)
                 (A) (A) (A) (A) (A) (A) (A) (A) (A) (A) (A) (A)
                 (A) (A) (A) (A) (A) (A) (A) (A) (A) (A) (A) (A)
                 (A) (A) (A) (A) (A) (A) (A) (A) (A) (A) (A) (A)
                 (A) (A) (A) (A) (A) (A) (A) (A) (A) (A) (A) (A)
                 (A) (A) (A) (A) (A) (A) (A) (A) (A) (A) (A) (A)
                 (A) (A) (A) (A) (A) (A) (A) (A) (A) (A) (A) (A)
                 (A) (A) (A) (A) (A) (A) (A) (A) (A) (A) (A) (A)
                 (A) (A) (A) (A) (A) (A) (A) (A) (A) (A) (A) (A)
                 (A) (A) (A) (A) (A) (A) (A) (A) (A) (A)
 Beta  Orbitals:
       Occupied  (A) (A) (A) (A) (A) (A) (A) (A) (A) (A) (A) (A)
                 (A) (A) (A) (A) (A) (A) (A) (A) (A) (A) (A) (A)
                 (A) (A) (A) (A) (A) (A) (A) (A) (A) (A) (A) (A)
                 (A) (A) (A) (A) (A) (A) (A) (A) (A) (A) (A) (A)
                 (A) (A) (A) (A) (A) (A) (A) (A) (A) (A) (A) (A)
                 (A) (A) (A) (A) (A) (A) (A) (A) (A) (A) (A) (A)
                 (A) (A) (A) (A) (A) (A) (A) (A) (A) (A) (A) (A)
                 (A) (A) (A) (A) (A) (A) (A) (A) (A) (A) (A) (A)
                 (A) (A) (A) (A) (A) (A) (A) (A) (A) (A) (A) (A)
                 (A) (A) (A) (A) (A) (A) (A) (A) (A)
       Virtual   (A) (A) (A) (A) (A) (A) (A) (A) (A) (A) (A) (A)
                 (A) (A) (A) (A) (A) (A) (A) (A) (A) (A) (A) (A)
                 (A) (A) (A) (A) (A) (A) (A) (A) (A) (A) (A) (A)
                 (A) (A) (A) (A) (A) (A) (A) (A) (A) (A) (A) (A)
                 (A) (A) (A) (A) (A) (A) (A) (A) (A) (A) (A) (A)
                 (A) (A) (A) (A) (A) (A) (A) (A) (A) (A) (A) (A)
                 (A) (A) (A) (A) (A) (A) (A) (A) (A) (A) (A) (A)
                 (A) (A) (A) (A) (A) (A) (A) (A) (A) (A) (A) (A)
                 (A) (A) (A) (A) (A) (A) (A) (A) (A) (A) (A) (A)
                 (A) (A) (A) (A) (A) (A) (A) (A) (A) (A) (A) (A)
                 (A) (A) (A) (A) (A) (A) (A) (A) (A) (A) (A) (A)
                 (A) (A) (A) (A) (A) (A) (A) (A) (A) (A) (A) (A)
                 (A) (A) (A) (A) (A) (A) (A) (A) (A) (A) (A) (A)
                 (A) (A) (A) (A) (A) (A) (A) (A) (A) (A) (A) (A)
                 (A) (A) (A) (A) (A) (A) (A) (A) (A) (A) (A) (A)
                 (A) (A) (A) (A) (A) (A) (A) (A) (A) (A) (A) (A)
                 (A) (A) (A) (A) (A) (A) (A) (A) (A) (A) (A) (A)
                 (A) (A) (A) (A) (A) (A) (A) (A) (A) (A) (A) (A)
                 (A) (A) (A) (A) (A) (A) (A) (A) (A) (A) (A) (A)
                 (A) (A) (A) (A) (A) (A) (A) (A) (A) (A) (A) (A)
                 (A) (A) (A) (A) (A) (A) (A) (A) (A) (A) (A) (A)
                 (A) (A) (A) (A) (A) (A) (A) (A) (A) (A) (A) (A)
                 (A) (A) (A) (A) (A) (A) (A) (A) (A) (A) (A) (A)
                 (A) (A) (A) (A) (A) (A) (A) (A) (A) (A) (A) (A)
                 (A) (A) (A) (A) (A) (A) (A) (A) (A) (A) (A) (A)
                 (A) (A) (A) (A) (A) (A) (A) (A) (A) (A) (A) (A)
                 (A) (A) (A) (A) (A) (A) (A) (A) (A) (A) (A) (A)
                 (A) (A) (A) (A) (A) (A) (A) (A) (A) (A) (A) (A)
                 (A) (A) (A) (A) (A) (A) (A) (A) (A) (A) (A) (A)
                 (A) (A) (A) (A) (A) (A) (A) (A) (A) (A) (A) (A)
                 (A) (A) (A) (A) (A) (A) (A) (A) (A) (A) (A) (A)
                 (A) (A) (A) (A) (A) (A) (A) (A) (A) (A) (A) (A)
                 (A) (A) (A) (A) (A) (A) (A) (A) (A) (A) (A) (A)
                 (A) (A) (A) (A) (A) (A) (A) (A) (A) (A) (A) (A)
                 (A) (A) (A) (A) (A) (A) (A) (A) (A) (A) (A) (A)
                 (A) (A) (A) (A) (A) (A) (A) (A) (A) (A) (A) (A)
 The electronic state is 3-A.
 Alpha  occ. eigenvalues --  -88.92472 -14.33862 -14.33859 -14.31393 -10.22635
 Alpha  occ. eigenvalues --  -10.22586 -10.21628 -10.21591 -10.21437 -10.21080
 Alpha  occ. eigenvalues --  -10.21073 -10.20527 -10.20335 -10.20199 -10.20198
 Alpha  occ. eigenvalues --  -10.20096 -10.19944 -10.19878 -10.19772 -10.19748
 Alpha  occ. eigenvalues --  -10.19723 -10.19708 -10.19593 -10.19583 -10.19579
 Alpha  occ. eigenvalues --  -10.19568 -10.19497 -10.19139 -10.19117 -10.18926
 Alpha  occ. eigenvalues --  -10.18781 -10.18638 -10.18532  -7.98219  -5.94796
 Alpha  occ. eigenvalues --   -5.94196  -5.93939  -0.99361  -0.89699  -0.88217
 Alpha  occ. eigenvalues --   -0.87633  -0.87207  -0.85595  -0.84537  -0.81950
 Alpha  occ. eigenvalues --   -0.79919  -0.78118  -0.75748  -0.75024  -0.74729
 Alpha  occ. eigenvalues --   -0.74181  -0.73680  -0.72167  -0.69951  -0.69278
 Alpha  occ. eigenvalues --   -0.65364  -0.64448  -0.62395  -0.61959  -0.61703
 Alpha  occ. eigenvalues --   -0.59972  -0.59127  -0.58486  -0.57989  -0.56941
 Alpha  occ. eigenvalues --   -0.55253  -0.51542  -0.51210  -0.50179  -0.49362
 Alpha  occ. eigenvalues --   -0.48963  -0.48337  -0.47706  -0.46878  -0.45963
 Alpha  occ. eigenvalues --   -0.45686  -0.45342  -0.44713  -0.44297  -0.44157
 Alpha  occ. eigenvalues --   -0.43721  -0.43474  -0.43401  -0.42286  -0.42248
 Alpha  occ. eigenvalues --   -0.41804  -0.41257  -0.39768  -0.39347  -0.38915
 Alpha  occ. eigenvalues --   -0.38698  -0.38512  -0.38267  -0.37726  -0.36651
 Alpha  occ. eigenvalues --   -0.36099  -0.35688  -0.35543  -0.35221  -0.34987
 Alpha  occ. eigenvalues --   -0.34929  -0.34583  -0.34469  -0.33574  -0.32807
 Alpha  occ. eigenvalues --   -0.32577  -0.32429  -0.29966  -0.29233  -0.27707
 Alpha  occ. eigenvalues --   -0.26724  -0.25533  -0.25391  -0.25276  -0.25098
 Alpha  occ. eigenvalues --   -0.23781  -0.23399  -0.21247  -0.12512
 Alpha virt. eigenvalues --   -0.04458  -0.02203  -0.01582  -0.00461   0.00154
 Alpha virt. eigenvalues --    0.00791   0.02026   0.03815   0.04650   0.07778
 Alpha virt. eigenvalues --    0.08038   0.09420   0.09682   0.09812   0.10926
 Alpha virt. eigenvalues --    0.11144   0.12179   0.12404   0.12789   0.13127
 Alpha virt. eigenvalues --    0.13464   0.13954   0.14955   0.15233   0.15749
 Alpha virt. eigenvalues --    0.16123   0.16273   0.16611   0.17248   0.17470
 Alpha virt. eigenvalues --    0.17899   0.18301   0.18656   0.18878   0.19109
 Alpha virt. eigenvalues --    0.19946   0.20224   0.21097   0.21252   0.21931
 Alpha virt. eigenvalues --    0.22859   0.23199   0.23916   0.24964   0.25042
 Alpha virt. eigenvalues --    0.25374   0.26413   0.26618   0.26683   0.27153
 Alpha virt. eigenvalues --    0.27443   0.27782   0.29061   0.30055   0.30671
 Alpha virt. eigenvalues --    0.30818   0.32517   0.32653   0.33158   0.34252
 Alpha virt. eigenvalues --    0.35297   0.36154   0.36264   0.36688   0.37987
 Alpha virt. eigenvalues --    0.39275   0.39648   0.41040   0.42637   0.43857
 Alpha virt. eigenvalues --    0.44885   0.46333   0.48383   0.48961   0.49242
 Alpha virt. eigenvalues --    0.49643   0.50258   0.50530   0.50755   0.51287
 Alpha virt. eigenvalues --    0.51492   0.52674   0.52791   0.53058   0.53498
 Alpha virt. eigenvalues --    0.54002   0.54133   0.54768   0.54859   0.55189
 Alpha virt. eigenvalues --    0.55440   0.55677   0.56504   0.56734   0.57255
 Alpha virt. eigenvalues --    0.57635   0.57903   0.58377   0.58976   0.59061
 Alpha virt. eigenvalues --    0.59238   0.59342   0.60078   0.60131   0.60728
 Alpha virt. eigenvalues --    0.60833   0.60989   0.61381   0.62074   0.62296
 Alpha virt. eigenvalues --    0.62750   0.63366   0.63505   0.64373   0.64845
 Alpha virt. eigenvalues --    0.65126   0.65377   0.66033   0.66367   0.66628
 Alpha virt. eigenvalues --    0.67196   0.67543   0.67712   0.68524   0.69523
 Alpha virt. eigenvalues --    0.69865   0.71143   0.71794   0.72755   0.74049
 Alpha virt. eigenvalues --    0.75207   0.75737   0.76261   0.76447   0.76587
 Alpha virt. eigenvalues --    0.78048   0.78264   0.78818   0.79048   0.79432
 Alpha virt. eigenvalues --    0.80061   0.80718   0.81023   0.81764   0.82142
 Alpha virt. eigenvalues --    0.82582   0.82912   0.83714   0.83961   0.84264
 Alpha virt. eigenvalues --    0.84533   0.85249   0.85628   0.86017   0.86913
 Alpha virt. eigenvalues --    0.87235   0.88193   0.88567   0.88908   0.89599
 Alpha virt. eigenvalues --    0.89876   0.90475   0.90665   0.90894   0.91239
 Alpha virt. eigenvalues --    0.91373   0.91857   0.92746   0.93622   0.94119
 Alpha virt. eigenvalues --    0.95185   0.95531   0.96171   0.96431   0.96717
 Alpha virt. eigenvalues --    0.97602   0.97918   0.98221   0.98768   0.99143
 Alpha virt. eigenvalues --    0.99585   1.00111   1.00352   1.01490   1.02273
 Alpha virt. eigenvalues --    1.02604   1.02934   1.03690   1.05123   1.05616
 Alpha virt. eigenvalues --    1.06189   1.07286   1.07512   1.08977   1.09637
 Alpha virt. eigenvalues --    1.10279   1.11477   1.12432   1.12717   1.13423
 Alpha virt. eigenvalues --    1.14057   1.15029   1.15701   1.16539   1.17259
 Alpha virt. eigenvalues --    1.18724   1.19885   1.20698   1.22075   1.22561
 Alpha virt. eigenvalues --    1.23268   1.23616   1.25317   1.26283   1.29024
 Alpha virt. eigenvalues --    1.30065   1.30794   1.32428   1.32987   1.33518
 Alpha virt. eigenvalues --    1.35358   1.36325   1.37099   1.38109   1.39917
 Alpha virt. eigenvalues --    1.40703   1.41062   1.41483   1.41923   1.42820
 Alpha virt. eigenvalues --    1.44635   1.44944   1.45078   1.45823   1.46603
 Alpha virt. eigenvalues --    1.47490   1.47722   1.48130   1.48691   1.49290
 Alpha virt. eigenvalues --    1.49687   1.50198   1.51569   1.52205   1.54286
 Alpha virt. eigenvalues --    1.55248   1.57245   1.58356   1.60014   1.60701
 Alpha virt. eigenvalues --    1.64164   1.65810   1.67263   1.67623   1.70489
 Alpha virt. eigenvalues --    1.70981   1.71215   1.72496   1.73239   1.74951
 Alpha virt. eigenvalues --    1.76046   1.76347   1.77396   1.78334   1.78984
 Alpha virt. eigenvalues --    1.79418   1.79964   1.80816   1.81439   1.81615
 Alpha virt. eigenvalues --    1.82623   1.83380   1.83882   1.84720   1.85537
 Alpha virt. eigenvalues --    1.87505   1.88159   1.88761   1.90176   1.90336
 Alpha virt. eigenvalues --    1.90797   1.91123   1.92147   1.92655   1.92937
 Alpha virt. eigenvalues --    1.93867   1.94869   1.96036   1.96340   1.98100
 Alpha virt. eigenvalues --    1.98335   2.00171   2.00810   2.01241   2.02097
 Alpha virt. eigenvalues --    2.02758   2.03662   2.03976   2.04100   2.05781
 Alpha virt. eigenvalues --    2.05962   2.07371   2.08373   2.09422   2.11220
 Alpha virt. eigenvalues --    2.12059   2.12239   2.13179   2.13731   2.15014
 Alpha virt. eigenvalues --    2.16172   2.17508   2.18747   2.18862   2.19117
 Alpha virt. eigenvalues --    2.21716   2.22583   2.23044   2.23611   2.23850
 Alpha virt. eigenvalues --    2.25024   2.25157   2.25861   2.26061   2.26471
 Alpha virt. eigenvalues --    2.27284   2.27428   2.29342   2.29548   2.30070
 Alpha virt. eigenvalues --    2.30916   2.31527   2.32671   2.32990   2.33155
 Alpha virt. eigenvalues --    2.34543   2.35245   2.36900   2.37463   2.38385
 Alpha virt. eigenvalues --    2.39925   2.42336   2.42373   2.43047   2.43284
 Alpha virt. eigenvalues --    2.44626   2.46801   2.47968   2.49499   2.50415
 Alpha virt. eigenvalues --    2.53736   2.53917   2.55570   2.57550   2.58536
 Alpha virt. eigenvalues --    2.59285   2.60435   2.60966   2.61862   2.63225
 Alpha virt. eigenvalues --    2.64642   2.65410   2.65559   2.67356   2.67561
 Alpha virt. eigenvalues --    2.69259   2.69693   2.72046   2.73785   2.74306
 Alpha virt. eigenvalues --    2.74789   2.74860   2.75408   2.76878   2.78133
 Alpha virt. eigenvalues --    2.79948   2.80502   2.83338   2.83377   2.85997
 Alpha virt. eigenvalues --    2.88387   2.91683   2.92347   2.94675   2.94922
 Alpha virt. eigenvalues --    2.97435   2.99635   3.01509   3.05808   3.08133
 Alpha virt. eigenvalues --    3.14800   3.26917   3.31418   3.32024   3.37656
 Alpha virt. eigenvalues --    3.45436   3.51439   3.78265   3.88729   4.02922
 Alpha virt. eigenvalues --    4.03545   4.07456   4.08008   4.09015   4.10318
 Alpha virt. eigenvalues --    4.11103   4.11740   4.14334   4.14883   4.15651
 Alpha virt. eigenvalues --    4.17803   4.19344   4.21577   4.23109   4.24437
 Alpha virt. eigenvalues --    4.28561   4.30807   4.33560   4.34790   4.36058
 Alpha virt. eigenvalues --    4.39302   4.42013   4.43856   4.48565   4.51523
 Alpha virt. eigenvalues --    4.60693   4.70178   4.79117   4.81048   4.85483
  Beta  occ. eigenvalues --  -88.92356 -14.33254 -14.33249 -14.31391 -10.22791
  Beta  occ. eigenvalues --  -10.22745 -10.21436 -10.21119 -10.21055 -10.21052
  Beta  occ. eigenvalues --  -10.20994 -10.20581 -10.20166 -10.20043 -10.19982
  Beta  occ. eigenvalues --  -10.19971 -10.19920 -10.19786 -10.19725 -10.19717
  Beta  occ. eigenvalues --  -10.19699 -10.19675 -10.19631 -10.19602 -10.19586
  Beta  occ. eigenvalues --  -10.19463 -10.19365 -10.19193 -10.19014 -10.18957
  Beta  occ. eigenvalues --  -10.18790 -10.18640 -10.18534  -7.98107  -5.94742
  Beta  occ. eigenvalues --   -5.94148  -5.93533  -0.98567  -0.89554  -0.88170
  Beta  occ. eigenvalues --   -0.86826  -0.86411  -0.85073  -0.84098  -0.81770
  Beta  occ. eigenvalues --   -0.79356  -0.77910  -0.75233  -0.74802  -0.74535
  Beta  occ. eigenvalues --   -0.73921  -0.73522  -0.71992  -0.69529  -0.69281
  Beta  occ. eigenvalues --   -0.65168  -0.63971  -0.62107  -0.61576  -0.61472
  Beta  occ. eigenvalues --   -0.59762  -0.58876  -0.58278  -0.57850  -0.56800
  Beta  occ. eigenvalues --   -0.55055  -0.51478  -0.51046  -0.49972  -0.49115
  Beta  occ. eigenvalues --   -0.48703  -0.48069  -0.47584  -0.46629  -0.45721
  Beta  occ. eigenvalues --   -0.45534  -0.45260  -0.44607  -0.44213  -0.43925
  Beta  occ. eigenvalues --   -0.43614  -0.43383  -0.42549  -0.42164  -0.41892
  Beta  occ. eigenvalues --   -0.41545  -0.41034  -0.39728  -0.39218  -0.38782
  Beta  occ. eigenvalues --   -0.38299  -0.38179  -0.37973  -0.37454  -0.35740
  Beta  occ. eigenvalues --   -0.35494  -0.35371  -0.35363  -0.34895  -0.34857
  Beta  occ. eigenvalues --   -0.34595  -0.34358  -0.33512  -0.32705  -0.32540
  Beta  occ. eigenvalues --   -0.32337  -0.30279  -0.29489  -0.27885  -0.26984
  Beta  occ. eigenvalues --   -0.25305  -0.25055  -0.24873  -0.24597  -0.23978
  Beta  occ. eigenvalues --   -0.23539  -0.22177
  Beta virt. eigenvalues --   -0.15642  -0.05722  -0.03038  -0.01329  -0.00714
  Beta virt. eigenvalues --   -0.00062   0.00452   0.02490   0.03252   0.04343
  Beta virt. eigenvalues --    0.06410   0.07797   0.08046   0.09568   0.09792
  Beta virt. eigenvalues --    0.10168   0.10974   0.11426   0.12215   0.12686
  Beta virt. eigenvalues --    0.12989   0.13184   0.13594   0.14178   0.15051
  Beta virt. eigenvalues --    0.15474   0.15854   0.16213   0.16414   0.16916
  Beta virt. eigenvalues --    0.17355   0.17919   0.18016   0.18462   0.18696
  Beta virt. eigenvalues --    0.19068   0.19279   0.20205   0.20379   0.21201
  Beta virt. eigenvalues --    0.21394   0.22118   0.23007   0.23342   0.24060
  Beta virt. eigenvalues --    0.25215   0.25340   0.25617   0.26574   0.26729
  Beta virt. eigenvalues --    0.26813   0.27323   0.27843   0.28198   0.29199
  Beta virt. eigenvalues --    0.30229   0.30897   0.31020   0.32724   0.32828
  Beta virt. eigenvalues --    0.33336   0.34366   0.35564   0.36380   0.36637
  Beta virt. eigenvalues --    0.37269   0.38215   0.39464   0.39913   0.41454
  Beta virt. eigenvalues --    0.42989   0.44074   0.45329   0.46481   0.48622
  Beta virt. eigenvalues --    0.49029   0.49691   0.49922   0.50518   0.50652
  Beta virt. eigenvalues --    0.50924   0.51500   0.51658   0.52893   0.52981
  Beta virt. eigenvalues --    0.53373   0.53819   0.54317   0.54343   0.54848
  Beta virt. eigenvalues --    0.55041   0.55374   0.55695   0.55871   0.56640
  Beta virt. eigenvalues --    0.56992   0.57465   0.57729   0.58109   0.58662
  Beta virt. eigenvalues --    0.59105   0.59259   0.59464   0.59574   0.60165
  Beta virt. eigenvalues --    0.60298   0.61001   0.61089   0.61301   0.61687
  Beta virt. eigenvalues --    0.62272   0.62530   0.62937   0.63552   0.63896
  Beta virt. eigenvalues --    0.64541   0.64994   0.65402   0.65569   0.66332
  Beta virt. eigenvalues --    0.66643   0.67347   0.67847   0.68136   0.68587
  Beta virt. eigenvalues --    0.68740   0.69975   0.70672   0.71463   0.72142
  Beta virt. eigenvalues --    0.73018   0.74220   0.75312   0.76033   0.76379
  Beta virt. eigenvalues --    0.76648   0.76782   0.78267   0.78420   0.78890
  Beta virt. eigenvalues --    0.79434   0.79884   0.80492   0.80861   0.81105
  Beta virt. eigenvalues --    0.82099   0.82431   0.82664   0.83055   0.83781
  Beta virt. eigenvalues --    0.84277   0.84558   0.85077   0.85512   0.85792
  Beta virt. eigenvalues --    0.86154   0.87052   0.87519   0.88315   0.88840
  Beta virt. eigenvalues --    0.89067   0.89846   0.90054   0.90503   0.90690
  Beta virt. eigenvalues --    0.90980   0.91307   0.91466   0.91967   0.92929
  Beta virt. eigenvalues --    0.93793   0.94389   0.95503   0.95735   0.96384
  Beta virt. eigenvalues --    0.96529   0.96793   0.97794   0.98185   0.98367
  Beta virt. eigenvalues --    0.98835   0.99341   0.99969   1.00312   1.00692
  Beta virt. eigenvalues --    1.01759   1.02516   1.03221   1.03312   1.03792
  Beta virt. eigenvalues --    1.05341   1.05993   1.06481   1.07542   1.07766
  Beta virt. eigenvalues --    1.09218   1.09919   1.10571   1.11712   1.12778
  Beta virt. eigenvalues --    1.13053   1.13660   1.14286   1.15274   1.15866
  Beta virt. eigenvalues --    1.16718   1.17428   1.18958   1.20174   1.20878
  Beta virt. eigenvalues --    1.22440   1.22799   1.23330   1.23762   1.25630
  Beta virt. eigenvalues --    1.26488   1.29300   1.30602   1.31073   1.32767
  Beta virt. eigenvalues --    1.33175   1.33633   1.35698   1.36569   1.37520
  Beta virt. eigenvalues --    1.38387   1.40200   1.40970   1.41207   1.41633
  Beta virt. eigenvalues --    1.42598   1.43035   1.44860   1.45212   1.45268
  Beta virt. eigenvalues --    1.46018   1.46831   1.47811   1.48095   1.48512
  Beta virt. eigenvalues --    1.49184   1.49362   1.50035   1.50503   1.51744
  Beta virt. eigenvalues --    1.52360   1.54594   1.55419   1.57372   1.58628
  Beta virt. eigenvalues --    1.60306   1.61045   1.64222   1.66295   1.67685
  Beta virt. eigenvalues --    1.67719   1.70686   1.71285   1.71794   1.73005
  Beta virt. eigenvalues --    1.73862   1.75257   1.76447   1.76761   1.77715
  Beta virt. eigenvalues --    1.78654   1.79175   1.80006   1.80328   1.80928
  Beta virt. eigenvalues --    1.81972   1.82017   1.83092   1.83694   1.84239
  Beta virt. eigenvalues --    1.84873   1.85563   1.88016   1.88930   1.89502
  Beta virt. eigenvalues --    1.90295   1.90688   1.91397   1.91437   1.92453
  Beta virt. eigenvalues --    1.93022   1.93142   1.94085   1.94996   1.96404
  Beta virt. eigenvalues --    1.96655   1.98205   1.98649   2.00309   2.01076
  Beta virt. eigenvalues --    2.01595   2.02477   2.02949   2.03926   2.04168
  Beta virt. eigenvalues --    2.04282   2.06034   2.06146   2.07680   2.08560
  Beta virt. eigenvalues --    2.09636   2.11447   2.12267   2.12565   2.13386
  Beta virt. eigenvalues --    2.14147   2.15183   2.16642   2.17777   2.18886
  Beta virt. eigenvalues --    2.18994   2.19598   2.22296   2.22980   2.23504
  Beta virt. eigenvalues --    2.24034   2.24104   2.25224   2.25591   2.26197
  Beta virt. eigenvalues --    2.26487   2.26938   2.27584   2.27788   2.29656
  Beta virt. eigenvalues --    2.29880   2.30325   2.31133   2.31831   2.32759
  Beta virt. eigenvalues --    2.33607   2.33821   2.35080   2.35619   2.37302
  Beta virt. eigenvalues --    2.37839   2.38664   2.40072   2.42496   2.42579
  Beta virt. eigenvalues --    2.43540   2.43785   2.44901   2.47181   2.48626
  Beta virt. eigenvalues --    2.49666   2.50621   2.54044   2.54425   2.55833
  Beta virt. eigenvalues --    2.57978   2.59027   2.59669   2.61040   2.61307
  Beta virt. eigenvalues --    2.62024   2.63628   2.64950   2.65773   2.65894
  Beta virt. eigenvalues --    2.67774   2.68135   2.69418   2.70100   2.72440
  Beta virt. eigenvalues --    2.73872   2.74372   2.74905   2.75016   2.75671
  Beta virt. eigenvalues --    2.77032   2.78438   2.80066   2.80584   2.83476
  Beta virt. eigenvalues --    2.83490   2.86109   2.88555   2.91845   2.92467
  Beta virt. eigenvalues --    2.94749   2.95111   2.97546   2.99886   3.01809
  Beta virt. eigenvalues --    3.06640   3.08291   3.14952   3.27042   3.31559
  Beta virt. eigenvalues --    3.32148   3.37753   3.45559   3.51520   3.78273
  Beta virt. eigenvalues --    3.89448   4.03504   4.04581   4.07635   4.08557
  Beta virt. eigenvalues --    4.09093   4.10592   4.11314   4.11862   4.14402
  Beta virt. eigenvalues --    4.15014   4.15831   4.17971   4.19592   4.21798
  Beta virt. eigenvalues --    4.23182   4.25088   4.28559   4.30952   4.33681
  Beta virt. eigenvalues --    4.34978   4.36337   4.39668   4.42058   4.43976
  Beta virt. eigenvalues --    4.48635   4.51911   4.60804   4.70393   4.79321
  Beta virt. eigenvalues --    4.81152   4.85765
          Condensed to atoms (all electrons):
          Atomic-Atomic Spin Densities.
 Mulliken charges and spin densities:
               1          2
     1  C   -0.154536   0.101522
     2  C    0.110810  -0.044380
     3  C   -0.253222   0.090189
     4  C    0.102293  -0.045436
     5  C    0.090077   0.128700
     6  C   -0.200614  -0.052762
     7  H    0.164517  -0.004869
     8  H    0.133977  -0.003802
     9  H    0.137184   0.002179
    10  C   -0.063948  -0.000308
    11  C    0.105104   0.040711
    12  C   -0.202080  -0.022874
    13  C   -0.128820   0.048299
    14  C   -0.136173  -0.020507
    15  C   -0.188211   0.039647
    16  C    0.079027  -0.028477
    17  H    0.128201   0.000835
    18  H    0.132268  -0.002303
    19  H    0.132839   0.000731
    20  H    0.134957  -0.001808
    21  C   -0.437397  -0.000543
    22  H    0.145699  -0.000288
    23  H    0.147108   0.000258
    24  H    0.161003  -0.000050
    25  C   -0.437540  -0.000581
    26  H    0.144648   0.000416
    27  H    0.146444  -0.000251
    28  H    0.158318  -0.000054
    29  C    0.102264   0.421749
    30  C    0.185650  -0.119125
    31  C   -0.209834   0.152157
    32  C    0.185489  -0.123990
    33  C   -0.213250   0.113029
    34  H    0.136428  -0.009048
    35  C    0.107995   0.441385
    36  H    0.137964  -0.007358
    37  N   -0.586320   0.284985
    38  N   -0.584642   0.288802
    39  S    0.471390   0.186088
    40  C    0.098443  -0.057889
    41  C   -0.139712   0.095699
    42  C   -0.167749   0.094052
    43  C   -0.191014  -0.051411
    44  H    0.162095  -0.004587
    45  C   -0.188905  -0.048330
    46  H    0.135516  -0.004131
    47  C    0.178167   0.116833
    48  H    0.127584   0.002302
    49  H    0.130581   0.002011
    50  C   -0.343479  -0.008213
    51  H    0.159696   0.001750
    52  H    0.138007   0.001611
    53  C   -0.131186   0.006342
    54  H    0.123411   0.000129
    55  H    0.146260  -0.000134
    56  N   -0.714700   0.000890
    57  H    0.293049  -0.000051
    58  H    0.298866   0.000261
 Sum of Mulliken charges =  -0.00000   2.00000
 Mulliken charges and spin densities with hydrogens summed into heavy atoms:
               1          2
     1  C    0.009982   0.096653
     2  C    0.110810  -0.044380
     3  C   -0.119245   0.086386
     4  C    0.102293  -0.045436
     5  C    0.090077   0.128700
     6  C   -0.063430  -0.050584
    10  C   -0.063948  -0.000308
    11  C    0.105104   0.040711
    12  C   -0.073879  -0.022040
    13  C    0.003448   0.045995
    14  C   -0.003334  -0.019776
    15  C   -0.053254   0.037839
    16  C    0.079027  -0.028477
    21  C    0.016413  -0.000623
    25  C    0.011871  -0.000471
    29  C    0.102264   0.421749
    30  C    0.185650  -0.119125
    31  C   -0.073406   0.143109
    32  C    0.185489  -0.123990
    33  C   -0.075286   0.105671
    35  C    0.107995   0.441385
    37  N   -0.586320   0.284985
    38  N   -0.584642   0.288802
    39  S    0.471390   0.186088
    40  C    0.098443  -0.057889
    41  C    0.022383   0.091112
    42  C   -0.032233   0.089921
    43  C   -0.063430  -0.049109
    45  C   -0.058323  -0.046319
    47  C    0.178167   0.116833
    50  C   -0.045775  -0.004852
    53  C    0.138485   0.006337
    56  N   -0.122785   0.001100
 Electronic spatial extent (au):  <R**2>=          27795.8181
 Charge=             -0.0000 electrons
 Dipole moment (field-independent basis, Debye):
    X=             -1.3564    Y=             -2.5320    Z=             -0.6561  Tot=              2.9464
 Quadrupole moment (field-independent basis, Debye-Ang):
   XX=           -155.4540   YY=           -193.8810   ZZ=           -200.1315
   XY=              9.7688   XZ=              2.3094   YZ=             -6.7786
 Traceless Quadrupole moment (field-independent basis, Debye-Ang):
   XX=             27.7015   YY=            -10.7255   ZZ=            -16.9760
   XY=              9.7688   XZ=              2.3094   YZ=             -6.7786
 Octapole moment (field-independent basis, Debye-Ang**2):
  XXX=             54.9052  YYY=            -10.1875  ZZZ=             16.4963  XYY=            -52.6327
  XXY=            122.0890  XXZ=             46.7895  XZZ=             41.3459  YZZ=              0.8432
  YYZ=             -6.5306  XYZ=              9.3925
 Hexadecapole moment (field-independent basis, Debye-Ang**3):
 XXXX=         -29653.1638 YYYY=          -3236.1982 ZZZZ=           -754.5192 XXXY=           1589.3405
 XXXZ=            546.5328 YYYX=             15.2967 YYYZ=            -23.6636 ZZZX=             78.5858
 ZZZY=             -3.4646 XXYY=          -6295.0949 XXZZ=          -5767.2950 YYZZ=           -671.2885
 XXYZ=           -217.3937 YYXZ=              3.6869 ZZXY=             -8.7612
 N-N= 3.077170095845D+03 E-N=-1.007649126581D+04  KE= 1.669111880121D+03
                          Isotropic Fermi Contact Couplings
        Atom                 a.u.       MegaHertz       Gauss      10(-4) cm-1
     1  C(13)              0.01245       6.99548       2.49616       2.33344
     2  C(13)             -0.01309      -7.35861      -2.62574      -2.45457
     3  C(13)              0.01486       8.35344       2.98071       2.78641
     4  C(13)             -0.00634      -3.56375      -1.27163      -1.18874
     5  C(13)              0.01379       7.74934       2.76516       2.58490
     6  C(13)             -0.00808      -4.54198      -1.62069      -1.51504
     7  H(1)              -0.00154      -3.43183      -1.22456      -1.14473
     8  H(1)              -0.00136      -3.04761      -1.08746      -1.01657
     9  H(1)               0.00073       1.63956       0.58504       0.54690
    10  C(13)              0.00011       0.06354       0.02267       0.02119
    11  C(13)              0.00441       2.47972       0.88483       0.82715
    12  C(13)             -0.00336      -1.88619      -0.67304      -0.62917
    13  C(13)              0.00512       2.87681       1.02652       0.95960
    14  C(13)             -0.00312      -1.75638      -0.62672      -0.58587
    15  C(13)              0.00424       2.38304       0.85033       0.79489
    16  C(13)             -0.00523      -2.94042      -1.04922      -0.98082
    17  H(1)               0.00026       0.57802       0.20625       0.19281
    18  H(1)              -0.00072      -1.60824      -0.57386      -0.53645
    19  H(1)               0.00022       0.50251       0.17931       0.16762
    20  H(1)              -0.00060      -1.33140      -0.47508      -0.44411
    21  C(13)             -0.00068      -0.38050      -0.13577      -0.12692
    22  H(1)              -0.00011      -0.24410      -0.08710      -0.08142
    23  H(1)               0.00006       0.12611       0.04500       0.04206
    24  H(1)               0.00001       0.03066       0.01094       0.01023
    25  C(13)             -0.00064      -0.35712      -0.12743      -0.11912
    26  H(1)               0.00007       0.16732       0.05970       0.05581
    27  H(1)              -0.00008      -0.17982      -0.06417      -0.05998
    28  H(1)               0.00001       0.02174       0.00776       0.00725
    29  C(13)              0.04191      23.55865       8.40631       7.85832
    30  C(13)             -0.02295     -12.89936      -4.60281      -4.30276
    31  C(13)              0.00760       4.27363       1.52494       1.42553
    32  C(13)             -0.02384     -13.39776      -4.78066      -4.46901
    33  C(13)              0.00301       1.69314       0.60416       0.56477
    34  H(1)              -0.00302      -6.75071      -2.40882      -2.25179
    35  C(13)              0.04455      25.04399       8.93632       8.35378
    36  H(1)              -0.00249      -5.55702      -1.98288      -1.85362
    37  N(14)              0.04478       7.23390       2.58124       2.41297
    38  N(14)              0.04524       7.30877       2.60795       2.43794
    39  S(33)              0.02313       3.97302       1.41767       1.32526
    40  C(13)             -0.01472      -8.27553      -2.95291      -2.76042
    41  C(13)              0.01217       6.84154       2.44123       2.28209
    42  C(13)              0.01543       8.67393       3.09507       2.89331
    43  C(13)             -0.00758      -4.26300      -1.52114      -1.42198
    44  H(1)              -0.00143      -3.19669      -1.14066      -1.06630
    45  C(13)             -0.00683      -3.83953      -1.37004      -1.28073
    46  H(1)              -0.00143      -3.19741      -1.14092      -1.06654
    47  C(13)              0.01281       7.20255       2.57005       2.40251
    48  H(1)               0.00073       1.62188       0.57873       0.54100
    49  H(1)               0.00067       1.48936       0.53144       0.49680
    50  C(13)             -0.00315      -1.76913      -0.63127      -0.59012
    51  H(1)               0.00093       2.08511       0.74402       0.69552
    52  H(1)               0.00076       1.69144       0.60355       0.56421
    53  C(13)              0.00827       4.64711       1.65820       1.55011
    54  H(1)              -0.00011      -0.23646      -0.08437      -0.07887
    55  H(1)              -0.00012      -0.26603      -0.09493      -0.08874
    56  N(14)              0.00112       0.18164       0.06481       0.06059
    57  H(1)              -0.00002      -0.03799      -0.01356      -0.01267
    58  H(1)               0.00014       0.31680       0.11304       0.10567
 --------------------------------------------------------
       Center         ----  Spin Dipole Couplings  ----
                      3XX-RR        3YY-RR        3ZZ-RR
 --------------------------------------------------------
     1   Atom       -0.047731     -0.013099      0.060830
     2   Atom        0.006978     -0.006628     -0.000350
     3   Atom       -0.035271     -0.020451      0.055721
     4   Atom        0.020795      0.008968     -0.029763
     5   Atom       -0.060646     -0.052269      0.112915
     6   Atom        0.023838      0.012671     -0.036508
     7   Atom        0.001351      0.002878     -0.004228
     8   Atom       -0.000085      0.005619     -0.005534
     9   Atom        0.003196     -0.000735     -0.002460
    10   Atom        0.001390      0.000431     -0.001821
    11   Atom       -0.018976     -0.013964      0.032940
    12   Atom        0.010573      0.005304     -0.015877
    13   Atom       -0.022261     -0.018286      0.040547
    14   Atom        0.008362      0.005320     -0.013682
    15   Atom       -0.018236     -0.013822      0.032058
    16   Atom        0.010246      0.002988     -0.013234
    17   Atom        0.001498     -0.000569     -0.000929
    18   Atom        0.003128     -0.002440     -0.000687
    19   Atom        0.000570      0.000193     -0.000764
    20   Atom       -0.001171      0.001945     -0.000774
    21   Atom        0.001268     -0.000140     -0.001128
    22   Atom        0.000286      0.000062     -0.000347
    23   Atom        0.000491      0.000074     -0.000564
    24   Atom        0.000774     -0.000760     -0.000014
    25   Atom        0.001298     -0.000225     -0.001073
    26   Atom        0.000575      0.000787     -0.001362
    27   Atom        0.000302      0.000552     -0.000853
    28   Atom        0.000777      0.000336     -0.001113
    29   Atom       -0.225972     -0.159644      0.385616
    30   Atom        0.034659      0.051566     -0.086225
    31   Atom       -0.097827     -0.054917      0.152744
    32   Atom        0.037229      0.051951     -0.089180
    33   Atom       -0.075268     -0.049258      0.124525
    34   Atom       -0.003989      0.009646     -0.005657
    35   Atom       -0.231945     -0.166857      0.398802
    36   Atom       -0.008060      0.013559     -0.005499
    37   Atom       -0.329053     -0.198690      0.527743
    38   Atom       -0.330029     -0.207308      0.537337
    39   Atom       -0.484122     -0.355537      0.839660
    40   Atom        0.013929     -0.000207     -0.013722
    41   Atom       -0.036762     -0.017113      0.053876
    42   Atom       -0.043189     -0.017488      0.060678
    43   Atom        0.022651      0.013161     -0.035812
    44   Atom        0.000361      0.003606     -0.003967
    45   Atom        0.021513      0.012230     -0.033743
    46   Atom       -0.000245      0.005621     -0.005376
    47   Atom       -0.054302     -0.049403      0.103705
    48   Atom        0.002689     -0.000410     -0.002279
    49   Atom        0.002365     -0.000205     -0.002159
    50   Atom        0.001535     -0.002290      0.000756
    51   Atom        0.001577     -0.000149     -0.001428
    52   Atom        0.002386     -0.001247     -0.001139
    53   Atom        0.000799     -0.004790      0.003990
    54   Atom        0.001220     -0.000438     -0.000782
    55   Atom        0.000730     -0.001176      0.000446
    56   Atom        0.002977     -0.001546     -0.001431
    57   Atom        0.001040     -0.000542     -0.000498
    58   Atom        0.000714     -0.000537     -0.000177
 --------------------------------------------------------
                        XY            XZ            YZ
 --------------------------------------------------------
     1   Atom       -0.007432     -0.007490      0.066600
     2   Atom       -0.001698     -0.000209     -0.007663
     3   Atom        0.013358      0.020709      0.049848
     4   Atom        0.001042      0.004601     -0.013356
     5   Atom       -0.000756      0.000096      0.052030
     6   Atom        0.000310     -0.001235     -0.015665
     7   Atom        0.002968      0.001522     -0.002178
     8   Atom        0.000460     -0.000877     -0.001880
     9   Atom        0.000459      0.000119     -0.000743
    10   Atom        0.001480     -0.000770     -0.001039
    11   Atom        0.000460     -0.001115      0.018371
    12   Atom        0.000162     -0.000206     -0.007606
    13   Atom        0.001104      0.001030      0.020444
    14   Atom        0.000775     -0.000377     -0.006803
    15   Atom       -0.000025      0.001042      0.016907
    16   Atom       -0.000851     -0.000646     -0.005743
    17   Atom        0.000142     -0.000058     -0.000103
    18   Atom        0.002168     -0.000716      0.000573
    19   Atom        0.000431     -0.000124     -0.000340
    20   Atom       -0.000112      0.000080     -0.001064
    21   Atom        0.000681     -0.000377     -0.000279
    22   Atom        0.000529     -0.000435     -0.000654
    23   Atom        0.001210     -0.000968     -0.001028
    24   Atom        0.000549     -0.000757     -0.000900
    25   Atom        0.000757     -0.000062     -0.000330
    26   Atom        0.001513      0.000054      0.000078
    27   Atom        0.000675      0.000049      0.000033
    28   Atom        0.000796      0.000309      0.000696
    29   Atom       -0.000377     -0.014351     -0.196359
    30   Atom        0.001185      0.003735      0.053966
    31   Atom       -0.005043     -0.004866     -0.103466
    32   Atom        0.005019      0.005148      0.055263
    33   Atom        0.009729     -0.007010     -0.083655
    34   Atom        0.014069      0.004552      0.006037
    35   Atom        0.008727     -0.012865     -0.205847
    36   Atom       -0.007918     -0.002408      0.006977
    37   Atom       -0.002885      0.021666     -0.330636
    38   Atom        0.023465     -0.073669     -0.324021
    39   Atom        0.007993     -0.034093     -0.467664
    40   Atom       -0.002548     -0.003140     -0.012581
    41   Atom        0.016191      0.025275      0.057658
    42   Atom       -0.006921     -0.005451      0.055177
    43   Atom       -0.003644     -0.004761     -0.015462
    44   Atom       -0.001923     -0.002288     -0.001455
    45   Atom       -0.003207     -0.008521     -0.013285
    46   Atom        0.001064      0.000105     -0.001855
    47   Atom        0.003056      0.015711      0.045530
    48   Atom       -0.001370     -0.000422     -0.000506
    49   Atom       -0.000271     -0.000579     -0.000705
    50   Atom       -0.000452      0.000843      0.001438
    51   Atom       -0.001844     -0.000221      0.000154
    52   Atom        0.000319     -0.001030     -0.000111
    53   Atom        0.000986      0.006303      0.001856
    54   Atom        0.000384      0.000948      0.000917
    55   Atom       -0.000668      0.000952     -0.000834
    56   Atom        0.000249      0.000932      0.000014
    57   Atom        0.000044      0.000026     -0.000066
    58   Atom       -0.000157      0.000405      0.000002
 --------------------------------------------------------


 ---------------------------------------------------------------------------------
              Anisotropic Spin Dipole Couplings in Principal Axis System
 ---------------------------------------------------------------------------------

       Atom             a.u.   MegaHertz   Gauss  10(-4) cm-1        Axes

              Baa    -0.0536    -7.194    -2.567    -2.400  0.4478  0.7852 -0.4277
     1 C(13)  Bbb    -0.0471    -6.324    -2.257    -2.110  0.8915 -0.3553  0.2810
              Bcc     0.1007    13.518     4.824     4.509 -0.0687  0.5071  0.8591
 
              Baa    -0.0119    -1.596    -0.570    -0.532  0.0808  0.8297  0.5523
     2 C(13)  Bbb     0.0046     0.612     0.218     0.204 -0.2887 -0.5108  0.8097
              Bcc     0.0073     0.984     0.351     0.328  0.9540 -0.2249  0.1983
 
              Baa    -0.0463    -6.217    -2.218    -2.074 -0.4028  0.8520 -0.3344
     3 C(13)  Bbb    -0.0390    -5.235    -1.868    -1.746  0.8934  0.2865 -0.3461
              Bcc     0.0853    11.452     4.086     3.820  0.1990  0.4382  0.8766
 
              Baa    -0.0343    -4.606    -1.643    -1.536 -0.0850  0.2956  0.9515
     4 C(13)  Bbb     0.0131     1.759     0.628     0.587  0.0456  0.9551 -0.2926
              Bcc     0.0212     2.847     1.016     0.950  0.9953 -0.0185  0.0947
 
              Baa    -0.0674    -9.041    -3.226    -3.016  0.1111  0.9548 -0.2756
     5 C(13)  Bbb    -0.0606    -8.127    -2.900    -2.711  0.9938 -0.1066  0.0314
              Bcc     0.1279    17.168     6.126     5.727 -0.0006  0.2774  0.9608
 
              Baa    -0.0411    -5.514    -1.968    -1.839  0.0169  0.2796  0.9600
     6 C(13)  Bbb     0.0172     2.305     0.822     0.769 -0.0957  0.9561 -0.2768
              Bcc     0.0239     3.210     1.145     1.071  0.9953  0.0872 -0.0430
 
              Baa    -0.0057    -3.017    -1.077    -1.006 -0.3353  0.3408  0.8783
     7 H(1)   Bbb     0.0004     0.215     0.077     0.072  0.7427 -0.4779  0.4690
              Bcc     0.0053     2.802     1.000     0.935  0.5796  0.8096 -0.0929
 
              Baa    -0.0059    -3.174    -1.133    -1.059  0.1344  0.1537  0.9789
     8 H(1)   Bbb    -0.0000    -0.020    -0.007    -0.007  0.9860 -0.1190 -0.1167
              Bcc     0.0060     3.194     1.140     1.065  0.0985  0.9809 -0.1675
 
              Baa    -0.0027    -1.467    -0.523    -0.489 -0.0462  0.3550  0.9337
     9 H(1)   Bbb    -0.0005    -0.267    -0.095    -0.089 -0.1037  0.9280 -0.3579
              Bcc     0.0032     1.733     0.619     0.578  0.9935  0.1133  0.0060
 
              Baa    -0.0022    -0.300    -0.107    -0.100  0.0650  0.3305  0.9416
    10 C(13)  Bbb    -0.0006    -0.075    -0.027    -0.025 -0.6428  0.7356 -0.2138
              Bcc     0.0028     0.376     0.134     0.125  0.7633  0.5913 -0.2603
 
              Baa    -0.0207    -2.775    -0.990    -0.926 -0.4271  0.8526 -0.3010
    11 C(13)  Bbb    -0.0186    -2.498    -0.891    -0.833  0.9041  0.4084 -0.1260
              Bcc     0.0393     5.273     1.881     1.759 -0.0155  0.3259  0.9453
 
              Baa    -0.0183    -2.459    -0.878    -0.820  0.0051  0.3064  0.9519
    12 C(13)  Bbb     0.0077     1.038     0.370     0.346 -0.0763  0.9493 -0.3051
              Bcc     0.0106     1.421     0.507     0.474  0.9971  0.0711 -0.0282
 
              Baa    -0.0249    -3.342    -1.193    -1.115 -0.2738  0.9193 -0.2828
    13 C(13)  Bbb    -0.0221    -2.962    -1.057    -0.988  0.9616  0.2558 -0.0993
              Bcc     0.0470     6.304     2.249     2.103  0.0190  0.2992  0.9540
 
              Baa    -0.0159    -2.129    -0.760    -0.710  0.0050  0.3055  0.9522
    14 C(13)  Bbb     0.0070     0.936     0.334     0.312 -0.5247  0.8114 -0.2576
              Bcc     0.0089     1.193     0.426     0.398  0.8513  0.4983 -0.1644
 
              Baa    -0.0195    -2.614    -0.933    -0.872  0.2738  0.9122 -0.3048
    15 C(13)  Bbb    -0.0182    -2.436    -0.869    -0.813  0.9616 -0.2655  0.0694
              Bcc     0.0376     5.050     1.802     1.684  0.0176  0.3121  0.9499
 
              Baa    -0.0151    -2.025    -0.723    -0.676  0.0345  0.3040  0.9520
    16 C(13)  Bbb     0.0047     0.637     0.227     0.212  0.1104  0.9456 -0.3060
              Bcc     0.0103     1.388     0.495     0.463  0.9933 -0.1156  0.0009
 
              Baa    -0.0010    -0.511    -0.182    -0.170  0.0080  0.2539  0.9672
    17 H(1)   Bbb    -0.0006    -0.295    -0.105    -0.098 -0.0739  0.9647 -0.2526
              Bcc     0.0015     0.805     0.287     0.269  0.9972  0.0694 -0.0265
 
              Baa    -0.0034    -1.818    -0.649    -0.607 -0.3297  0.9026 -0.2769
    18 H(1)   Bbb    -0.0005    -0.276    -0.099    -0.092  0.0110  0.2970  0.9548
              Bcc     0.0039     2.094     0.747     0.699  0.9440  0.3118 -0.1079
 
              Baa    -0.0009    -0.466    -0.166    -0.155 -0.0101  0.3079  0.9514
    19 H(1)   Bbb    -0.0000    -0.017    -0.006    -0.006 -0.5971  0.7613 -0.2527
              Bcc     0.0009     0.482     0.172     0.161  0.8021  0.5706 -0.1761
 
              Baa    -0.0012    -0.641    -0.229    -0.214  0.8399 -0.1468 -0.5225
    20 H(1)   Bbb    -0.0011    -0.595    -0.212    -0.199  0.5415  0.2936  0.7878
              Bcc     0.0023     1.236     0.441     0.412 -0.0378  0.9446 -0.3261
 
              Baa    -0.0012    -0.164    -0.058    -0.055  0.0957  0.1920  0.9767
    21 C(13)  Bbb    -0.0004    -0.054    -0.019    -0.018 -0.4011  0.9055 -0.1387
              Bcc     0.0016     0.217     0.078     0.072  0.9110  0.3785 -0.1636
 
              Baa    -0.0008    -0.443    -0.158    -0.148  0.0477  0.5722  0.8187
    22 H(1)   Bbb    -0.0003    -0.150    -0.053    -0.050  0.7678 -0.5453  0.3364
              Bcc     0.0011     0.592     0.211     0.198  0.6389  0.6126 -0.4653
 
              Baa    -0.0013    -0.708    -0.253    -0.236  0.0867  0.5397  0.8374
    23 H(1)   Bbb    -0.0009    -0.476    -0.170    -0.159  0.7396 -0.5980  0.3088
              Bcc     0.0022     1.184     0.423     0.395  0.6674  0.5926 -0.4510
 
              Baa    -0.0014    -0.727    -0.259    -0.242 -0.0212  0.8370  0.5468
    24 H(1)   Bbb    -0.0003    -0.138    -0.049    -0.046  0.6706 -0.3937  0.6287
              Bcc     0.0016     0.864     0.308     0.288  0.7415  0.3801 -0.5530
 
              Baa    -0.0012    -0.161    -0.058    -0.054 -0.0928  0.3818  0.9196
    25 C(13)  Bbb    -0.0004    -0.056    -0.020    -0.019 -0.3835  0.8386 -0.3869
              Bcc     0.0016     0.218     0.078     0.073  0.9189  0.3886 -0.0686
 
              Baa    -0.0014    -0.728    -0.260    -0.243  0.0009 -0.0368  0.9993
    26 H(1)   Bbb    -0.0008    -0.446    -0.159    -0.149  0.7317 -0.6812 -0.0257
              Bcc     0.0022     1.174     0.419     0.392  0.6817  0.7312  0.0264
 
              Baa    -0.0009    -0.456    -0.163    -0.152 -0.0392 -0.0048  0.9992
    27 H(1)   Bbb    -0.0003    -0.138    -0.049    -0.046  0.7678 -0.6401  0.0270
              Bcc     0.0011     0.595     0.212     0.198  0.6395  0.7683  0.0288
 
              Baa    -0.0014    -0.743    -0.265    -0.248  0.0060 -0.3758  0.9267
    28 H(1)   Bbb    -0.0002    -0.086    -0.031    -0.029 -0.6731  0.6838  0.2816
              Bcc     0.0016     0.829     0.296     0.276  0.7395  0.6255  0.2488
 
              Baa    -0.2297   -30.817   -10.996   -10.280  0.8130  0.5489  0.1941
    29 C(13)  Bbb    -0.2196   -29.466   -10.514    -9.829 -0.5819  0.7775  0.2385
              Bcc     0.4492    60.284    21.511    20.108 -0.0201 -0.3069  0.9515
 
              Baa    -0.1049   -14.079    -5.024    -4.696 -0.0225 -0.3258  0.9452
    30 C(13)  Bbb     0.0346     4.640     1.656     1.548  0.9976 -0.0693 -0.0001
              Bcc     0.0703     9.439     3.368     3.148  0.0655  0.9429  0.3266
 
              Baa    -0.1043   -13.993    -4.993    -4.668  0.7120  0.6466  0.2738
    31 C(13)  Bbb    -0.0912   -12.243    -4.369    -4.084  0.7021 -0.6605 -0.2661
              Bcc     0.1955    26.237     9.362     8.752 -0.0088 -0.3817  0.9243
 
              Baa    -0.1083   -14.535    -5.186    -4.848 -0.0222 -0.3253  0.9454
    32 C(13)  Bbb     0.0361     4.847     1.729     1.617  0.9832 -0.1783 -0.0382
              Bcc     0.0722     9.688     3.457     3.232  0.1810  0.9287  0.3238
 
              Baa    -0.0867   -11.635    -4.152    -3.881 -0.5024  0.8095  0.3039
    33 C(13)  Bbb    -0.0720    -9.660    -3.447    -3.222  0.8636  0.4521  0.2233
              Bcc     0.1587    21.295     7.598     7.103 -0.0433 -0.3746  0.9262
 
              Baa    -0.0129    -6.874    -2.453    -2.293  0.8562 -0.5027 -0.1194
    34 H(1)   Bbb    -0.0077    -4.129    -1.473    -1.377 -0.0416 -0.2975  0.9538
              Bcc     0.0206    11.003     3.926     3.670  0.5150  0.8117  0.2757
 
              Baa    -0.2374   -31.862   -11.369   -10.628 -0.6406  0.7343  0.2246
    35 C(13)  Bbb    -0.2287   -30.684   -10.949   -10.235  0.7676  0.6042  0.2139
              Bcc     0.4661    62.546    22.318    20.863 -0.0214 -0.3095  0.9507
 
              Baa    -0.0107    -5.684    -2.028    -1.896  0.9530  0.3006  0.0383
    36 H(1)   Bbb    -0.0078    -4.146    -1.479    -1.383  0.0538 -0.2923  0.9548
              Bcc     0.0184     9.831     3.508     3.279 -0.2982  0.9079  0.2948
 
              Baa    -0.3334   -12.859    -4.588    -4.289  0.7965 -0.5575 -0.2341
    37 N(14)  Bbb    -0.3228   -12.448    -4.442    -4.152  0.6042  0.7477  0.2753
              Bcc     0.6562    25.306     9.030     8.441  0.0216 -0.3607  0.9324
 
              Baa    -0.3376   -13.022    -4.647    -4.344  0.9186  0.3390  0.2029
    38 N(14)  Bbb    -0.3269   -12.609    -4.499    -4.206 -0.3875  0.8736  0.2945
              Bcc     0.6646    25.631     9.146     8.550 -0.0774 -0.3491  0.9339
 
              Baa    -0.5172   -21.203    -7.566    -7.073  0.1096  0.9389  0.3264
    39 S(33)  Bbb    -0.4845   -19.866    -7.089    -6.627  0.9937 -0.1113 -0.0137
              Bcc     1.0017    41.069    14.655    13.699 -0.0234 -0.3258  0.9451
 
              Baa    -0.0217    -2.911    -1.039    -0.971  0.1117  0.5119  0.8517
    40 C(13)  Bbb     0.0073     0.976     0.348     0.325  0.0794  0.8498 -0.5212
              Bcc     0.0144     1.936     0.691     0.646  0.9906 -0.1259 -0.0542
 
              Baa    -0.0498    -6.687    -2.386    -2.230 -0.2688  0.8682 -0.4172
    41 C(13)  Bbb    -0.0432    -5.794    -2.067    -1.933  0.9366  0.1344 -0.3237
              Bcc     0.0930    12.481     4.453     4.163  0.2250  0.4777  0.8492
 
              Baa    -0.0487    -6.531    -2.330    -2.178  0.5875  0.7338 -0.3410
    42 C(13)  Bbb    -0.0410    -5.505    -1.964    -1.836  0.8070 -0.4999  0.3145
              Bcc     0.0897    12.036     4.295     4.015 -0.0603  0.4599  0.8859
 
              Baa    -0.0408    -5.472    -1.953    -1.825  0.0878  0.2800  0.9560
    43 C(13)  Bbb     0.0169     2.266     0.808     0.756  0.3259  0.8988 -0.2932
              Bcc     0.0239     3.206     1.144     1.070  0.9413 -0.3373  0.0123
 
              Baa    -0.0054    -2.907    -1.037    -0.970  0.4216  0.2304  0.8770
    44 H(1)   Bbb     0.0009     0.497     0.177     0.166  0.8155  0.3265 -0.4778
              Bcc     0.0045     2.411     0.860     0.804 -0.3965  0.9167 -0.0502
 
              Baa    -0.0387    -5.189    -1.852    -1.731  0.1489  0.2585  0.9545
    45 C(13)  Bbb     0.0157     2.105     0.751     0.702  0.1198  0.9534 -0.2769
              Bcc     0.0230     3.084     1.101     1.029  0.9816 -0.1556 -0.1110
 
              Baa    -0.0057    -3.038    -1.084    -1.014 -0.0514  0.1663  0.9847
    46 H(1)   Bbb    -0.0004    -0.213    -0.076    -0.071  0.9856 -0.1505  0.0769
              Bcc     0.0061     3.252     1.160     1.085  0.1610  0.9745 -0.1562
 
              Baa    -0.0622    -8.340    -2.976    -2.782  0.1864  0.9428 -0.2765
    47 C(13)  Bbb    -0.0556    -7.454    -2.660    -2.487  0.9781 -0.2045 -0.0380
              Bcc     0.1177    15.794     5.636     5.268  0.0924  0.2633  0.9603
 
              Baa    -0.0025    -1.349    -0.482    -0.450  0.1611  0.3266  0.9313
    48 H(1)   Bbb    -0.0007    -0.367    -0.131    -0.122  0.3114  0.8786 -0.3620
              Bcc     0.0032     1.716     0.612     0.572  0.9365 -0.3483 -0.0398
 
              Baa    -0.0025    -1.318    -0.470    -0.440  0.1302  0.3088  0.9422
    49 H(1)   Bbb     0.0000     0.011     0.004     0.004  0.0315  0.9485 -0.3153
              Bcc     0.0025     1.307     0.467     0.436  0.9910 -0.0707 -0.1138
 
              Baa    -0.0030    -0.400    -0.143    -0.134  0.1629  0.9080 -0.3860
    50 C(13)  Bbb     0.0009     0.116     0.041     0.039 -0.5984  0.4020  0.6931
              Bcc     0.0021     0.285     0.102     0.095  0.7845  0.1181  0.6088
 
              Baa    -0.0014    -0.772    -0.275    -0.257  0.0059 -0.1094  0.9940
    51 H(1)   Bbb    -0.0013    -0.705    -0.251    -0.235  0.5394  0.8373  0.0889
              Bcc     0.0028     1.476     0.527     0.492  0.8420 -0.5357 -0.0639
 
              Baa    -0.0014    -0.759    -0.271    -0.253  0.2454  0.1591  0.9563
    52 H(1)   Bbb    -0.0013    -0.678    -0.242    -0.226 -0.1229  0.9836 -0.1321
              Bcc     0.0027     1.437     0.513     0.479  0.9616  0.0851 -0.2610
 
              Baa    -0.0052    -0.699    -0.250    -0.233  0.1585  0.9412 -0.2984
    53 C(13)  Bbb    -0.0040    -0.536    -0.191    -0.179  0.7807 -0.3045 -0.5457
              Bcc     0.0092     1.235     0.441     0.412  0.6045  0.1465  0.7830
 
              Baa    -0.0016    -0.874    -0.312    -0.292 -0.1935 -0.5557  0.8086
    54 H(1)   Bbb    -0.0002    -0.101    -0.036    -0.034 -0.4871  0.7698  0.4125
              Bcc     0.0018     0.976     0.348     0.325  0.8517  0.3140  0.4196
 
              Baa    -0.0016    -0.834    -0.298    -0.278  0.1387  0.9362  0.3229
    55 H(1)   Bbb    -0.0003    -0.185    -0.066    -0.062  0.7022  0.1370 -0.6987
              Bcc     0.0019     1.019     0.364     0.340  0.6984 -0.3236  0.6384
 
              Baa    -0.0016    -0.063    -0.023    -0.021 -0.2017  0.4145  0.8874
    56 N(14)  Bbb    -0.0015    -0.059    -0.021    -0.020  0.0358  0.9086 -0.4162
              Bcc     0.0032     0.123     0.044     0.041  0.9788  0.0522  0.1981
 
              Baa    -0.0006    -0.316    -0.113    -0.105 -0.0313  0.8103  0.5851
    57 H(1)   Bbb    -0.0005    -0.240    -0.086    -0.080  0.0034 -0.5853  0.8108
              Bcc     0.0010     0.556     0.198     0.185  0.9995  0.0273  0.0156
 
              Baa    -0.0006    -0.302    -0.108    -0.101  0.1785  0.9654 -0.1901
    58 H(1)   Bbb    -0.0003    -0.171    -0.061    -0.057 -0.3227  0.2399  0.9156
              Bcc     0.0009     0.473     0.169     0.158  0.9295 -0.1021  0.3543
 

 ---------------------------------------------------------------------------------

 No NMR shielding tensors so no spin-rotation constants.
 Leave Link  601 at Thu Mar 14 09:20:51 2024, MaxMem= 32212254720 cpu:               8.4 elap:               0.3
 (Enter /home/<user>/g16/l701.exe)
 ... and contract with generalized density number  0.
 Compute integral first derivatives.
 Leave Link  701 at Thu Mar 14 09:20:51 2024, MaxMem= 32212254720 cpu:               5.0 elap:               0.2
 (Enter /home/<user>/g16/l702.exe)
 L702 exits ... SP integral derivatives will be done elsewhere.
 Leave Link  702 at Thu Mar 14 09:20:51 2024, MaxMem= 32212254720 cpu:               0.7 elap:               0.0
 (Enter /home/<user>/g16/l703.exe)
 Integral derivatives from FoFJK, PRISM(SPDF).
 Compute integral first derivatives, UseDBF=F ICtDFT=           0.
 Calling FoFJK, ICntrl=      2127 FMM=F ISym2X=0 I1Cent= 0 IOpClX= 1 NMat=1 NMatS=1 NMatT=0.
 FoFJK:  IHMeth= 1 ICntrl=    2127 DoSepK=F KAlg= 0 I1Cent=           0 FoldK=F
 IRaf=         0 NMat=       1 IRICut=       1 DoRegI=T DoRafI=F ISym2E= 0 IDoP0=0 IntGTp=1.
 FoFCou: FMM=F IPFlag=           0 FMFlag=      100000 FMFlg1=         800
         NFxFlg=           0 DoJE=F BraDBF=F KetDBF=F FulRan=T
         wScrn=  0.000000 ICntrl=      2127 IOpCl=  1 I1Cent=           0 NGrid=           0
         NMat0=    1 NMatS0=      1 NMatT0=    0 NMatD0=    1 NMtDS0=    0 NMtDT0=    0
 Symmetry not used in FoFCou.
 Leave Link  703 at Thu Mar 14 09:20:58 2024, MaxMem= 32212254720 cpu:             199.7 elap:               6.7
 (Enter /home/<user>/g16/l716.exe)
 Dipole        =-5.33632530D-01-9.96172164D-01-2.58136094D-01
 ***** Axes restored to original set *****
 -------------------------------------------------------------------
 Center     Atomic                   Forces (Hartrees/Bohr)
 Number     Number              X              Y              Z
 -------------------------------------------------------------------
      1        6          -0.006795746    0.008414048    0.000073455
      2        6           0.021133154   -0.003020132   -0.000499251
      3        6          -0.007055457   -0.006638758   -0.001428759
      4        6           0.005066589   -0.003873428    0.001874909
      5        6          -0.006097927    0.000068806    0.000377878
      6        6           0.005435823    0.003001283   -0.000910847
      7        1           0.000470144   -0.000439024    0.000342739
      8        1          -0.000220194   -0.000115726   -0.000491311
      9        1           0.000188059   -0.000194473   -0.000256177
     10        6          -0.000030224   -0.000456387    0.000428789
     11        6          -0.000065847   -0.001437980    0.000478385
     12        6           0.000562758   -0.000429487    0.000082997
     13        6           0.000047227   -0.000448529    0.000123408
     14        6           0.000797288    0.001197697   -0.000361231
     15        6          -0.001742191    0.001147564   -0.000396692
     16        6           0.003981181    0.000614200   -0.000457544
     17        1           0.000050213    0.000116863   -0.000028100
     18        1           0.000080341    0.000025973    0.000004650
     19        1           0.000123640   -0.000041932    0.000022413
     20        1          -0.000050084   -0.000096052    0.000023590
     21        6           0.000010267    0.000039709    0.000178370
     22        1           0.000036275    0.000041188   -0.000061006
     23        1          -0.000091185    0.000049900   -0.000045743
     24        1           0.000026526   -0.000046537    0.000041756
     25        6           0.000064504   -0.000037731   -0.000150502
     26        1          -0.000088797    0.000084233    0.000013629
     27        1           0.000031383    0.000084046    0.000024889
     28        1           0.000014544   -0.000060226   -0.000027685
     29        6          -0.026214485    0.045310581    0.015294449
     30        6          -0.002313410    0.002337770   -0.002860486
     31        6           0.055459119   -0.051462850   -0.012267643
     32        6           0.002471379    0.001131141   -0.002524783
     33        6          -0.065611640   -0.035066931   -0.010534430
     34        1           0.001133346   -0.000515899   -0.000636460
     35        6           0.032981276    0.036846479    0.013908854
     36        1          -0.001228976   -0.000157490   -0.000631686
     37        7          -0.016234846   -0.014885941   -0.005107246
     38        7           0.011933592   -0.018054945   -0.005549330
     39       16           0.004735635    0.035888091    0.012399903
     40        6          -0.016830075    0.002098880   -0.000035942
     41        6           0.005970696    0.005228442   -0.000077829
     42        6           0.003439338   -0.006478221   -0.001368235
     43        6          -0.002982741    0.002577613   -0.000397375
     44        1          -0.000522064   -0.000298534    0.000329996
     45        6          -0.003563826   -0.001584909    0.001631889
     46        1           0.000148282   -0.000222758   -0.000465064
     47        6           0.002458265   -0.000291262    0.000155360
     48        1          -0.000194455   -0.000118852   -0.000150977
     49        1          -0.000036108    0.000133188    0.000167768
     50        6          -0.000558160   -0.000176682   -0.000891426
     51        1          -0.000068722   -0.000047953    0.000089993
     52        1          -0.000096762    0.000053156    0.000073238
     53        6           0.000133450    0.000311364    0.000779254
     54        1           0.000009737   -0.000098044   -0.000048616
     55        1           0.000032500    0.000024968   -0.000002871
     56        7          -0.000247485    0.000016347   -0.000285504
     57        1           0.000018084    0.000007403    0.000025218
     58        1          -0.000103211   -0.000053263    0.000002971
 -------------------------------------------------------------------
 Cartesian Forces:  Max     0.065611640 RMS     0.010962560
 Leave Link  716 at Thu Mar 14 09:20:58 2024, MaxMem= 32212254720 cpu:               0.7 elap:               0.0
 (Enter /home/<user>/g16/l103.exe)

 GradGradGradGradGradGradGradGradGradGradGradGradGradGradGradGradGradGrad
 Berny optimization.
 FormGI is forming the generalized inverse of G from B-inverse, IUseBI=4.
 GSVD:  received Info=                   1 from GESDD.
 Internal  Forces:  Max     0.049538424 RMS     0.005163445
 Search for a local minimum.
 Step number   1 out of a maximum of  346
 All quantities printed in internal units (Hartrees-Bohrs-Radians)
 RMS Force = .51634D-02 SwitMx=.10000D-02 MixMth= 1
 Mixed Optimization -- RFO/linear search
 Second derivative matrix not updated -- first step.
 ITU=  0
     Eigenvalues ---    0.00230   0.00230   0.00250   0.00611   0.00754
     Eigenvalues ---    0.00810   0.01027   0.01033   0.01253   0.01452
     Eigenvalues ---    0.01467   0.01604   0.01608   0.01639   0.01639
     Eigenvalues ---    0.01655   0.01692   0.01714   0.01732   0.01757
     Eigenvalues ---    0.01884   0.01903   0.02006   0.02027   0.02037
     Eigenvalues ---    0.02068   0.02077   0.02084   0.02088   0.02094
     Eigenvalues ---    0.02112   0.02114   0.02119   0.02120   0.02122
     Eigenvalues ---    0.02134   0.02143   0.02145   0.02146   0.02155
     Eigenvalues ---    0.02160   0.02161   0.02189   0.02292   0.04037
     Eigenvalues ---    0.04268   0.04398   0.04475   0.05426   0.05428
     Eigenvalues ---    0.05431   0.05497   0.05497   0.05554   0.05979
     Eigenvalues ---    0.08012   0.08978   0.09291   0.11605   0.12617
     Eigenvalues ---    0.12832   0.15987   0.15992   0.15993   0.15995
     Eigenvalues ---    0.15999   0.16000   0.16000   0.16000   0.16000
     Eigenvalues ---    0.16000   0.16000   0.16000   0.16000   0.16000
     Eigenvalues ---    0.16000   0.16000   0.16000   0.16000   0.16000
     Eigenvalues ---    0.16000   0.16000   0.18962   0.21874   0.21950
     Eigenvalues ---    0.22000   0.22000   0.22451   0.22465   0.22615
     Eigenvalues ---    0.22951   0.23523   0.23992   0.24472   0.24529
     Eigenvalues ---    0.24663   0.24980   0.24981   0.24988   0.24990
     Eigenvalues ---    0.24997   0.24998   0.24999   0.24999   0.24999
     Eigenvalues ---    0.28050   0.28067   0.28484   0.28609   0.29012
     Eigenvalues ---    0.31179   0.33128   0.33785   0.34027   0.34037
     Eigenvalues ---    0.34090   0.34100   0.34104   0.34105   0.34131
     Eigenvalues ---    0.34276   0.34289   0.34542   0.34594   0.34766
     Eigenvalues ---    0.35033   0.35049   0.35084   0.35151   0.35154
     Eigenvalues ---    0.35158   0.35186   0.35189   0.35222   0.35283
     Eigenvalues ---    0.35287   0.35571   0.35607   0.36142   0.37940
     Eigenvalues ---    0.38123   0.38999   0.40437   0.41409   0.41434
     Eigenvalues ---    0.41611   0.41653   0.42109   0.42369   0.42658
     Eigenvalues ---    0.43586   0.44364   0.44523   0.44545   0.44935
     Eigenvalues ---    0.44950   0.45054   0.45798   0.45947   0.46077
     Eigenvalues ---    0.46106   0.46907   0.46962   0.47199   0.47533
     Eigenvalues ---    0.48084   0.54483   0.56913
 RFO step:  Lambda=-2.16728270D-02 EMin= 2.30000000D-03
 Linear search not attempted -- first point.
 Iteration  1 RMS(Cart)=  0.06375032 RMS(Int)=  0.00118210
 Iteration  2 RMS(Cart)=  0.00221473 RMS(Int)=  0.00006079
 Iteration  3 RMS(Cart)=  0.00000434 RMS(Int)=  0.00006077
 Iteration  4 RMS(Cart)=  0.00000000 RMS(Int)=  0.00006077
 ITry= 1 IFail=0 DXMaxC= 4.40D-01 DCOld= 1.00D+10 DXMaxT= 3.00D-01 DXLimC= 3.00D+00 Rises=F
 Variable       Old X    -DE/DX   Delta X   Delta X   Delta X     New X
                                 (Linear)    (Quad)   (Total)
    R1        2.66308   0.00674   0.00000   0.01472   0.01472   2.67779
    R2        2.63278  -0.00425   0.00000  -0.00873  -0.00872   2.62405
    R3        2.04700  -0.00018   0.00000  -0.00046  -0.00046   2.04654
    R4        2.66707   0.00649   0.00000   0.01431   0.01431   2.68138
    R5        2.79640  -0.01605   0.00000  -0.04365  -0.04365   2.75275
    R6        2.61958  -0.00413   0.00000  -0.00821  -0.00821   2.61137
    R7        2.05426  -0.00014   0.00000  -0.00039  -0.00039   2.05387
    R8        2.66224   0.00450   0.00000   0.00963   0.00963   2.67187
    R9        2.88960  -0.00041   0.00000  -0.00078  -0.00078   2.88882
   R10        2.63825   0.00417   0.00000   0.00843   0.00843   2.64668
   R11        2.77135  -0.00323   0.00000  -0.00879  -0.00879   2.76257
   R12        2.05419  -0.00018   0.00000  -0.00048  -0.00048   2.05370
   R13        2.88920  -0.00024   0.00000  -0.00059  -0.00059   2.88861
   R14        2.92030   0.00008   0.00000   0.00028   0.00028   2.92057
   R15        2.91993   0.00003   0.00000   0.00010   0.00010   2.92003
   R16        2.62728  -0.00063   0.00000  -0.00125  -0.00125   2.62603
   R17        2.66418   0.00173   0.00000   0.00356   0.00356   2.66774
   R18        2.64586   0.00039   0.00000   0.00074   0.00074   2.64660
   R19        2.05539  -0.00013   0.00000  -0.00034  -0.00034   2.05505
   R20        2.64370   0.00095   0.00000   0.00189   0.00189   2.64558
   R21        2.05370  -0.00008   0.00000  -0.00022  -0.00022   2.05347
   R22        2.63884  -0.00109   0.00000  -0.00227  -0.00227   2.63657
   R23        2.05373  -0.00012   0.00000  -0.00033  -0.00033   2.05340
   R24        2.63947   0.00140   0.00000   0.00298   0.00298   2.64245
   R25        2.05430  -0.00011   0.00000  -0.00028  -0.00028   2.05402
   R26        2.07156  -0.00007   0.00000  -0.00019  -0.00019   2.07137
   R27        2.07162  -0.00011   0.00000  -0.00030  -0.00030   2.07132
   R28        2.06846  -0.00001   0.00000  -0.00003  -0.00003   2.06842
   R29        2.07178  -0.00012   0.00000  -0.00032  -0.00032   2.07147
   R30        2.07153  -0.00007   0.00000  -0.00020  -0.00020   2.07132
   R31        2.06867   0.00001   0.00000   0.00002   0.00002   2.06869
   R32        2.72163  -0.00026   0.00000  -0.00185  -0.00197   2.71966
   R33        2.61139   0.04954   0.00000   0.09845   0.09857   2.70996
   R34        2.75844  -0.00212   0.00000  -0.01163  -0.01205   2.74639
   R35        2.52890   0.00146   0.00000   0.00151   0.00144   2.53034
   R36        2.68545  -0.04244   0.00000  -0.09312  -0.09289   2.59256
   R37        2.05212  -0.00005   0.00000  -0.00013  -0.00013   2.05199
   R38        2.72042  -0.00019   0.00000  -0.00179  -0.00190   2.71852
   R39        2.52921   0.00161   0.00000   0.00177   0.00169   2.53089
   R40        2.61048   0.04808   0.00000   0.09533   0.09546   2.70593
   R41        2.05218  -0.00009   0.00000  -0.00025  -0.00025   2.05194
   R42        2.79724  -0.01299   0.00000  -0.03540  -0.03540   2.76185
   R43        3.10267   0.02331   0.00000   0.05292   0.05307   3.15574
   R44        3.10273   0.02312   0.00000   0.05251   0.05266   3.15539
   R45        2.65674   0.00489   0.00000   0.01064   0.01063   2.66737
   R46        2.65783   0.00528   0.00000   0.01152   0.01152   2.66935
   R47        2.63118  -0.00268   0.00000  -0.00549  -0.00548   2.62570
   R48        2.04758  -0.00017   0.00000  -0.00045  -0.00045   2.04713
   R49        2.63008  -0.00261   0.00000  -0.00529  -0.00529   2.62479
   R50        2.05315  -0.00007   0.00000  -0.00019  -0.00019   2.05296
   R51        2.64792   0.00281   0.00000   0.00570   0.00570   2.65362
   R52        2.05621  -0.00016   0.00000  -0.00044  -0.00044   2.05577
   R53        2.64804   0.00280   0.00000   0.00568   0.00568   2.65373
   R54        2.05595  -0.00009   0.00000  -0.00025  -0.00025   2.05570
   R55        2.85672  -0.00087   0.00000  -0.00261  -0.00261   2.85411
   R56        2.07109   0.00001   0.00000   0.00003   0.00003   2.07112
   R57        2.07694  -0.00006   0.00000  -0.00018  -0.00018   2.07676
   R58        2.90825   0.00039   0.00000   0.00125   0.00125   2.90950
   R59        2.08826  -0.00011   0.00000  -0.00030  -0.00030   2.08796
   R60        2.07284  -0.00003   0.00000  -0.00008  -0.00008   2.07276
   R61        2.77161  -0.00031   0.00000  -0.00080  -0.00080   2.77081
   R62        1.92721  -0.00000   0.00000  -0.00001  -0.00001   1.92720
   R63        1.92534  -0.00005   0.00000  -0.00010  -0.00010   1.92524
    A1        2.11685  -0.00088   0.00000  -0.00314  -0.00315   2.11371
    A2        2.08115  -0.00025   0.00000  -0.00225  -0.00225   2.07890
    A3        2.08518   0.00114   0.00000   0.00540   0.00540   2.09058
    A4        2.07017   0.00074   0.00000   0.00361   0.00359   2.07376
    A5        2.12376  -0.00114   0.00000  -0.00460  -0.00460   2.11916
    A6        2.08895   0.00040   0.00000   0.00104   0.00105   2.09000
    A7        2.09899  -0.00101   0.00000  -0.00348  -0.00350   2.09550
    A8        2.08287   0.00068   0.00000   0.00268   0.00269   2.08556
    A9        2.10090   0.00032   0.00000   0.00068   0.00068   2.10158
   A10        2.10142  -0.00007   0.00000  -0.00079  -0.00080   2.10062
   A11        2.24633   0.00023   0.00000   0.00026   0.00027   2.24660
   A12        1.93539  -0.00016   0.00000   0.00056   0.00056   1.93594
   A13        2.09495   0.00138   0.00000   0.00466   0.00465   2.09960
   A14        1.89539  -0.00037   0.00000  -0.00107  -0.00107   1.89432
   A15        2.29281  -0.00101   0.00000  -0.00357  -0.00357   2.28924
   A16        2.08394  -0.00015   0.00000  -0.00081  -0.00082   2.08312
   A17        2.08963  -0.00005   0.00000  -0.00029  -0.00029   2.08934
   A18        2.10961   0.00020   0.00000   0.00111   0.00111   2.11072
   A19        1.76495  -0.00037   0.00000  -0.00224  -0.00224   1.76271
   A20        1.94396   0.00014   0.00000   0.00074   0.00075   1.94471
   A21        1.94482   0.00009   0.00000  -0.00004  -0.00004   1.94477
   A22        1.94316   0.00016   0.00000   0.00080   0.00081   1.94396
   A23        1.94430   0.00007   0.00000  -0.00002  -0.00003   1.94427
   A24        1.91873  -0.00010   0.00000   0.00058   0.00058   1.91931
   A25        2.24874  -0.00013   0.00000  -0.00066  -0.00066   2.24808
   A26        1.93642   0.00049   0.00000   0.00191   0.00191   1.93833
   A27        2.09802  -0.00036   0.00000  -0.00125  -0.00125   2.09678
   A28        2.08017  -0.00012   0.00000  -0.00062  -0.00061   2.07956
   A29        2.10971   0.00003   0.00000   0.00016   0.00016   2.10987
   A30        2.09330   0.00008   0.00000   0.00045   0.00045   2.09376
   A31        2.10395   0.00056   0.00000   0.00196   0.00196   2.10591
   A32        2.08949  -0.00029   0.00000  -0.00101  -0.00101   2.08849
   A33        2.08975  -0.00028   0.00000  -0.00096  -0.00096   2.08879
   A34        2.10429  -0.00001   0.00000  -0.00031  -0.00031   2.10398
   A35        2.08939   0.00005   0.00000   0.00041   0.00041   2.08980
   A36        2.08950  -0.00004   0.00000  -0.00009  -0.00009   2.08941
   A37        2.07473  -0.00031   0.00000  -0.00122  -0.00122   2.07351
   A38        2.09978   0.00013   0.00000   0.00043   0.00043   2.10021
   A39        2.10867   0.00019   0.00000   0.00079   0.00079   2.10946
   A40        1.89260   0.00040   0.00000   0.00083   0.00083   1.89343
   A41        2.28538  -0.00064   0.00000  -0.00226  -0.00226   2.28312
   A42        2.10521   0.00024   0.00000   0.00143   0.00143   2.10664
   A43        1.93147  -0.00008   0.00000  -0.00045  -0.00045   1.93102
   A44        1.93224  -0.00005   0.00000  -0.00034  -0.00034   1.93190
   A45        1.93912   0.00012   0.00000   0.00073   0.00073   1.93985
   A46        1.88235   0.00004   0.00000   0.00005   0.00005   1.88240
   A47        1.88862  -0.00000   0.00000   0.00008   0.00008   1.88870
   A48        1.88823  -0.00002   0.00000  -0.00008  -0.00008   1.88816
   A49        1.93184  -0.00007   0.00000  -0.00043  -0.00043   1.93142
   A50        1.93200  -0.00009   0.00000  -0.00055  -0.00055   1.93145
   A51        1.93946   0.00013   0.00000   0.00078   0.00078   1.94024
   A52        1.88163   0.00006   0.00000   0.00016   0.00016   1.88179
   A53        1.88885  -0.00002   0.00000  -0.00002  -0.00002   1.88883
   A54        1.88821  -0.00000   0.00000   0.00006   0.00006   1.88827
   A55        2.14977  -0.00334   0.00000  -0.01214  -0.01211   2.13765
   A56        2.12489  -0.00468   0.00000  -0.01704  -0.01702   2.10787
   A57        2.00850   0.00802   0.00000   0.02921   0.02915   2.03765
   A58        2.11574  -0.00250   0.00000  -0.01148  -0.01171   2.10402
   A59        2.19154   0.00012   0.00000   0.00765   0.00802   2.19956
   A60        1.97563   0.00238   0.00000   0.00379   0.00365   1.97928
   A61        2.15866  -0.00588   0.00000  -0.01868  -0.01840   2.14026
   A62        2.07173   0.00428   0.00000   0.01662   0.01646   2.08819
   A63        2.05217   0.00158   0.00000   0.00176   0.00160   2.05377
   A64        2.11612  -0.00219   0.00000  -0.01056  -0.01078   2.10534
   A65        1.97581   0.00224   0.00000   0.00339   0.00324   1.97905
   A66        2.19099  -0.00005   0.00000   0.00715   0.00752   2.19851
   A67        2.15815  -0.00559   0.00000  -0.01772  -0.01743   2.14072
   A68        2.05245   0.00147   0.00000   0.00149   0.00134   2.05379
   A69        2.07199   0.00411   0.00000   0.01599   0.01583   2.08782
   A70        2.00920   0.00814   0.00000   0.02921   0.02917   2.03837
   A71        2.14825  -0.00345   0.00000  -0.01231  -0.01229   2.13596
   A72        2.12571  -0.00469   0.00000  -0.01689  -0.01687   2.10884
   A73        1.86476   0.00409   0.00000   0.01490   0.01484   1.87959
   A74        1.86452   0.00417   0.00000   0.01515   0.01509   1.87961
   A75        1.74406  -0.01288   0.00000  -0.03726  -0.03691   1.70714
   A76        2.13161  -0.00081   0.00000  -0.00342  -0.00341   2.12820
   A77        2.09682   0.00022   0.00000   0.00038   0.00038   2.09720
   A78        2.05438   0.00060   0.00000   0.00311   0.00310   2.05748
   A79        2.10775  -0.00089   0.00000  -0.00320  -0.00321   2.10455
   A80        2.08768  -0.00021   0.00000  -0.00200  -0.00200   2.08568
   A81        2.08773   0.00110   0.00000   0.00522   0.00522   2.09295
   A82        2.11464  -0.00085   0.00000  -0.00294  -0.00295   2.11170
   A83        2.08573   0.00063   0.00000   0.00258   0.00258   2.08831
   A84        2.08253   0.00022   0.00000   0.00027   0.00028   2.08281
   A85        2.12123   0.00003   0.00000  -0.00020  -0.00020   2.12103
   A86        2.07908  -0.00011   0.00000  -0.00043  -0.00043   2.07865
   A87        2.08285   0.00008   0.00000   0.00064   0.00064   2.08349
   A88        2.11454  -0.00013   0.00000  -0.00075  -0.00076   2.11378
   A89        2.08401   0.00004   0.00000   0.00024   0.00025   2.08425
   A90        2.08462   0.00009   0.00000   0.00052   0.00053   2.08515
   A91        2.05378   0.00125   0.00000   0.00400   0.00399   2.05777
   A92        2.11721  -0.00057   0.00000  -0.00177  -0.00177   2.11544
   A93        2.11157  -0.00068   0.00000  -0.00216  -0.00216   2.10941
   A94        1.93253   0.00006   0.00000  -0.00002  -0.00002   1.93250
   A95        1.91460   0.00005   0.00000   0.00002   0.00002   1.91462
   A96        1.96719  -0.00028   0.00000  -0.00141  -0.00141   1.96577
   A97        1.86344   0.00003   0.00000   0.00099   0.00099   1.86443
   A98        1.88473   0.00006   0.00000   0.00014   0.00014   1.88487
   A99        1.89805   0.00009   0.00000   0.00043   0.00043   1.89847
   A100       1.89959   0.00014   0.00000   0.00059   0.00059   1.90019
   A101       1.90057   0.00011   0.00000   0.00033   0.00033   1.90090
   A102       1.92370  -0.00043   0.00000  -0.00192  -0.00192   1.92177
   A103       1.85817  -0.00006   0.00000   0.00019   0.00019   1.85836
   A104       1.99643   0.00015   0.00000   0.00071   0.00071   1.99714
   A105       1.88238   0.00010   0.00000   0.00017   0.00017   1.88256
   A106       1.91156   0.00005   0.00000   0.00029   0.00029   1.91186
   A107       1.91493  -0.00013   0.00000  -0.00070  -0.00070   1.91423
   A108       1.84784   0.00004   0.00000   0.00025   0.00025   1.84809
    D1       -0.01143   0.00011   0.00000   0.00262   0.00262  -0.00881
    D2        3.10331   0.00019   0.00000   0.00466   0.00466   3.10796
    D3        3.13347   0.00003   0.00000   0.00076   0.00076   3.13423
    D4       -0.03498   0.00011   0.00000   0.00280   0.00280  -0.03218
    D5        0.00611   0.00019   0.00000   0.00455   0.00454   0.01065
    D6       -3.13402   0.00014   0.00000   0.00334   0.00332  -3.13070
    D7       -3.13880   0.00027   0.00000   0.00640   0.00640  -3.13240
    D8        0.00425   0.00022   0.00000   0.00519   0.00518   0.00944
    D9        0.00879  -0.00042   0.00000  -0.00984  -0.00985  -0.00106
   D10       -3.10170  -0.00023   0.00000  -0.00550  -0.00552  -3.10722
   D11       -3.10650  -0.00048   0.00000  -0.01175  -0.01176  -3.11825
   D12        0.06620  -0.00029   0.00000  -0.00741  -0.00743   0.05877
   D13        0.65161  -0.00335   0.00000  -0.10352  -0.10348   0.54813
   D14       -2.49924  -0.00315   0.00000  -0.09911  -0.09914  -2.59838
   D15       -2.51713  -0.00326   0.00000  -0.10142  -0.10139  -2.61851
   D16        0.61521  -0.00307   0.00000  -0.09701  -0.09705   0.51817
   D17       -0.00101   0.00041   0.00000   0.00987   0.00984   0.00883
   D18       -3.13095   0.00031   0.00000   0.00684   0.00681  -3.12414
   D19        3.10915   0.00023   0.00000   0.00552   0.00550   3.11466
   D20       -0.02079   0.00013   0.00000   0.00250   0.00248  -0.01831
   D21       -0.00447  -0.00010   0.00000  -0.00254  -0.00255  -0.00702
   D22       -3.13826  -0.00019   0.00000  -0.00491  -0.00492   3.14000
   D23        3.12739  -0.00001   0.00000  -0.00001  -0.00002   3.12737
   D24       -0.00640  -0.00010   0.00000  -0.00239  -0.00240  -0.00879
   D25        3.13799   0.00016   0.00000   0.00434   0.00435  -3.14085
   D26        1.07204   0.00012   0.00000   0.00432   0.00433   1.07636
   D27       -1.07755   0.00008   0.00000   0.00305   0.00306  -1.07449
   D28        0.00715   0.00007   0.00000   0.00155   0.00156   0.00871
   D29       -2.05880   0.00002   0.00000   0.00154   0.00154  -2.05726
   D30        2.07480  -0.00002   0.00000   0.00027   0.00027   2.07507
   D31        0.00193  -0.00021   0.00000  -0.00467  -0.00469  -0.00276
   D32       -3.14114  -0.00015   0.00000  -0.00344  -0.00346   3.13859
   D33        3.13367  -0.00009   0.00000  -0.00164  -0.00167   3.13200
   D34       -0.00940  -0.00003   0.00000  -0.00042  -0.00043  -0.00984
   D35        0.00269   0.00009   0.00000   0.00223   0.00224   0.00493
   D36       -3.13870   0.00006   0.00000   0.00152   0.00152  -3.13718
   D37       -3.12990  -0.00003   0.00000  -0.00056  -0.00054  -3.13044
   D38        0.01190  -0.00005   0.00000  -0.00127  -0.00126   0.01064
   D39        3.13718  -0.00004   0.00000  -0.00085  -0.00085   3.13633
   D40       -0.00545  -0.00002   0.00000  -0.00016  -0.00016  -0.00562
   D41       -1.07948  -0.00001   0.00000  -0.00087  -0.00087  -1.08035
   D42        2.06108   0.00002   0.00000  -0.00018  -0.00018   2.06090
   D43        1.06915   0.00003   0.00000   0.00045   0.00045   1.06960
   D44       -2.07348   0.00006   0.00000   0.00114   0.00114  -2.07234
   D45        3.07561  -0.00012   0.00000  -0.00079  -0.00078   3.07483
   D46       -1.12143  -0.00016   0.00000  -0.00124  -0.00124  -1.12267
   D47        0.97711  -0.00014   0.00000  -0.00108  -0.00108   0.97603
   D48        1.12004   0.00015   0.00000   0.00105   0.00105   1.12109
   D49       -3.07701   0.00012   0.00000   0.00060   0.00060  -3.07641
   D50       -0.97847   0.00013   0.00000   0.00076   0.00076  -0.97771
   D51       -1.04315   0.00002   0.00000   0.00010   0.00010  -1.04305
   D52        1.04299  -0.00002   0.00000  -0.00035  -0.00035   1.04264
   D53        3.14153  -0.00000   0.00000  -0.00019  -0.00019   3.14134
   D54        1.12238   0.00020   0.00000   0.00165   0.00165   1.12403
   D55       -3.07548   0.00016   0.00000   0.00122   0.00122  -3.07426
   D56       -0.97690   0.00018   0.00000   0.00144   0.00144  -0.97545
   D57        3.07912  -0.00016   0.00000  -0.00113  -0.00113   3.07799
   D58       -1.11874  -0.00020   0.00000  -0.00156  -0.00156  -1.12030
   D59        0.97984  -0.00018   0.00000  -0.00133  -0.00134   0.97850
   D60       -1.04154   0.00002   0.00000   0.00030   0.00030  -1.04124
   D61        1.04379  -0.00001   0.00000  -0.00013  -0.00013   1.04366
   D62       -3.14082   0.00001   0.00000   0.00010   0.00010  -3.14072
   D63        3.14000   0.00002   0.00000   0.00043   0.00043   3.14043
   D64       -0.00095   0.00003   0.00000   0.00066   0.00066  -0.00029
   D65       -0.00047  -0.00002   0.00000  -0.00032  -0.00032  -0.00079
   D66       -3.14142  -0.00000   0.00000  -0.00009  -0.00009  -3.14151
   D67        0.00205  -0.00005   0.00000  -0.00123  -0.00124   0.00081
   D68       -3.13972  -0.00002   0.00000  -0.00061  -0.00061  -3.14033
   D69       -3.14048  -0.00002   0.00000  -0.00061  -0.00061  -3.14109
   D70        0.00094   0.00000   0.00000   0.00001   0.00002   0.00095
   D71       -0.00005   0.00001   0.00000   0.00027   0.00027   0.00022
   D72       -3.14132   0.00002   0.00000   0.00038   0.00038  -3.14094
   D73        3.14091   0.00000   0.00000   0.00004   0.00004   3.14095
   D74       -0.00036   0.00001   0.00000   0.00015   0.00015  -0.00021
   D75        0.00011   0.00000   0.00000   0.00010   0.00010   0.00020
   D76       -3.14134   0.00000   0.00000   0.00010   0.00010  -3.14124
   D77        3.14138  -0.00000   0.00000  -0.00001  -0.00001   3.14136
   D78       -0.00007  -0.00000   0.00000  -0.00001  -0.00001  -0.00008
   D79        0.00035  -0.00002   0.00000  -0.00040  -0.00040  -0.00005
   D80       -3.14137   0.00000   0.00000   0.00009   0.00009  -3.14128
   D81       -3.14139  -0.00002   0.00000  -0.00040  -0.00040   3.14139
   D82        0.00007   0.00000   0.00000   0.00009   0.00009   0.00016
   D83        3.14051   0.00004   0.00000   0.00113   0.00113  -3.14155
   D84       -0.00087   0.00001   0.00000   0.00035   0.00034  -0.00052
   D85       -0.00096   0.00002   0.00000   0.00064   0.00064  -0.00031
   D86        3.14086  -0.00001   0.00000  -0.00014  -0.00015   3.14071
   D87        3.13153   0.00015   0.00000   0.00371   0.00371   3.13524
   D88        0.01701   0.00018   0.00000   0.00555   0.00558   0.02260
   D89       -0.00138   0.00002   0.00000  -0.00022  -0.00025  -0.00163
   D90       -3.11589   0.00005   0.00000   0.00162   0.00162  -3.11427
   D91       -3.13181  -0.00020   0.00000  -0.00478  -0.00481  -3.13662
   D92        0.04861   0.00024   0.00000   0.00467   0.00466   0.05327
   D93        0.00123  -0.00007   0.00000  -0.00089  -0.00089   0.00033
   D94       -3.10153   0.00037   0.00000   0.00855   0.00857  -3.09296
   D95       -0.00009   0.00002   0.00000   0.00058   0.00058   0.00048
   D96       -3.11811   0.00004   0.00000   0.00136   0.00136  -3.11675
   D97        3.11754  -0.00003   0.00000  -0.00096  -0.00097   3.11656
   D98       -0.00048  -0.00001   0.00000  -0.00018  -0.00019  -0.00067
   D99        3.11909   0.00020   0.00000   0.00443   0.00447   3.12356
   D100       0.00269   0.00029   0.00000   0.00636   0.00644   0.00913
   D101       0.00050   0.00007   0.00000   0.00173   0.00171   0.00221
   D102      -3.10356   0.00037   0.00000   0.00887   0.00879  -3.09477
   D103       3.10367  -0.00031   0.00000  -0.00730  -0.00726   3.09641
   D104      -0.00039  -0.00001   0.00000  -0.00017  -0.00018  -0.00057
   D105       0.00174  -0.00002   0.00000   0.00016   0.00017   0.00191
   D106      -3.13232  -0.00012   0.00000  -0.00306  -0.00310  -3.13541
   D107       3.11670  -0.00002   0.00000  -0.00081  -0.00083   3.11587
   D108      -0.01736  -0.00012   0.00000  -0.00404  -0.00409  -0.02145
   D109      -0.00199  -0.00028   0.00000  -0.00609  -0.00617  -0.00816
   D110      -3.11881  -0.00023   0.00000  -0.00499  -0.00504  -3.12385
   D111      -0.00198  -0.00003   0.00000  -0.00127  -0.00130  -0.00328
   D112       3.13219   0.00008   0.00000   0.00193   0.00192   3.13411
   D113       3.10170  -0.00039   0.00000  -0.00878  -0.00883   3.09286
   D114      -0.04733  -0.00028   0.00000  -0.00558  -0.00561  -0.05293
   D115      -0.64981   0.00278   0.00000   0.08568   0.08566  -0.56415
   D116       2.52179   0.00266   0.00000   0.08292   0.08290   2.60469
   D117       2.49981   0.00261   0.00000   0.08205   0.08207   2.58188
   D118      -0.61178   0.00249   0.00000   0.07929   0.07932  -0.53246
   D119      -0.00347  -0.00038   0.00000  -0.00887  -0.00878  -0.01225
   D120       0.00321   0.00038   0.00000   0.00877   0.00868   0.01188
   D121      -3.10157  -0.00021   0.00000  -0.00512  -0.00511  -3.10669
   D122       0.03202  -0.00011   0.00000  -0.00285  -0.00284   0.02917
   D123       0.01071  -0.00010   0.00000  -0.00246  -0.00246   0.00825
   D124      -3.13888  -0.00000   0.00000  -0.00019  -0.00019  -3.13908
   D125       3.10514   0.00047   0.00000   0.01151   0.01152   3.11666
   D126      -0.06211   0.00031   0.00000   0.00769   0.00770  -0.05440
   D127      -0.00775   0.00039   0.00000   0.00898   0.00899   0.00123
   D128       3.10818   0.00022   0.00000   0.00516   0.00517   3.11335
   D129      -0.00719  -0.00014   0.00000  -0.00342  -0.00342  -0.01061
   D130       3.12694  -0.00009   0.00000  -0.00229  -0.00228   3.12466
   D131      -3.14078  -0.00024   0.00000  -0.00566  -0.00567   3.13674
   D132      -0.00665  -0.00019   0.00000  -0.00453  -0.00453  -0.01118
   D133       0.00111  -0.00043   0.00000  -0.00979  -0.00977  -0.00866
   D134       3.13689  -0.00024   0.00000  -0.00549  -0.00547   3.13142
   D135      -3.11488  -0.00027   0.00000  -0.00601  -0.00600  -3.12087
   D136       0.02091  -0.00008   0.00000  -0.00171  -0.00170   0.01921
   D137       0.00029   0.00011   0.00000   0.00287   0.00288   0.00318
   D138      -3.10351   0.00005   0.00000   0.00079   0.00080  -3.10271
   D139      -3.13382   0.00007   0.00000   0.00174   0.00174  -3.13207
   D140       0.04556   0.00001   0.00000  -0.00034  -0.00034   0.04523
   D141       0.00272   0.00017   0.00000   0.00368   0.00370   0.00642
   D142       3.10666   0.00024   0.00000   0.00576   0.00578   3.11244
   D143      -3.13306  -0.00002   0.00000  -0.00061  -0.00060  -3.13366
   D144      -0.02913   0.00005   0.00000   0.00147   0.00148  -0.02764
   D145      -2.61870  -0.00001   0.00000   0.00034   0.00034  -2.61836
   D146      -0.56643   0.00010   0.00000   0.00156   0.00156  -0.56488
   D147       1.55118   0.00006   0.00000   0.00116   0.00116   1.55234
   D148       0.56193  -0.00011   0.00000  -0.00194  -0.00193   0.56000
   D149       2.61420  -0.00001   0.00000  -0.00072  -0.00072   2.61348
   D150      -1.55138  -0.00004   0.00000  -0.00112  -0.00111  -1.55249
   D151      -0.98157  -0.00003   0.00000  -0.00051  -0.00051  -0.98208
   D152       1.03739   0.00004   0.00000   0.00022   0.00022   1.03761
   D153       3.09904  -0.00003   0.00000  -0.00050  -0.00050   3.09854
   D154      -3.12190   0.00003   0.00000   0.00034   0.00034  -3.12156
   D155      -1.10294   0.00010   0.00000   0.00107   0.00107  -1.10187
   D156       0.95870   0.00004   0.00000   0.00036   0.00036   0.95906
   D157       1.14542  -0.00009   0.00000  -0.00112  -0.00112   1.14430
   D158      -3.11880  -0.00002   0.00000  -0.00039  -0.00039  -3.11920
   D159      -1.05716  -0.00008   0.00000  -0.00111  -0.00111  -1.05826
   D160       1.18941   0.00003   0.00000   0.00110   0.00110   1.19051
   D161      -3.07255   0.00004   0.00000   0.00117   0.00117  -3.07138
   D162      -0.95754   0.00007   0.00000   0.00130   0.00130  -0.95624
   D163       1.06369   0.00008   0.00000   0.00137   0.00137   1.06506
   D164      -3.02098  -0.00002   0.00000   0.00051   0.00051  -3.02047
   D165      -0.99975  -0.00001   0.00000   0.00058   0.00058  -0.99917
         Item               Value     Threshold  Converged?
 Maximum Force            0.049538     0.000450     NO 
 RMS     Force            0.005163     0.000300     NO 
 Maximum Displacement     0.440154     0.001800     NO 
 RMS     Displacement     0.064380     0.001200     NO 
 Predicted change in Energy=-1.205939D-02
 Lowest energy point so far.  Saving SCF results.
 GradGradGradGradGradGradGradGradGradGradGradGradGradGradGradGradGradGrad

 Leave Link  103 at Thu Mar 14 09:20:58 2024, MaxMem= 32212254720 cpu:               3.2 elap:               0.1
 (Enter /home/<user>/g16/l202.exe)
 Stoichiometry    C29H25N3S(3)
 Framework group  C1[X(C29H25N3S)]
 Deg. of freedom   168
 Full point group                 C1      NOp   1
 RotChk:  IX=0 Diff= 3.72D-02
 Largest Abelian subgroup         C1      NOp   1
 Largest concise Abelian subgroup C1      NOp   1
                         Standard orientation:                         
 ---------------------------------------------------------------------
 Center     Atomic      Atomic             Coordinates (Angstroms)
 Number     Number       Type             X           Y           Z
 ---------------------------------------------------------------------
      1          6           0       -2.405914    1.591533   -0.542401
      2          6           0       -1.767484    0.363136   -0.240055
      3          6           0       -2.569017   -0.768003    0.062295
      4          6           0       -3.946724   -0.660749    0.059985
      5          6           0       -4.567051    0.570592   -0.253196
      6          6           0       -3.790491    1.696125   -0.556031
      7          1           0       -1.798659    2.459629   -0.767119
      8          1           0       -2.090739   -1.707329    0.327222
      9          1           0       -4.256439    2.646916   -0.800910
     10          6           0       -4.989885   -1.733389    0.373312
     11          6           0       -6.285361   -0.944852    0.182205
     12          6           0       -7.597969   -1.379701    0.320238
     13          6           0       -8.643439   -0.475312    0.095437
     14          6           0       -8.375262    0.850849   -0.264189
     15          6           0       -7.060286    1.295286   -0.405358
     16          6           0       -6.016259    0.392488   -0.181149
     17          1           0       -7.819228   -2.407110    0.599702
     18          1           0       -9.672989   -0.806306    0.201646
     19          1           0       -9.197937    1.539949   -0.434696
     20          1           0       -6.856090    2.325754   -0.684428
     21          6           0       -4.852285   -2.247936    1.824132
     22          1           0       -5.647299   -2.965884    2.056482
     23          1           0       -3.890445   -2.754078    1.965925
     24          1           0       -4.914162   -1.424538    2.542640
     25          6           0       -4.898460   -2.916069   -0.616935
     26          1           0       -3.937737   -3.433684   -0.513589
     27          1           0       -5.694399   -3.644541   -0.423960
     28          1           0       -4.992838   -2.573012   -1.652204
     29          6           0       -0.316620    0.235259   -0.264282
     30          6           0        0.561058    1.327572    0.064022
     31          6           0        0.304533   -1.008256   -0.616908
     32          6           0        2.003319    1.151144    0.033766
     33          6           0        1.666239   -1.172745   -0.646468
     34          1           0       -0.311785   -1.850397   -0.917007
     35          6           0        2.579117   -0.117366   -0.325187
     36          1           0        2.050997   -2.135954   -0.967767
     37          7           0        0.183149    2.554118    0.445701
     38          7           0        2.680957    2.249195    0.392642
     39         16           0        1.566132    3.443716    0.736717
     40          6           0        4.023210   -0.339479   -0.360702
     41          6           0        4.928018    0.686026   -0.710033
     42          6           0        4.552052   -1.617179   -0.072370
     43          6           0        6.292681    0.432876   -0.774901
     44          1           0        4.551017    1.676590   -0.934033
     45          6           0        5.919335   -1.854893   -0.129756
     46          1           0        3.884163   -2.420618    0.225340
     47          6           0        6.818509   -0.836711   -0.485880
     48          1           0        6.966825    1.236920   -1.062124
     49          1           0        6.299708   -2.846274    0.106586
     50          6           0        8.307035   -1.091255   -0.510202
     51          1           0        8.518413   -2.129648   -0.789945
     52          1           0        8.779384   -0.454380   -1.271139
     53          6           0        8.976905   -0.819057    0.849092
     54          1           0        8.755280    0.219200    1.155216
     55          1           0        8.522801   -1.470212    1.605980
     56          7           0       10.406184   -1.138804    0.779765
     57          1           0       10.875766   -0.471404    0.168106
     58          1           0       10.829221   -1.020201    1.698955
 ---------------------------------------------------------------------
 Rotational constants (GHZ):           0.3696939           0.0396640           0.0366795
 Leave Link  202 at Thu Mar 14 09:20:58 2024, MaxMem= 32212254720 cpu:               0.1 elap:               0.0
 (Enter /home/<user>/g16/l301.exe)
 Standard basis: 6-31G(d) (6D, 7F)
 Ernie: Thresh=  0.10000D-02 Tol=  0.10000D-05 Strict=F.
 There are   549 symmetry adapted cartesian basis functions of A   symmetry.
 There are   549 symmetry adapted basis functions of A   symmetry.
   549 basis functions,  1048 primitive gaussians,   549 cartesian basis functions
   119 alpha electrons      117 beta electrons
       nuclear repulsion energy      3080.4203846353 Hartrees.
 IExCor=  402 DFT=T Ex+Corr=B3LYP ExCW=0 ScaHFX=  0.200000
 ScaDFX=  0.800000  0.720000  1.000000  0.810000 ScalE2=  1.000000  1.000000
 IRadAn=      5 IRanWt=     -1 IRanGd=            0 ICorTp=0 IEmpDi=  4
 NAtoms=   58 NActive=   58 NUniq=   58 SFac= 1.00D+00 NAtFMM=   60 NAOKFM=F Big=F
 Integral buffers will be    131072 words long.
 Raffenetti 2 integral format.
 Two-electron integral symmetry is turned on.
 Leave Link  301 at Thu Mar 14 09:20:58 2024, MaxMem= 32212254720 cpu:               0.8 elap:               0.0
 (Enter /home/<user>/g16/l302.exe)
 NPDir=0 NMtPBC=     1 NCelOv=     1 NCel=       1 NClECP=     1 NCelD=      1
         NCelK=      1 NCelE2=     1 NClLst=     1 CellRange=     0.0.
 One-electron integrals computed using PRISM.
 One-electron integral symmetry used in STVInt
 NBasis=   549 RedAO= T EigKep=  2.82D-04  NBF=   549
 NBsUse=   549 1.00D-06 EigRej= -1.00D+00 NBFU=   549
 Precomputing XC quadrature grid using
 IXCGrd= 4 IRadAn=           5 IRanWt=          -1 IRanGd=           0 AccXCQ= 0.00D+00.
 Generated NRdTot=       0 NPtTot=           0 NUsed=           0 NTot=          32
 NSgBfM=   512   512   512   512   512 MxSgAt=    58 MxSgA2=    58.
 Leave Link  302 at Thu Mar 14 09:20:59 2024, MaxMem= 32212254720 cpu:              12.3 elap:               0.4
 (Enter /home/<user>/g16/l303.exe)
 DipDrv:  MaxL=1.
 Leave Link  303 at Thu Mar 14 09:20:59 2024, MaxMem= 32212254720 cpu:               1.4 elap:               0.1
 (Enter /home/<user>/g16/l401.exe)
 Initial guess from the checkpoint file:  "FBTP_T1opt.chk"
 B after Tr=     0.000000    0.000000    0.000000
         Rot=    0.999998   -0.001707   -0.000028    0.000457 Ang=  -0.20 deg.
 Guess basis will be translated and rotated to current coordinates.
 JPrj=2 DoOrth=T DoCkMO=T.
 Initial guess <Sx>= 0.0000 <Sy>= 0.0000 <Sz>= 1.0000 <S**2>= 2.0278 S= 1.0092
 Generating alternative initial guess.
 ExpMin= 1.17D-01 ExpMax= 2.19D+04 ExpMxC= 3.30D+03 IAcc=3 IRadAn=         5 AccDes= 0.00D+00
 Harris functional with IExCor=  402 and IRadAn=       5 diagonalized for initial guess.
 HarFok:  IExCor=  402 AccDes= 0.00D+00 IRadAn=         5 IDoV= 1 UseB2=F ITyADJ=14
 ICtDFT=  3500011 ScaDFX=  1.000000  1.000000  1.000000  1.000000
 FoFCou: FMM=F IPFlag=           0 FMFlag=      100000 FMFlg1=           0
         NFxFlg=           0 DoJE=T BraDBF=F KetDBF=T FulRan=T
         wScrn=  0.000000 ICntrl=       500 IOpCl=  0 I1Cent=   200000004 NGrid=           0
         NMat0=    1 NMatS0=      1 NMatT0=    0 NMatD0=    1 NMtDS0=    0 NMtDT0=    0
 Petite list used in FoFCou.
 Harris En= -1682.50129146566    
 Leave Link  401 at Thu Mar 14 09:21:00 2024, MaxMem= 32212254720 cpu:              47.1 elap:               1.6
 (Enter /home/<user>/g16/l502.exe)
 Integral symmetry usage will be decided dynamically.
 UHF open shell SCF:
 Using DIIS extrapolation, IDIIS=  1040.
 NGot= 32212254720 LenX= 32211628124 LenY= 32211326174
 Requested convergence on RMS density matrix=1.00D-08 within 128 cycles.
 Requested convergence on MAX density matrix=1.00D-06.
 Requested convergence on             energy=1.00D-06.
 No special actions if energy rises.
 Fock matrices will be formed incrementally for  20 cycles.
 Integral accuracy reduced to 1.0D-05 until final iterations.

 Cycle   1  Pass 0  IDiag  1:
 FoFJK:  IHMeth= 1 ICntrl=       0 DoSepK=F KAlg= 0 I1Cent=           0 FoldK=F
 IRaf= 550000000 NMat=       1 IRICut=       1 DoRegI=T DoRafI=F ISym2E= 0 IDoP0=0 IntGTp=1.
 FoFCou: FMM=F IPFlag=           0 FMFlag=      100000 FMFlg1=           0
         NFxFlg=           0 DoJE=F BraDBF=F KetDBF=F FulRan=T
         wScrn=  0.000000 ICntrl=         0 IOpCl=  1 I1Cent=           0 NGrid=           0
         NMat0=    1 NMatS0=      1 NMatT0=    0 NMatD0=    1 NMtDS0=    0 NMtDT0=    0
 Symmetry not used in FoFCou.
 E= -1682.51789534085    
 DIIS: error= 2.40D-03 at cycle   1 NSaved=   1.
 NSaved= 1 IEnMin= 1 EnMin= -1682.51789534085     IErMin= 1 ErrMin= 2.40D-03
 ErrMax= 2.40D-03  0.00D+00 EMaxC= 1.00D-01 BMatC= 4.06D-02 BMatP= 4.06D-02
 IDIUse=3 WtCom= 9.76D-01 WtEn= 2.40D-02
 Coeff-Com:  0.100D+01
 Coeff-En:   0.100D+01
 Coeff:      0.100D+01
 Gap=     1.904 Goal=   None    Shift=    0.000
 Gap=     1.986 Goal=   None    Shift=    0.000
 GapD=    1.904 DampG=2.000 DampE=1.000 DampFc=2.0000 IDamp=-1.
 RMSDP=4.17D-04 MaxDP=1.76D-02              OVMax= 3.21D-02

 Cycle   2  Pass 0  IDiag  1:
 RMSU=  4.17D-04    CP:  1.00D+00
 E= -1682.54017664066     Delta-E=       -0.022281299808 Rises=F Damp=F
 DIIS: error= 5.94D-04 at cycle   2 NSaved=   2.
 NSaved= 2 IEnMin= 2 EnMin= -1682.54017664066     IErMin= 2 ErrMin= 5.94D-04
 ErrMax= 5.94D-04  0.00D+00 EMaxC= 1.00D-01 BMatC= 1.61D-03 BMatP= 4.06D-02
 IDIUse=3 WtCom= 9.94D-01 WtEn= 5.94D-03
 Coeff-Com: -0.123D-01 0.101D+01
 Coeff-En:   0.000D+00 0.100D+01
 Coeff:     -0.122D-01 0.101D+01
 Gap=     0.091 Goal=   None    Shift=    0.000
 Gap=     0.072 Goal=   None    Shift=    0.000
 RMSDP=9.40D-05 MaxDP=4.96D-03 DE=-2.23D-02 OVMax= 1.55D-02

 Cycle   3  Pass 0  IDiag  1:
 RMSU=  9.13D-05    CP:  1.00D+00  1.05D+00
 E= -1682.54032751634     Delta-E=       -0.000150875673 Rises=F Damp=F
 DIIS: error= 7.74D-04 at cycle   3 NSaved=   3.
 NSaved= 3 IEnMin= 3 EnMin= -1682.54032751634     IErMin= 2 ErrMin= 5.94D-04
 ErrMax= 7.74D-04  0.00D+00 EMaxC= 1.00D-01 BMatC= 1.82D-03 BMatP= 1.61D-03
 IDIUse=3 WtCom= 2.64D-01 WtEn= 7.36D-01
 Coeff-Com: -0.373D-01 0.543D+00 0.494D+00
 Coeff-En:   0.000D+00 0.390D+00 0.610D+00
 Coeff:     -0.985D-02 0.431D+00 0.579D+00
 Gap=     0.089 Goal=   None    Shift=    0.000
 Gap=     0.076 Goal=   None    Shift=    0.000
 RMSDP=7.66D-05 MaxDP=5.64D-03 DE=-1.51D-04 OVMax= 1.59D-02

 Cycle   4  Pass 0  IDiag  1:
 RMSU=  4.82D-05    CP:  1.00D+00  1.07D+00  3.56D-01
 E= -1682.54060470107     Delta-E=       -0.000277184736 Rises=F Damp=F
 DIIS: error= 5.79D-04 at cycle   4 NSaved=   4.
 NSaved= 4 IEnMin= 4 EnMin= -1682.54060470107     IErMin= 4 ErrMin= 5.79D-04
 ErrMax= 5.79D-04  0.00D+00 EMaxC= 1.00D-01 BMatC= 7.16D-04 BMatP= 1.61D-03
 IDIUse=3 WtCom= 9.94D-01 WtEn= 5.79D-03
 Coeff-Com: -0.193D-01 0.198D+00 0.393D+00 0.428D+00
 Coeff-En:   0.000D+00 0.000D+00 0.311D+00 0.689D+00
 Coeff:     -0.192D-01 0.197D+00 0.393D+00 0.429D+00
 Gap=     0.090 Goal=   None    Shift=    0.000
 Gap=     0.075 Goal=   None    Shift=    0.000
 RMSDP=3.65D-05 MaxDP=2.46D-03 DE=-2.77D-04 OVMax= 7.90D-03

 Cycle   5  Pass 0  IDiag  1:
 RMSU=  1.74D-05    CP:  1.00D+00  1.08D+00  5.80D-01  4.89D-01
 E= -1682.54078769245     Delta-E=       -0.000182991377 Rises=F Damp=F
 DIIS: error= 8.92D-05 at cycle   5 NSaved=   5.
 NSaved= 5 IEnMin= 5 EnMin= -1682.54078769245     IErMin= 5 ErrMin= 8.92D-05
 ErrMax= 8.92D-05  0.00D+00 EMaxC= 1.00D-01 BMatC= 3.82D-05 BMatP= 7.16D-04
 IDIUse=1 WtCom= 1.00D+00 WtEn= 0.00D+00
 Coeff-Com: -0.633D-02 0.414D-01 0.171D+00 0.266D+00 0.528D+00
 Coeff:     -0.633D-02 0.414D-01 0.171D+00 0.266D+00 0.528D+00
 Gap=     0.090 Goal=   None    Shift=    0.000
 Gap=     0.075 Goal=   None    Shift=    0.000
 RMSDP=1.05D-05 MaxDP=7.10D-04 DE=-1.83D-04 OVMax= 3.67D-03

 Cycle   6  Pass 0  IDiag  1:
 RMSU=  7.45D-06    CP:  1.00D+00  1.08D+00  5.89D-01  6.23D-01  7.99D-01
 E= -1682.54080083469     Delta-E=       -0.000013142238 Rises=F Damp=F
 DIIS: error= 4.65D-05 at cycle   6 NSaved=   6.
 NSaved= 6 IEnMin= 6 EnMin= -1682.54080083469     IErMin= 6 ErrMin= 4.65D-05
 ErrMax= 4.65D-05  0.00D+00 EMaxC= 1.00D-01 BMatC= 6.10D-06 BMatP= 3.82D-05
 IDIUse=1 WtCom= 1.00D+00 WtEn= 0.00D+00
 Coeff-Com:  0.830D-03-0.224D-01 0.839D-02 0.543D-01 0.296D+00 0.662D+00
 Coeff:      0.830D-03-0.224D-01 0.839D-02 0.543D-01 0.296D+00 0.662D+00
 Gap=     0.090 Goal=   None    Shift=    0.000
 Gap=     0.075 Goal=   None    Shift=    0.000
 RMSDP=5.04D-06 MaxDP=3.09D-04 DE=-1.31D-05 OVMax= 1.15D-03

 Initial convergence to 1.0D-05 achieved.  Increase integral accuracy.
 Cycle   7  Pass 1  IDiag  1:
 E= -1682.54083726371     Delta-E=       -0.000036429019 Rises=F Damp=F
 DIIS: error= 7.45D-05 at cycle   1 NSaved=   1.
 NSaved= 1 IEnMin= 1 EnMin= -1682.54083726371     IErMin= 1 ErrMin= 7.45D-05
 ErrMax= 7.45D-05  0.00D+00 EMaxC= 1.00D-01 BMatC= 1.09D-05 BMatP= 1.09D-05
 IDIUse=1 WtCom= 1.00D+00 WtEn= 0.00D+00
 Coeff-Com:  0.100D+01
 Coeff:      0.100D+01
 Gap=     0.090 Goal=   None    Shift=    0.000
 Gap=     0.075 Goal=   None    Shift=    0.000
 RMSDP=5.04D-06 MaxDP=3.09D-04 DE=-3.64D-05 OVMax= 1.54D-03

 Cycle   8  Pass 1  IDiag  1:
 RMSU=  5.80D-05    CP:  1.00D+00
 E= -1682.54083951779     Delta-E=       -0.000002254085 Rises=F Damp=F
 DIIS: error= 4.40D-05 at cycle   2 NSaved=   2.
 NSaved= 2 IEnMin= 2 EnMin= -1682.54083951779     IErMin= 2 ErrMin= 4.40D-05
 ErrMax= 4.40D-05  0.00D+00 EMaxC= 1.00D-01 BMatC= 5.67D-06 BMatP= 1.09D-05
 IDIUse=1 WtCom= 1.00D+00 WtEn= 0.00D+00
 Coeff-Com:  0.371D+00 0.629D+00
 Coeff:      0.371D+00 0.629D+00
 Gap=     0.090 Goal=   None    Shift=    0.000
 Gap=     0.075 Goal=   None    Shift=    0.000
 RMSDP=5.55D-06 MaxDP=4.26D-04 DE=-2.25D-06 OVMax= 8.73D-04

 Cycle   9  Pass 1  IDiag  1:
 RMSU=  5.55D-06    CP:  1.00D+00  9.99D-01
 E= -1682.54083969842     Delta-E=       -0.000000180629 Rises=F Damp=F
 DIIS: error= 4.18D-05 at cycle   3 NSaved=   3.
 NSaved= 3 IEnMin= 3 EnMin= -1682.54083969842     IErMin= 3 ErrMin= 4.18D-05
 ErrMax= 4.18D-05  0.00D+00 EMaxC= 1.00D-01 BMatC= 6.43D-06 BMatP= 5.67D-06
 IDIUse=1 WtCom= 1.00D+00 WtEn= 0.00D+00
 Coeff-Com: -0.456D-02 0.518D+00 0.487D+00
 Coeff:     -0.456D-02 0.518D+00 0.487D+00
 Gap=     0.090 Goal=   None    Shift=    0.000
 Gap=     0.075 Goal=   None    Shift=    0.000
 RMSDP=3.57D-06 MaxDP=3.54D-04 DE=-1.81D-07 OVMax= 1.04D-03

 Cycle  10  Pass 1  IDiag  1:
 RMSU=  2.23D-06    CP:  1.00D+00  1.01D+00  5.11D-01
 E= -1682.54084169225     Delta-E=       -0.000001993827 Rises=F Damp=F
 DIIS: error= 1.32D-05 at cycle   4 NSaved=   4.
 NSaved= 4 IEnMin= 4 EnMin= -1682.54084169225     IErMin= 4 ErrMin= 1.32D-05
 ErrMax= 1.32D-05  0.00D+00 EMaxC= 1.00D-01 BMatC= 4.69D-07 BMatP= 5.67D-06
 IDIUse=1 WtCom= 1.00D+00 WtEn= 0.00D+00
 Coeff-Com: -0.251D-01 0.283D+00 0.304D+00 0.438D+00
 Coeff:     -0.251D-01 0.283D+00 0.304D+00 0.438D+00
 Gap=     0.090 Goal=   None    Shift=    0.000
 Gap=     0.075 Goal=   None    Shift=    0.000
 RMSDP=9.60D-07 MaxDP=9.81D-05 DE=-1.99D-06 OVMax= 2.16D-04

 Cycle  11  Pass 1  IDiag  1:
 RMSU=  9.36D-07    CP:  1.00D+00  1.01D+00  5.45D-01  1.04D+00
 E= -1682.54084189578     Delta-E=       -0.000000203534 Rises=F Damp=F
 DIIS: error= 6.51D-06 at cycle   5 NSaved=   5.
 NSaved= 5 IEnMin= 5 EnMin= -1682.54084189578     IErMin= 5 ErrMin= 6.51D-06
 ErrMax= 6.51D-06  0.00D+00 EMaxC= 1.00D-01 BMatC= 1.15D-07 BMatP= 4.69D-07
 IDIUse=1 WtCom= 1.00D+00 WtEn= 0.00D+00
 Coeff-Com: -0.921D-02-0.293D+00-0.243D+00 0.171D+00 0.137D+01
 Coeff:     -0.921D-02-0.293D+00-0.243D+00 0.171D+00 0.137D+01
 Gap=     0.090 Goal=   None    Shift=    0.000
 Gap=     0.075 Goal=   None    Shift=    0.000
 RMSDP=1.99D-06 MaxDP=1.54D-04 DE=-2.04D-07 OVMax= 6.84D-04

 Cycle  12  Pass 1  IDiag  1:
 RMSU=  5.98D-07    CP:  1.00D+00  1.01D+00  6.04D-01  1.85D+00  1.51D+00
 E= -1682.54084213134     Delta-E=       -0.000000235562 Rises=F Damp=F
 DIIS: error= 5.28D-06 at cycle   6 NSaved=   6.
 NSaved= 6 IEnMin= 6 EnMin= -1682.54084213134     IErMin= 6 ErrMin= 5.28D-06
 ErrMax= 5.28D-06  0.00D+00 EMaxC= 1.00D-01 BMatC= 8.88D-08 BMatP= 1.15D-07
 IDIUse=1 WtCom= 1.00D+00 WtEn= 0.00D+00
 Coeff-Com:  0.348D-02-0.359D+00-0.327D+00-0.639D-01 0.112D+01 0.623D+00
 Coeff:      0.348D-02-0.359D+00-0.327D+00-0.639D-01 0.112D+01 0.623D+00
 Gap=     0.090 Goal=   None    Shift=    0.000
 Gap=     0.075 Goal=   None    Shift=    0.000
 RMSDP=1.13D-06 MaxDP=8.17D-05 DE=-2.36D-07 OVMax= 3.46D-04

 Cycle  13  Pass 1  IDiag  1:
 RMSU=  2.50D-07    CP:  1.00D+00  1.01D+00  6.35D-01  2.26D+00  2.09D+00
                    CP:  7.19D-01
 E= -1682.54084219279     Delta-E=       -0.000000061445 Rises=F Damp=F
 DIIS: error= 1.74D-06 at cycle   7 NSaved=   7.
 NSaved= 7 IEnMin= 7 EnMin= -1682.54084219279     IErMin= 7 ErrMin= 1.74D-06
 ErrMax= 1.74D-06  0.00D+00 EMaxC= 1.00D-01 BMatC= 9.40D-09 BMatP= 8.88D-08
 IDIUse=1 WtCom= 1.00D+00 WtEn= 0.00D+00
 Coeff-Com:  0.279D-02-0.208D+00-0.191D+00-0.507D-01 0.619D+00 0.398D+00
 Coeff-Com:  0.431D+00
 Coeff:      0.279D-02-0.208D+00-0.191D+00-0.507D-01 0.619D+00 0.398D+00
 Coeff:      0.431D+00
 Gap=     0.090 Goal=   None    Shift=    0.000
 Gap=     0.075 Goal=   None    Shift=    0.000
 RMSDP=1.65D-07 MaxDP=1.03D-05 DE=-6.14D-08 OVMax= 4.42D-05

 Cycle  14  Pass 1  IDiag  1:
 RMSU=  1.16D-07    CP:  1.00D+00  1.01D+00  6.35D-01  2.29D+00  2.13D+00
                    CP:  7.75D-01  6.57D-01
 E= -1682.54084219597     Delta-E=       -0.000000003183 Rises=F Damp=F
 DIIS: error= 5.00D-07 at cycle   8 NSaved=   8.
 NSaved= 8 IEnMin= 8 EnMin= -1682.54084219597     IErMin= 8 ErrMin= 5.00D-07
 ErrMax= 5.00D-07  0.00D+00 EMaxC= 1.00D-01 BMatC= 1.16D-09 BMatP= 9.40D-09
 IDIUse=1 WtCom= 1.00D+00 WtEn= 0.00D+00
 Coeff-Com:  0.634D-03-0.229D-01-0.218D-01-0.884D-02 0.534D-01 0.608D-01
 Coeff-Com:  0.230D+00 0.709D+00
 Coeff:      0.634D-03-0.229D-01-0.218D-01-0.884D-02 0.534D-01 0.608D-01
 Coeff:      0.230D+00 0.709D+00
 Gap=     0.090 Goal=   None    Shift=    0.000
 Gap=     0.075 Goal=   None    Shift=    0.000
 RMSDP=7.03D-08 MaxDP=5.06D-06 DE=-3.18D-09 OVMax= 1.06D-05

 Cycle  15  Pass 1  IDiag  1:
 RMSU=  5.68D-08    CP:  1.00D+00  1.01D+00  6.36D-01  2.30D+00  2.14D+00
                    CP:  7.76D-01  8.04D-01  1.07D+00
 E= -1682.54084219662     Delta-E=       -0.000000000653 Rises=F Damp=F
 DIIS: error= 3.04D-07 at cycle   9 NSaved=   9.
 NSaved= 9 IEnMin= 9 EnMin= -1682.54084219662     IErMin= 9 ErrMin= 3.04D-07
 ErrMax= 3.04D-07  0.00D+00 EMaxC= 1.00D-01 BMatC= 4.24D-10 BMatP= 1.16D-09
 IDIUse=1 WtCom= 1.00D+00 WtEn= 0.00D+00
 Coeff-Com: -0.101D-02 0.915D-01 0.837D-01 0.214D-01-0.284D+00-0.162D+00
 Coeff-Com: -0.538D-01 0.444D+00 0.860D+00
 Coeff:     -0.101D-02 0.915D-01 0.837D-01 0.214D-01-0.284D+00-0.162D+00
 Coeff:     -0.538D-01 0.444D+00 0.860D+00
 Gap=     0.090 Goal=   None    Shift=    0.000
 Gap=     0.075 Goal=   None    Shift=    0.000
 RMSDP=6.86D-08 MaxDP=5.96D-06 DE=-6.53D-10 OVMax= 1.73D-05

 Cycle  16  Pass 1  IDiag  1:
 RMSU=  4.12D-08    CP:  1.00D+00  1.01D+00  6.37D-01  2.30D+00  2.14D+00
                    CP:  8.03D-01  9.24D-01  1.43D+00  1.17D+00
 E= -1682.54084219708     Delta-E=       -0.000000000455 Rises=F Damp=F
 DIIS: error= 2.52D-07 at cycle  10 NSaved=  10.
 NSaved=10 IEnMin=10 EnMin= -1682.54084219708     IErMin=10 ErrMin= 2.52D-07
 ErrMax= 2.52D-07  0.00D+00 EMaxC= 1.00D-01 BMatC= 1.70D-10 BMatP= 4.24D-10
 IDIUse=1 WtCom= 1.00D+00 WtEn= 0.00D+00
 Coeff-Com: -0.803D-03 0.647D-01 0.594D-01 0.162D-01-0.197D+00-0.120D+00
 Coeff-Com: -0.815D-01 0.128D+00 0.565D+00 0.566D+00
 Coeff:     -0.803D-03 0.647D-01 0.594D-01 0.162D-01-0.197D+00-0.120D+00
 Coeff:     -0.815D-01 0.128D+00 0.565D+00 0.566D+00
 Gap=     0.090 Goal=   None    Shift=    0.000
 Gap=     0.075 Goal=   None    Shift=    0.000
 RMSDP=2.72D-08 MaxDP=1.97D-06 DE=-4.55D-10 OVMax= 6.16D-06

 Cycle  17  Pass 1  IDiag  1:
 RMSU=  1.80D-08    CP:  1.00D+00  1.01D+00  6.37D-01  2.29D+00  2.14D+00
                    CP:  8.12D-01  9.57D-01  1.51D+00  1.43D+00  9.75D-01
 E= -1682.54084219716     Delta-E=       -0.000000000084 Rises=F Damp=F
 DIIS: error= 1.06D-07 at cycle  11 NSaved=  11.
 NSaved=11 IEnMin=11 EnMin= -1682.54084219716     IErMin=11 ErrMin= 1.06D-07
 ErrMax= 1.06D-07  0.00D+00 EMaxC= 1.00D-01 BMatC= 3.97D-11 BMatP= 1.70D-10
 IDIUse=1 WtCom= 1.00D+00 WtEn= 0.00D+00
 Coeff-Com: -0.198D-03 0.131D-01 0.121D-01 0.356D-02-0.389D-01-0.267D-01
 Coeff-Com: -0.322D-01-0.481D-01 0.101D+00 0.344D+00 0.672D+00
 Coeff:     -0.198D-03 0.131D-01 0.121D-01 0.356D-02-0.389D-01-0.267D-01
 Coeff:     -0.322D-01-0.481D-01 0.101D+00 0.344D+00 0.672D+00
 Gap=     0.090 Goal=   None    Shift=    0.000
 Gap=     0.075 Goal=   None    Shift=    0.000
 RMSDP=1.59D-08 MaxDP=1.41D-06 DE=-8.37D-11 OVMax= 3.67D-06

 Cycle  18  Pass 1  IDiag  1:
 RMSU=  9.30D-09    CP:  1.00D+00  1.01D+00  6.37D-01  2.29D+00  2.14D+00
                    CP:  8.11D-01  9.77D-01  1.57D+00  1.53D+00  1.17D+00
                    CP:  8.97D-01
 E= -1682.54084219723     Delta-E=       -0.000000000066 Rises=F Damp=F
 DIIS: error= 8.34D-08 at cycle  12 NSaved=  12.
 NSaved=12 IEnMin=12 EnMin= -1682.54084219723     IErMin=12 ErrMin= 8.34D-08
 ErrMax= 8.34D-08  0.00D+00 EMaxC= 1.00D-01 BMatC= 1.66D-11 BMatP= 3.97D-11
 IDIUse=1 WtCom= 1.00D+00 WtEn= 0.00D+00
 Coeff-Com:  0.112D-03-0.110D-01-0.101D-01-0.260D-02 0.343D-01 0.186D-01
 Coeff-Com:  0.300D-02-0.717D-01-0.108D+00 0.560D-01 0.462D+00 0.629D+00
 Coeff:      0.112D-03-0.110D-01-0.101D-01-0.260D-02 0.343D-01 0.186D-01
 Coeff:      0.300D-02-0.717D-01-0.108D+00 0.560D-01 0.462D+00 0.629D+00
 Gap=     0.090 Goal=   None    Shift=    0.000
 Gap=     0.075 Goal=   None    Shift=    0.000
 RMSDP=9.42D-09 MaxDP=8.01D-07 DE=-6.64D-11 OVMax= 2.13D-06

 SCF Done:  E(UB3LYP) =  -1682.54084220     A.U. after   18 cycles
            NFock= 18  Conv=0.94D-08     -V/T= 2.0081
 <Sx>= 0.0000 <Sy>= 0.0000 <Sz>= 1.0000 <S**2>= 2.0324 S= 1.0108
 <L.S>= 0.000000000000E+00
 KE= 1.668939467132D+03 PE=-1.008294700836D+04 EE= 3.651046314399D+03
 Annihilation of the first spin contaminant:
 S**2 before annihilation     2.0324,   after     2.0007
 Leave Link  502 at Thu Mar 14 09:21:46 2024, MaxMem= 32212254720 cpu:            1364.6 elap:              45.5
 (Enter /home/<user>/g16/l701.exe)
 ... and contract with generalized density number  0.
 Compute integral first derivatives.
 Leave Link  701 at Thu Mar 14 09:21:46 2024, MaxMem= 32212254720 cpu:               5.3 elap:               0.2
 (Enter /home/<user>/g16/l702.exe)
 L702 exits ... SP integral derivatives will be done elsewhere.
 Leave Link  702 at Thu Mar 14 09:21:46 2024, MaxMem= 32212254720 cpu:               0.7 elap:               0.0
 (Enter /home/<user>/g16/l703.exe)
 Integral derivatives from FoFJK, PRISM(SPDF).
 Compute integral first derivatives, UseDBF=F ICtDFT=           0.
 Calling FoFJK, ICntrl=      2127 FMM=F ISym2X=0 I1Cent= 0 IOpClX= 1 NMat=1 NMatS=1 NMatT=0.
 FoFJK:  IHMeth= 1 ICntrl=    2127 DoSepK=F KAlg= 0 I1Cent=           0 FoldK=F
 IRaf=         0 NMat=       1 IRICut=       1 DoRegI=T DoRafI=F ISym2E= 0 IDoP0=0 IntGTp=1.
 FoFCou: FMM=F IPFlag=           0 FMFlag=      100000 FMFlg1=         800
         NFxFlg=           0 DoJE=F BraDBF=F KetDBF=F FulRan=T
         wScrn=  0.000000 ICntrl=      2127 IOpCl=  1 I1Cent=           0 NGrid=           0
         NMat0=    1 NMatS0=      1 NMatT0=    0 NMatD0=    1 NMtDS0=    0 NMtDT0=    0
 Symmetry not used in FoFCou.
 Leave Link  703 at Thu Mar 14 09:21:53 2024, MaxMem= 32212254720 cpu:             199.8 elap:               6.7
 (Enter /home/<user>/g16/l716.exe)
 Dipole        =-4.70516614D-01-9.53507426D-01-1.74299327D-01
 ***** Axes restored to original set *****
 -------------------------------------------------------------------
 Center     Atomic                   Forces (Hartrees/Bohr)
 Number     Number              X              Y              Z
 -------------------------------------------------------------------
      1        6          -0.004487272    0.003215511    0.000855143
      2        6           0.009662707   -0.002773905   -0.001083726
      3        6          -0.004115397   -0.001744653   -0.001951823
      4        6           0.002119409   -0.000443143    0.000557074
      5        6          -0.002151052    0.000027520    0.000193721
      6        6           0.001507580   -0.000356347    0.000315796
      7        1          -0.000269866   -0.001103448    0.000154445
      8        1          -0.000424860    0.000426557   -0.000109154
      9        1          -0.000291779   -0.000195998   -0.000188982
     10        6          -0.000251991    0.000448669   -0.000105640
     11        6          -0.000445159   -0.000222352    0.000062328
     12        6          -0.000062563    0.000133048   -0.000033104
     13        6          -0.000077148   -0.000107022    0.000021780
     14        6           0.000153757    0.000028195   -0.000005392
     15        6          -0.000419628    0.000088109   -0.000007215
     16        6           0.001428435   -0.000038343   -0.000067774
     17        1          -0.000064713    0.000012506    0.000001785
     18        1          -0.000036839    0.000011426   -0.000001228
     19        1          -0.000069688   -0.000065350    0.000020341
     20        1           0.000099377   -0.000067023    0.000007798
     21        6          -0.000049278    0.000089728   -0.000027003
     22        1          -0.000008931   -0.000001554   -0.000010282
     23        1           0.000016045   -0.000000464   -0.000020777
     24        1           0.000008688   -0.000003321   -0.000021940
     25        6          -0.000051896    0.000043681   -0.000022759
     26        1           0.000018926   -0.000018205    0.000006950
     27        1           0.000005727   -0.000011447    0.000009397
     28        1           0.000010324    0.000006823    0.000034448
     29        6          -0.011582565    0.013366350    0.004060275
     30        6          -0.001246485    0.004368171   -0.001354931
     31        6           0.014065273   -0.011148157    0.000103935
     32        6           0.002312334    0.003306950   -0.001206492
     33        6          -0.015926934   -0.007181945    0.000253562
     34        1          -0.001625047    0.002305571   -0.000023451
     35        6           0.012871470    0.010547559    0.003591785
     36        1           0.002259998    0.001735289   -0.000076687
     37        7          -0.008905859   -0.007713464   -0.001886528
     38        7           0.007185782   -0.009283541   -0.002193219
     39       16           0.000794976    0.004203689    0.001307947
     40        6          -0.007912080   -0.000548882   -0.000655714
     41        6           0.003929378    0.001674806    0.000639484
     42        6           0.002556111   -0.002083854   -0.001744265
     43        6          -0.001038990   -0.000201518    0.000338673
     44        1           0.000006133   -0.000944176    0.000157887
     45        6          -0.001133753    0.000068773    0.000389782
     46        1           0.000415839    0.000255977   -0.000170513
     47        6           0.000790185    0.000020047    0.000012702
     48        1           0.000189304   -0.000195140   -0.000147160
     49        1           0.000253496    0.000117394    0.000041527
     50        6          -0.000293712   -0.000123288   -0.000320661
     51        1           0.000052124    0.000011993    0.000102089
     52        1           0.000024492    0.000040709    0.000079348
     53        6           0.000131645    0.000033163    0.000152748
     54        1          -0.000009574   -0.000007191   -0.000071706
     55        1          -0.000010909   -0.000003431   -0.000023336
     56        7           0.000029964    0.000027664    0.000002262
     57        1           0.000006941    0.000013086    0.000036847
     58        1           0.000057547   -0.000041802    0.000019603
 -------------------------------------------------------------------
 Cartesian Forces:  Max     0.015926934 RMS     0.003289512
 Leave Link  716 at Thu Mar 14 09:21:53 2024, MaxMem= 32212254720 cpu:               0.7 elap:               0.0
 (Enter /home/<user>/g16/l103.exe)

 GradGradGradGradGradGradGradGradGradGradGradGradGradGradGradGradGradGrad
 Berny optimization.
 Using GEDIIS/GDIIS optimizer.
 FormGI is forming the generalized inverse of G from B-inverse, IUseBI=4.
 GSVD:  received Info=                   1 from GESDD.
 Internal  Forces:  Max     0.009715774 RMS     0.001498991
 Search for a local minimum.
 Step number   2 out of a maximum of  346
 All quantities printed in internal units (Hartrees-Bohrs-Radians)
 RMS Force = .14990D-02 SwitMx=.10000D-02 MixMth= 1
 Mixed Optimization -- RFO/linear search
 Update second derivatives using D2CorX and points    1    2
 DE= -1.26D-02 DEPred=-1.21D-02 R= 1.05D+00
 TightC=F SS=  1.41D+00  RLast= 3.37D-01 DXNew= 5.0454D-01 1.0105D+00
 Trust test= 1.05D+00 RLast= 3.37D-01 DXMaxT set to 5.05D-01
 ITU=  1  0
 Use linear search instead of GDIIS.
     Eigenvalues ---    0.00230   0.00230   0.00250   0.00611   0.00754
     Eigenvalues ---    0.00810   0.01029   0.01060   0.01252   0.01451
     Eigenvalues ---    0.01468   0.01609   0.01617   0.01641   0.01642
     Eigenvalues ---    0.01656   0.01693   0.01714   0.01733   0.01759
     Eigenvalues ---    0.01885   0.01903   0.02005   0.02026   0.02039
     Eigenvalues ---    0.02069   0.02084   0.02087   0.02088   0.02094
     Eigenvalues ---    0.02112   0.02114   0.02119   0.02120   0.02122
     Eigenvalues ---    0.02134   0.02143   0.02145   0.02146   0.02155
     Eigenvalues ---    0.02159   0.02161   0.02189   0.02300   0.04047
     Eigenvalues ---    0.04277   0.04385   0.04477   0.05424   0.05428
     Eigenvalues ---    0.05429   0.05501   0.05502   0.05557   0.05996
     Eigenvalues ---    0.08016   0.08962   0.09278   0.11587   0.12605
     Eigenvalues ---    0.12823   0.15953   0.15980   0.15990   0.15994
     Eigenvalues ---    0.16000   0.16000   0.16000   0.16000   0.16000
     Eigenvalues ---    0.16000   0.16000   0.16000   0.16000   0.16000
     Eigenvalues ---    0.16000   0.16000   0.16000   0.16000   0.16000
     Eigenvalues ---    0.16000   0.16055   0.18969   0.21872   0.21950
     Eigenvalues ---    0.21998   0.22000   0.22445   0.22451   0.22614
     Eigenvalues ---    0.22927   0.23327   0.23859   0.24181   0.24532
     Eigenvalues ---    0.24670   0.24833   0.24979   0.24982   0.24990
     Eigenvalues ---    0.24992   0.24997   0.24999   0.25000   0.25944
     Eigenvalues ---    0.28050   0.28067   0.28483   0.28609   0.29009
     Eigenvalues ---    0.31181   0.33128   0.33411   0.33785   0.34027
     Eigenvalues ---    0.34090   0.34100   0.34104   0.34105   0.34131
     Eigenvalues ---    0.34276   0.34289   0.34562   0.34754   0.35033
     Eigenvalues ---    0.35049   0.35084   0.35125   0.35151   0.35158
     Eigenvalues ---    0.35186   0.35188   0.35195   0.35238   0.35284
     Eigenvalues ---    0.35346   0.35548   0.35594   0.36142   0.37282
     Eigenvalues ---    0.38022   0.38264   0.39394   0.40661   0.41532
     Eigenvalues ---    0.41681   0.41725   0.42115   0.42357   0.42611
     Eigenvalues ---    0.43516   0.44364   0.44523   0.44554   0.44903
     Eigenvalues ---    0.44950   0.45001   0.45798   0.45945   0.46063
     Eigenvalues ---    0.46081   0.46284   0.46915   0.46966   0.47146
     Eigenvalues ---    0.47537   0.54508   0.58290
 RFO step:  Lambda=-4.00655841D-03 EMin= 2.29999998D-03
 Quartic linear search produced a step of  0.22078.
 Iteration  1 RMS(Cart)=  0.09531435 RMS(Int)=  0.00203721
 Iteration  2 RMS(Cart)=  0.00661145 RMS(Int)=  0.00003077
 Iteration  3 RMS(Cart)=  0.00002334 RMS(Int)=  0.00003040
 Iteration  4 RMS(Cart)=  0.00000000 RMS(Int)=  0.00003040
 ITry= 1 IFail=0 DXMaxC= 6.55D-01 DCOld= 1.00D+10 DXMaxT= 5.05D-01 DXLimC= 3.00D+00 Rises=F
 Variable       Old X    -DE/DX   Delta X   Delta X   Delta X     New X
                                 (Linear)    (Quad)   (Total)
    R1        2.67779   0.00347   0.00325   0.00803   0.01129   2.68908
    R2        2.62405  -0.00057  -0.00193  -0.00034  -0.00227   2.62179
    R3        2.04654  -0.00107  -0.00010  -0.00350  -0.00360   2.04293
    R4        2.68138   0.00333   0.00316   0.00771   0.01088   2.69226
    R5        2.75275  -0.00200  -0.00964  -0.00157  -0.01121   2.74154
    R6        2.61137  -0.00087  -0.00181  -0.00124  -0.00306   2.60831
    R7        2.05387  -0.00058  -0.00009  -0.00192  -0.00201   2.05187
    R8        2.67187  -0.00005   0.00213  -0.00175   0.00037   2.67224
    R9        2.88882   0.00030  -0.00017   0.00105   0.00088   2.88970
   R10        2.64668  -0.00011   0.00186  -0.00163   0.00022   2.64691
   R11        2.76257  -0.00083  -0.00194  -0.00151  -0.00345   2.75911
   R12        2.05370   0.00000  -0.00011   0.00007  -0.00004   2.05366
   R13        2.88861   0.00004  -0.00013   0.00017   0.00004   2.88865
   R14        2.92057  -0.00010   0.00006  -0.00048  -0.00041   2.92016
   R15        2.92003  -0.00003   0.00002  -0.00016  -0.00014   2.91989
   R16        2.62603   0.00013  -0.00028   0.00046   0.00018   2.62621
   R17        2.66774  -0.00013   0.00079  -0.00067   0.00012   2.66786
   R18        2.64660  -0.00009   0.00016  -0.00032  -0.00016   2.64645
   R19        2.05505   0.00000  -0.00008   0.00005  -0.00003   2.05502
   R20        2.64558  -0.00003   0.00042  -0.00028   0.00014   2.64572
   R21        2.05347   0.00003  -0.00005   0.00013   0.00008   2.05356
   R22        2.63657   0.00001  -0.00050   0.00033  -0.00017   2.63639
   R23        2.05340   0.00001  -0.00007   0.00007  -0.00001   2.05339
   R24        2.64245   0.00027   0.00066   0.00035   0.00100   2.64345
   R25        2.05402  -0.00005  -0.00006  -0.00012  -0.00019   2.05383
   R26        2.07137   0.00001  -0.00004   0.00004  -0.00000   2.07137
   R27        2.07132   0.00001  -0.00007   0.00008   0.00001   2.07133
   R28        2.06842  -0.00002  -0.00001  -0.00005  -0.00006   2.06836
   R29        2.07147   0.00003  -0.00007   0.00013   0.00006   2.07152
   R30        2.07132   0.00001  -0.00004   0.00004  -0.00000   2.07132
   R31        2.06869  -0.00003   0.00001  -0.00011  -0.00011   2.06858
   R32        2.71966  -0.00017  -0.00043  -0.00020  -0.00065   2.71902
   R33        2.70996   0.00972   0.02176   0.01213   0.03391   2.74387
   R34        2.74639   0.00744  -0.00266   0.02433   0.02166   2.76805
   R35        2.53034  -0.00540   0.00032  -0.01163  -0.01131   2.51902
   R36        2.59256  -0.00650  -0.02051  -0.00716  -0.02764   2.56492
   R37        2.05199  -0.00088  -0.00003  -0.00294  -0.00297   2.04902
   R38        2.71852  -0.00137  -0.00042  -0.00400  -0.00444   2.71408
   R39        2.53089  -0.00513   0.00037  -0.01110  -0.01072   2.52017
   R40        2.70593   0.00909   0.02107   0.01078   0.03186   2.73779
   R41        2.05194  -0.00073  -0.00005  -0.00243  -0.00248   2.04946
   R42        2.76185  -0.00162  -0.00781  -0.00129  -0.00911   2.75274
   R43        3.15574   0.00638   0.01172   0.01163   0.02334   3.17908
   R44        3.15539   0.00595   0.01163   0.01051   0.02213   3.17752
   R45        2.66737   0.00268   0.00235   0.00619   0.00854   2.67591
   R46        2.66935   0.00251   0.00254   0.00560   0.00814   2.67750
   R47        2.62570  -0.00033  -0.00121  -0.00015  -0.00136   2.62434
   R48        2.04713  -0.00090  -0.00010  -0.00294  -0.00304   2.04409
   R49        2.62479  -0.00059  -0.00117  -0.00090  -0.00207   2.62272
   R50        2.05296  -0.00049  -0.00004  -0.00164  -0.00168   2.05128
   R51        2.65362  -0.00027   0.00126  -0.00165  -0.00040   2.65323
   R52        2.05577   0.00002  -0.00010   0.00011   0.00001   2.05578
   R53        2.65373  -0.00025   0.00125  -0.00163  -0.00038   2.65334
   R54        2.05570  -0.00001  -0.00005   0.00001  -0.00005   2.05565
   R55        2.85411  -0.00000  -0.00058   0.00031  -0.00027   2.85384
   R56        2.07112  -0.00002   0.00001  -0.00009  -0.00008   2.07104
   R57        2.07676  -0.00002  -0.00004  -0.00006  -0.00010   2.07667
   R58        2.90950   0.00020   0.00028   0.00066   0.00094   2.91044
   R59        2.08796  -0.00002  -0.00007  -0.00005  -0.00011   2.08785
   R60        2.07276  -0.00001  -0.00002  -0.00003  -0.00004   2.07271
   R61        2.77081   0.00009  -0.00018   0.00039   0.00022   2.77102
   R62        1.92720  -0.00001  -0.00000  -0.00003  -0.00003   1.92717
   R63        1.92524   0.00004  -0.00002   0.00011   0.00009   1.92532
    A1        2.11371   0.00099  -0.00069   0.00610   0.00540   2.11911
    A2        2.07890  -0.00090  -0.00050  -0.00552  -0.00602   2.07288
    A3        2.09058  -0.00009   0.00119  -0.00058   0.00061   2.09119
    A4        2.07376  -0.00331   0.00079  -0.01519  -0.01439   2.05937
    A5        2.11916   0.00286  -0.00101   0.01366   0.01264   2.13180
    A6        2.09000   0.00044   0.00023   0.00150   0.00173   2.09173
    A7        2.09550   0.00148  -0.00077   0.00833   0.00753   2.10302
    A8        2.08556  -0.00055   0.00059  -0.00304  -0.00246   2.08310
    A9        2.10158  -0.00094   0.00015  -0.00562  -0.00548   2.09610
   A10        2.10062   0.00052  -0.00018   0.00181   0.00161   2.10223
   A11        2.24660   0.00007   0.00006   0.00156   0.00163   2.24823
   A12        1.93594  -0.00060   0.00012  -0.00335  -0.00322   1.93272
   A13        2.09960  -0.00055   0.00103  -0.00469  -0.00369   2.09591
   A14        1.89432   0.00046  -0.00024   0.00260   0.00237   1.89669
   A15        2.28924   0.00008  -0.00079   0.00211   0.00133   2.29058
   A16        2.08312   0.00086  -0.00018   0.00360   0.00340   2.08653
   A17        2.08934  -0.00010  -0.00006   0.00069   0.00064   2.08998
   A18        2.11072  -0.00076   0.00025  -0.00430  -0.00404   2.10668
   A19        1.76271   0.00027  -0.00050   0.00249   0.00199   1.76470
   A20        1.94471  -0.00011   0.00016  -0.00069  -0.00052   1.94418
   A21        1.94477  -0.00008  -0.00001  -0.00020  -0.00021   1.94457
   A22        1.94396  -0.00009   0.00018  -0.00070  -0.00052   1.94344
   A23        1.94427  -0.00012  -0.00001  -0.00057  -0.00057   1.94370
   A24        1.91931   0.00013   0.00013  -0.00019  -0.00007   1.91924
   A25        2.24808   0.00020  -0.00015   0.00143   0.00129   2.24937
   A26        1.93833  -0.00031   0.00042  -0.00224  -0.00182   1.93651
   A27        2.09678   0.00012  -0.00028   0.00080   0.00053   2.09730
   A28        2.07956   0.00007  -0.00014   0.00027   0.00014   2.07969
   A29        2.10987   0.00003   0.00004   0.00038   0.00041   2.11029
   A30        2.09376  -0.00010   0.00010  -0.00065  -0.00055   2.09320
   A31        2.10591  -0.00009   0.00043  -0.00076  -0.00032   2.10559
   A32        2.08849   0.00007  -0.00022   0.00055   0.00033   2.08882
   A33        2.08879   0.00002  -0.00021   0.00021  -0.00001   2.08878
   A34        2.10398   0.00005  -0.00007   0.00033   0.00026   2.10424
   A35        2.08980  -0.00012   0.00009  -0.00093  -0.00084   2.08896
   A36        2.08941   0.00008  -0.00002   0.00060   0.00058   2.08999
   A37        2.07351   0.00009  -0.00027   0.00059   0.00032   2.07383
   A38        2.10021   0.00007   0.00010   0.00056   0.00066   2.10087
   A39        2.10946  -0.00016   0.00017  -0.00115  -0.00097   2.10849
   A40        1.89343   0.00018   0.00018   0.00048   0.00066   1.89409
   A41        2.28312   0.00005  -0.00050   0.00076   0.00027   2.28338
   A42        2.10664  -0.00023   0.00032  -0.00124  -0.00092   2.10571
   A43        1.93102  -0.00001  -0.00010   0.00003  -0.00007   1.93095
   A44        1.93190  -0.00003  -0.00008  -0.00020  -0.00028   1.93162
   A45        1.93985  -0.00001   0.00016  -0.00018  -0.00002   1.93983
   A46        1.88240   0.00002   0.00001   0.00014   0.00015   1.88255
   A47        1.88870   0.00002   0.00002   0.00015   0.00017   1.88887
   A48        1.88816   0.00002  -0.00002   0.00008   0.00006   1.88822
   A49        1.93142   0.00000  -0.00009   0.00005  -0.00005   1.93137
   A50        1.93145   0.00001  -0.00012   0.00013   0.00001   1.93147
   A51        1.94024  -0.00002   0.00017  -0.00024  -0.00007   1.94017
   A52        1.88179  -0.00001   0.00004  -0.00012  -0.00008   1.88171
   A53        1.88883   0.00001  -0.00000   0.00003   0.00002   1.88885
   A54        1.88827   0.00001   0.00001   0.00015   0.00017   1.88844
   A55        2.13765   0.00610  -0.00267   0.03053   0.02784   2.16549
   A56        2.10787  -0.00307  -0.00376  -0.01228  -0.01605   2.09182
   A57        2.03765  -0.00303   0.00644  -0.01826  -0.01179   2.02586
   A58        2.10402   0.00098  -0.00259   0.00661   0.00398   2.10800
   A59        2.19956  -0.00344   0.00177  -0.01613  -0.01439   2.18517
   A60        1.97928   0.00246   0.00081   0.00918   0.00998   1.98926
   A61        2.14026   0.00180  -0.00406   0.01125   0.00720   2.14746
   A62        2.08819  -0.00359   0.00363  -0.02659  -0.02304   2.06515
   A63        2.05377   0.00177   0.00035   0.01464   0.01489   2.06866
   A64        2.10534   0.00106  -0.00238   0.00662   0.00420   2.10953
   A65        1.97905   0.00304   0.00072   0.01214   0.01285   1.99190
   A66        2.19851  -0.00411   0.00166  -0.01902  -0.01738   2.18113
   A67        2.14072   0.00161  -0.00385   0.00979   0.00597   2.14669
   A68        2.05379   0.00196   0.00030   0.01609   0.01631   2.07011
   A69        2.08782  -0.00358   0.00349  -0.02642  -0.02299   2.06483
   A70        2.03837  -0.00242   0.00644  -0.01601  -0.00955   2.02882
   A71        2.13596   0.00518  -0.00271   0.02647   0.02375   2.15972
   A72        2.10884  -0.00275  -0.00372  -0.01048  -0.01421   2.09463
   A73        1.87959  -0.00421   0.00328  -0.02146  -0.01818   1.86141
   A74        1.87961  -0.00453   0.00333  -0.02306  -0.01972   1.85989
   A75        1.70714   0.00324  -0.00815   0.02321   0.01505   1.72219
   A76        2.12820   0.00233  -0.00075   0.01108   0.01033   2.13853
   A77        2.09720   0.00024   0.00008   0.00073   0.00081   2.09802
   A78        2.05748  -0.00257   0.00068  -0.01182  -0.01114   2.04634
   A79        2.10455   0.00074  -0.00071   0.00471   0.00400   2.10855
   A80        2.08568  -0.00070  -0.00044  -0.00429  -0.00473   2.08095
   A81        2.09295  -0.00004   0.00115  -0.00044   0.00072   2.09367
   A82        2.11170   0.00113  -0.00065   0.00654   0.00587   2.11757
   A83        2.08831  -0.00041   0.00057  -0.00239  -0.00183   2.08648
   A84        2.08281  -0.00072   0.00006  -0.00437  -0.00432   2.07849
   A85        2.12103   0.00066  -0.00004   0.00273   0.00267   2.12371
   A86        2.07865  -0.00007  -0.00009   0.00060   0.00051   2.07916
   A87        2.08349  -0.00059   0.00014  -0.00334  -0.00319   2.08029
   A88        2.11378   0.00041  -0.00017   0.00132   0.00114   2.11492
   A89        2.08425   0.00007   0.00005   0.00136   0.00142   2.08568
   A90        2.08515  -0.00048   0.00012  -0.00268  -0.00256   2.08259
   A91        2.05777  -0.00036   0.00088  -0.00352  -0.00266   2.05511
   A92        2.11544   0.00021  -0.00039   0.00192   0.00154   2.11698
   A93        2.10941   0.00015  -0.00048   0.00166   0.00119   2.11061
   A94        1.93250   0.00004  -0.00001   0.00067   0.00066   1.93316
   A95        1.91462   0.00001   0.00000   0.00025   0.00025   1.91487
   A96        1.96577   0.00007  -0.00031   0.00047   0.00015   1.96593
   A97        1.86443   0.00005   0.00022   0.00046   0.00067   1.86511
   A98        1.88487  -0.00010   0.00003  -0.00093  -0.00090   1.88397
   A99        1.89847  -0.00008   0.00009  -0.00095  -0.00086   1.89761
   A100       1.90019  -0.00006   0.00013  -0.00058  -0.00045   1.89974
   A101       1.90090  -0.00006   0.00007  -0.00052  -0.00045   1.90045
   A102       1.92177   0.00011  -0.00042   0.00081   0.00038   1.92215
   A103       1.85836   0.00004   0.00004   0.00021   0.00025   1.85861
   A104       1.99714  -0.00001   0.00016   0.00002   0.00018   1.99732
   A105       1.88256  -0.00002   0.00004   0.00002   0.00006   1.88261
   A106       1.91186  -0.00000   0.00007   0.00001   0.00008   1.91193
   A107       1.91423   0.00009  -0.00015   0.00083   0.00068   1.91491
   A108       1.84809  -0.00003   0.00005  -0.00012  -0.00007   1.84802
    D1       -0.00881   0.00012   0.00058   0.00579   0.00635  -0.00246
    D2        3.10796   0.00011   0.00103   0.00427   0.00530   3.11326
    D3        3.13423   0.00018   0.00017   0.00895   0.00909  -3.13986
    D4       -0.03218   0.00016   0.00062   0.00744   0.00804  -0.02414
    D5        0.01065   0.00007   0.00100   0.00215   0.00312   0.01377
    D6       -3.13070   0.00012   0.00073   0.00486   0.00557  -3.12513
    D7       -3.13240   0.00001   0.00141  -0.00104   0.00034  -3.13206
    D8        0.00944   0.00006   0.00114   0.00167   0.00280   0.01223
    D9       -0.00106  -0.00026  -0.00217  -0.01150  -0.01366  -0.01472
   D10       -3.10722  -0.00002  -0.00122  -0.00085  -0.00202  -3.10924
   D11       -3.11825  -0.00028  -0.00260  -0.01019  -0.01280  -3.13106
   D12        0.05877  -0.00004  -0.00164   0.00046  -0.00116   0.05761
   D13        0.54813  -0.00169  -0.02285  -0.11429  -0.13713   0.41099
   D14       -2.59838  -0.00173  -0.02189  -0.11679  -0.13869  -2.73707
   D15       -2.61851  -0.00176  -0.02238  -0.11606  -0.13842  -2.75694
   D16        0.51817  -0.00180  -0.02143  -0.11855  -0.13998   0.37818
   D17        0.00883   0.00022   0.00217   0.00934   0.01156   0.02039
   D18       -3.12414   0.00016   0.00150   0.00659   0.00812  -3.11602
   D19        3.11466  -0.00002   0.00121  -0.00136  -0.00011   3.11455
   D20       -0.01831  -0.00007   0.00055  -0.00411  -0.00354  -0.02185
   D21       -0.00702  -0.00003  -0.00056  -0.00128  -0.00183  -0.00885
   D22        3.14000  -0.00008  -0.00109  -0.00418  -0.00526   3.13474
   D23        3.12737   0.00002  -0.00000   0.00104   0.00105   3.12842
   D24       -0.00879  -0.00004  -0.00053  -0.00186  -0.00238  -0.01117
   D25       -3.14085   0.00007   0.00096   0.00404   0.00500  -3.13585
   D26        1.07636   0.00007   0.00095   0.00378   0.00473   1.08109
   D27       -1.07449   0.00004   0.00068   0.00467   0.00535  -1.06914
   D28        0.00871   0.00002   0.00034   0.00148   0.00181   0.01052
   D29       -2.05726   0.00002   0.00034   0.00121   0.00155  -2.05572
   D30        2.07507  -0.00001   0.00006   0.00211   0.00216   2.07723
   D31       -0.00276  -0.00011  -0.00104  -0.00444  -0.00548  -0.00824
   D32        3.13859  -0.00016  -0.00076  -0.00718  -0.00796   3.13063
   D33        3.13200  -0.00004  -0.00037  -0.00081  -0.00117   3.13083
   D34       -0.00984  -0.00009  -0.00010  -0.00354  -0.00364  -0.01348
   D35        0.00493   0.00004   0.00049   0.00146   0.00195   0.00688
   D36       -3.13718   0.00003   0.00034   0.00125   0.00159  -3.13559
   D37       -3.13044  -0.00002  -0.00012  -0.00183  -0.00198  -3.13242
   D38        0.01064  -0.00003  -0.00028  -0.00203  -0.00233   0.00830
   D39        3.13633  -0.00000  -0.00019  -0.00054  -0.00073   3.13560
   D40       -0.00562   0.00000  -0.00004  -0.00058  -0.00061  -0.00623
   D41       -1.08035  -0.00002  -0.00019  -0.00027  -0.00046  -1.08081
   D42        2.06090  -0.00002  -0.00004  -0.00031  -0.00035   2.06055
   D43        1.06960  -0.00000   0.00010  -0.00143  -0.00134   1.06826
   D44       -2.07234   0.00000   0.00025  -0.00147  -0.00122  -2.07356
   D45        3.07483   0.00010  -0.00017   0.00074   0.00057   3.07539
   D46       -1.12267   0.00010  -0.00027   0.00081   0.00053  -1.12214
   D47        0.97603   0.00009  -0.00024   0.00065   0.00041   0.97644
   D48        1.12109  -0.00011   0.00023  -0.00149  -0.00126   1.11983
   D49       -3.07641  -0.00011   0.00013  -0.00143  -0.00130  -3.07770
   D50       -0.97771  -0.00012   0.00017  -0.00159  -0.00142  -0.97913
   D51       -1.04305   0.00001   0.00002  -0.00014  -0.00012  -1.04317
   D52        1.04264   0.00001  -0.00008  -0.00007  -0.00015   1.04248
   D53        3.14134   0.00000  -0.00004  -0.00023  -0.00028   3.14106
   D54        1.12403  -0.00010   0.00036  -0.00122  -0.00085   1.12318
   D55       -3.07426  -0.00011   0.00027  -0.00125  -0.00098  -3.07523
   D56       -0.97545  -0.00010   0.00032  -0.00112  -0.00080  -0.97626
   D57        3.07799   0.00011  -0.00025   0.00138   0.00113   3.07912
   D58       -1.12030   0.00010  -0.00034   0.00135   0.00100  -1.11929
   D59        0.97850   0.00011  -0.00030   0.00147   0.00118   0.97968
   D60       -1.04124   0.00000   0.00007  -0.00005   0.00001  -1.04122
   D61        1.04366  -0.00000  -0.00003  -0.00008  -0.00011   1.04355
   D62       -3.14072   0.00001   0.00002   0.00004   0.00006  -3.14066
   D63        3.14043   0.00001   0.00009   0.00035   0.00045   3.14088
   D64       -0.00029   0.00001   0.00015   0.00013   0.00028  -0.00001
   D65       -0.00079   0.00001  -0.00007   0.00039   0.00032  -0.00046
   D66       -3.14151   0.00000  -0.00002   0.00018   0.00016  -3.14135
   D67        0.00081  -0.00003  -0.00027  -0.00048  -0.00075   0.00006
   D68       -3.14033  -0.00001  -0.00013  -0.00030  -0.00044  -3.14077
   D69       -3.14109  -0.00002  -0.00014  -0.00052  -0.00065   3.14144
   D70        0.00095  -0.00001   0.00000  -0.00034  -0.00034   0.00061
   D71        0.00022  -0.00000   0.00006  -0.00020  -0.00014   0.00008
   D72       -3.14094  -0.00000   0.00008  -0.00018  -0.00009  -3.14103
   D73        3.14095   0.00000   0.00001   0.00002   0.00003   3.14098
   D74       -0.00021   0.00000   0.00003   0.00004   0.00007  -0.00014
   D75        0.00020  -0.00000   0.00002  -0.00006  -0.00004   0.00016
   D76       -3.14124   0.00000   0.00002  -0.00003  -0.00001  -3.14125
   D77        3.14136  -0.00000  -0.00000  -0.00009  -0.00009   3.14127
   D78       -0.00008  -0.00000  -0.00000  -0.00005  -0.00005  -0.00013
   D79       -0.00005   0.00000  -0.00009   0.00012   0.00004  -0.00001
   D80       -3.14128   0.00000   0.00002  -0.00002  -0.00001  -3.14129
   D81        3.14139   0.00000  -0.00009   0.00009   0.00000   3.14139
   D82        0.00016   0.00000   0.00002  -0.00006  -0.00004   0.00012
   D83       -3.14155   0.00002   0.00025   0.00030   0.00055  -3.14100
   D84       -0.00052   0.00000   0.00008   0.00007   0.00015  -0.00037
   D85       -0.00031   0.00002   0.00014   0.00045   0.00059   0.00027
   D86        3.14071   0.00000  -0.00003   0.00022   0.00019   3.14090
   D87        3.13524  -0.00001   0.00082   0.00000   0.00078   3.13602
   D88        0.02260   0.00025   0.00123   0.01506   0.01621   0.03881
   D89       -0.00163   0.00002  -0.00005   0.00239   0.00230   0.00067
   D90       -3.11427   0.00028   0.00036   0.01745   0.01774  -3.09653
   D91       -3.13662  -0.00005  -0.00106  -0.00151  -0.00258  -3.13920
   D92        0.05327   0.00031   0.00103   0.01590   0.01678   0.07005
   D93        0.00033  -0.00005  -0.00020  -0.00374  -0.00391  -0.00357
   D94       -3.09296   0.00030   0.00189   0.01368   0.01545  -3.07751
   D95        0.00048   0.00001   0.00013   0.00074   0.00086   0.00134
   D96       -3.11675   0.00029   0.00030   0.01212   0.01257  -3.10417
   D97        3.11656  -0.00030  -0.00021  -0.01292  -0.01332   3.10325
   D98       -0.00067  -0.00003  -0.00004  -0.00155  -0.00161  -0.00227
   D99        3.12356  -0.00025   0.00099  -0.01367  -0.01268   3.11087
   D100       0.00913   0.00001   0.00142   0.00046   0.00189   0.01101
   D101       0.00221   0.00005   0.00038   0.00189   0.00226   0.00448
   D102      -3.09477   0.00045   0.00194   0.01657   0.01872  -3.07604
   D103       3.09641  -0.00044  -0.00160  -0.01629  -0.01813   3.07828
   D104      -0.00057  -0.00003  -0.00004  -0.00160  -0.00167  -0.00224
   D105       0.00191  -0.00003   0.00004  -0.00266  -0.00259  -0.00069
   D106      -3.13541   0.00001  -0.00068  -0.00009  -0.00074  -3.13616
   D107       3.11587  -0.00022  -0.00018  -0.01503  -0.01514   3.10073
   D108      -0.02145  -0.00019  -0.00090  -0.01246  -0.01329  -0.03474
   D109      -0.00816   0.00003  -0.00136   0.00179   0.00041  -0.00775
   D110      -3.12385   0.00023  -0.00111   0.01342   0.01229  -3.11156
   D111      -0.00328  -0.00000  -0.00029   0.00142   0.00110  -0.00218
   D112       3.13411  -0.00002   0.00042  -0.00101  -0.00058   3.13353
   D113       3.09286  -0.00028  -0.00195  -0.01248  -0.01435   3.07851
   D114      -0.05293  -0.00029  -0.00124  -0.01490  -0.01603  -0.06896
   D115      -0.56415   0.00150   0.01891   0.10336   0.12227  -0.44188
   D116       2.60469   0.00154   0.01830   0.10384   0.12212   2.72682
   D117       2.58188   0.00154   0.01812   0.10604   0.12417   2.70605
   D118      -0.53246   0.00157   0.01751   0.10651   0.12403  -0.40844
   D119      -0.01225  -0.00000  -0.00194   0.00039  -0.00153  -0.01378
   D120       0.01188  -0.00002   0.00192  -0.00126   0.00064   0.01252
   D121      -3.10669  -0.00011  -0.00113  -0.00448  -0.00561  -3.11229
   D122       0.02917  -0.00014  -0.00063  -0.00641  -0.00703   0.02214
   D123       0.00825  -0.00010  -0.00054  -0.00476  -0.00530   0.00295
   D124      -3.13908  -0.00013  -0.00004  -0.00670  -0.00672   3.13739
   D125       3.11666   0.00027   0.00254   0.00970   0.01225   3.12891
   D126      -0.05440   0.00007   0.00170   0.00107   0.00275  -0.05165
   D127       0.00123   0.00023   0.00198   0.00981   0.01179   0.01302
   D128       3.11335   0.00003   0.00114   0.00118   0.00229   3.11565
   D129      -0.01061  -0.00006  -0.00076  -0.00202  -0.00275  -0.01336
   D130       3.12466  -0.00009  -0.00050  -0.00346  -0.00395   3.12071
   D131       3.13674  -0.00003  -0.00125  -0.00006  -0.00130   3.13545
   D132      -0.01118  -0.00005  -0.00100  -0.00150  -0.00249  -0.01367
   D133      -0.00866  -0.00021  -0.00216  -0.00822  -0.01041  -0.01907
   D134       3.13142  -0.00016  -0.00121  -0.00667  -0.00789   3.12353
   D135      -3.12087  -0.00002  -0.00132   0.00036  -0.00099  -3.12186
   D136       0.01921   0.00003  -0.00038   0.00191   0.00152   0.02073
   D137       0.00318   0.00008   0.00064   0.00379   0.00443   0.00760
   D138      -3.10271   0.00004   0.00018   0.00176   0.00194  -3.10077
   D139      -3.13207   0.00011   0.00039   0.00521   0.00561  -3.12646
   D140       0.04523   0.00007  -0.00007   0.00319   0.00312   0.04835
   D141       0.00642   0.00005   0.00082   0.00128   0.00208   0.00850
   D142       3.11244   0.00009   0.00128   0.00330   0.00457   3.11701
   D143      -3.13366  -0.00000  -0.00013  -0.00028  -0.00043  -3.13409
   D144      -0.02764   0.00004   0.00033   0.00174   0.00206  -0.02558
   D145      -2.61836  -0.00004   0.00008  -0.00020  -0.00012  -2.61848
   D146      -0.56488   0.00006   0.00034   0.00092   0.00127  -0.56361
   D147       1.55234   0.00001   0.00026   0.00019   0.00046   1.55279
   D148       0.56000  -0.00007  -0.00043  -0.00218  -0.00261   0.55738
   D149       2.61348   0.00002  -0.00016  -0.00106  -0.00123   2.61225
   D150      -1.55249  -0.00002  -0.00025  -0.00178  -0.00204  -1.55453
   D151      -0.98208   0.00002  -0.00011   0.00001  -0.00011  -0.98219
   D152       1.03761  -0.00000   0.00005  -0.00035  -0.00030   1.03731
   D153       3.09854   0.00000  -0.00011  -0.00017  -0.00028   3.09826
   D154      -3.12156  -0.00001   0.00008  -0.00049  -0.00042  -3.12197
   D155      -1.10187  -0.00003   0.00024  -0.00085  -0.00061  -1.10248
   D156       0.95906  -0.00002   0.00008  -0.00067  -0.00059   0.95847
   D157       1.14430   0.00002  -0.00025  -0.00004  -0.00028   1.14402
   D158      -3.11920  -0.00000  -0.00009  -0.00039  -0.00048  -3.11967
   D159      -1.05826   0.00001  -0.00024  -0.00021  -0.00046  -1.05872
   D160       1.19051   0.00002   0.00024   0.00162   0.00187   1.19238
   D161      -3.07138   0.00003   0.00026   0.00196   0.00222  -3.06916
   D162      -0.95624   0.00003   0.00029   0.00174   0.00203  -0.95421
   D163       1.06506   0.00004   0.00030   0.00208   0.00238   1.06744
   D164      -3.02047   0.00000   0.00011   0.00146   0.00157  -3.01890
   D165      -0.99917   0.00001   0.00013   0.00179   0.00192  -0.99725
         Item               Value     Threshold  Converged?
 Maximum Force            0.009716     0.000450     NO 
 RMS     Force            0.001499     0.000300     NO 
 Maximum Displacement     0.654590     0.001800     NO 
 RMS     Displacement     0.097056     0.001200     NO 
 Predicted change in Energy=-2.525396D-03
 Lowest energy point so far.  Saving SCF results.
 GradGradGradGradGradGradGradGradGradGradGradGradGradGradGradGradGradGrad

 Leave Link  103 at Thu Mar 14 09:21:53 2024, MaxMem= 32212254720 cpu:               3.1 elap:               0.1
 (Enter /home/<user>/g16/l202.exe)
 Stoichiometry    C29H25N3S(3)
 Framework group  C1[X(C29H25N3S)]
 Deg. of freedom   168
 Full point group                 C1      NOp   1
 RotChk:  IX=0 Diff= 6.48D-02
 Largest Abelian subgroup         C1      NOp   1
 Largest concise Abelian subgroup C1      NOp   1
                         Standard orientation:                         
 ---------------------------------------------------------------------
 Center     Atomic      Atomic             Coordinates (Angstroms)
 Number     Number       Type             X           Y           Z
 ---------------------------------------------------------------------
      1          6           0       -2.452142    1.658751   -0.397228
      2          6           0       -1.773752    0.425876   -0.185725
      3          6           0       -2.560758   -0.742513    0.026891
      4          6           0       -3.938774   -0.665467    0.042825
      5          6           0       -4.589981    0.570492   -0.176209
      6          6           0       -3.837676    1.730410   -0.401016
      7          1           0       -1.867193    2.552944   -0.561465
      8          1           0       -2.066072   -1.689457    0.220656
      9          1           0       -4.327823    2.683594   -0.580527
     10          6           0       -4.958339   -1.779721    0.282127
     11          6           0       -6.272306   -1.009333    0.153175
     12          6           0       -7.574728   -1.481394    0.263682
     13          6           0       -8.640436   -0.586286    0.107858
     14          6           0       -8.402148    0.767857   -0.156094
     15          6           0       -7.097791    1.249833   -0.268833
     16          6           0       -6.032865    0.356197   -0.113458
     17          1           0       -7.773058   -2.530725    0.469020
     18          1           0       -9.662264   -0.946164    0.193084
     19          1           0       -9.240638    1.448869   -0.273893
     20          1           0       -6.916421    2.301704   -0.473519
     21          6           0       -4.802065   -2.393576    1.691614
     22          1           0       -5.580413   -3.143282    1.874909
     23          1           0       -3.828881   -2.887649    1.792788
     24          1           0       -4.877401   -1.625209    2.467456
     25          6           0       -4.846952   -2.886263   -0.790538
     26          1           0       -3.874820   -3.388978   -0.728103
     27          1           0       -5.626035   -3.643822   -0.647146
     28          1           0       -4.954088   -2.472138   -1.798147
     29          6           0       -0.326647    0.326608   -0.212818
     30          6           0        0.561894    1.430810    0.035166
     31          6           0        0.305074   -0.949658   -0.496301
     32          6           0        2.014620    1.247336   -0.003875
     33          6           0        1.651517   -1.116510   -0.535133
     34          1           0       -0.328632   -1.792673   -0.748171
     35          6           0        2.587551   -0.037766   -0.292011
     36          1           0        2.046666   -2.087088   -0.814474
     37          7           0        0.180462    2.666023    0.360236
     38          7           0        2.710963    2.346277    0.289329
     39         16           0        1.586870    3.560490    0.588408
     40          6           0        4.021042   -0.292150   -0.340278
     41          6           0        4.965354    0.723371   -0.626881
     42          6           0        4.520310   -1.601086   -0.128290
     43          6           0        6.321736    0.433921   -0.697886
     44          1           0        4.618942    1.733673   -0.798139
     45          6           0        5.880276   -1.872447   -0.183779
     46          1           0        3.831728   -2.403285    0.117917
     47          6           0        6.811624   -0.862831   -0.474869
     48          1           0        7.021394    1.231211   -0.939282
     49          1           0        6.232401   -2.885072    0.000391
     50          6           0        8.292517   -1.157509   -0.502805
     51          1           0        8.478005   -2.184705   -0.836818
     52          1           0        8.789117   -0.493279   -1.223792
     53          6           0        8.958634   -0.978770    0.874280
     54          1           0        8.763295    0.047175    1.234775
     55          1           0        8.479842   -1.657065    1.591020
     56          7           0       10.379073   -1.334754    0.797835
     57          1           0       10.872806   -0.647790    0.228333
     58          1           0       10.797400   -1.280525    1.725246
 ---------------------------------------------------------------------
 Rotational constants (GHZ):           0.3565915           0.0397918           0.0365150
 Leave Link  202 at Thu Mar 14 09:21:53 2024, MaxMem= 32212254720 cpu:               0.1 elap:               0.0
 (Enter /home/<user>/g16/l301.exe)
 Standard basis: 6-31G(d) (6D, 7F)
 Ernie: Thresh=  0.10000D-02 Tol=  0.10000D-05 Strict=F.
 There are   549 symmetry adapted cartesian basis functions of A   symmetry.
 There are   549 symmetry adapted basis functions of A   symmetry.
   549 basis functions,  1048 primitive gaussians,   549 cartesian basis functions
   119 alpha electrons      117 beta electrons
       nuclear repulsion energy      3077.0231636346 Hartrees.
 IExCor=  402 DFT=T Ex+Corr=B3LYP ExCW=0 ScaHFX=  0.200000
 ScaDFX=  0.800000  0.720000  1.000000  0.810000 ScalE2=  1.000000  1.000000
 IRadAn=      5 IRanWt=     -1 IRanGd=            0 ICorTp=0 IEmpDi=  4
 NAtoms=   58 NActive=   58 NUniq=   58 SFac= 1.00D+00 NAtFMM=   60 NAOKFM=F Big=F
 Integral buffers will be    131072 words long.
 Raffenetti 2 integral format.
 Two-electron integral symmetry is turned on.
 Leave Link  301 at Thu Mar 14 09:21:53 2024, MaxMem= 32212254720 cpu:               0.8 elap:               0.0
 (Enter /home/<user>/g16/l302.exe)
 NPDir=0 NMtPBC=     1 NCelOv=     1 NCel=       1 NClECP=     1 NCelD=      1
         NCelK=      1 NCelE2=     1 NClLst=     1 CellRange=     0.0.
 One-electron integrals computed using PRISM.
 One-electron integral symmetry used in STVInt
 NBasis=   549 RedAO= T EigKep=  2.79D-04  NBF=   549
 NBsUse=   549 1.00D-06 EigRej= -1.00D+00 NBFU=   549
 Precomputing XC quadrature grid using
 IXCGrd= 4 IRadAn=           5 IRanWt=          -1 IRanGd=           0 AccXCQ= 0.00D+00.
 Generated NRdTot=       0 NPtTot=           0 NUsed=           0 NTot=          32
 NSgBfM=   512   512   512   512   512 MxSgAt=    58 MxSgA2=    58.
 Leave Link  302 at Thu Mar 14 09:21:54 2024, MaxMem= 32212254720 cpu:              12.8 elap:               0.4
 (Enter /home/<user>/g16/l303.exe)
 DipDrv:  MaxL=1.
 Leave Link  303 at Thu Mar 14 09:21:54 2024, MaxMem= 32212254720 cpu:               1.4 elap:               0.1
 (Enter /home/<user>/g16/l401.exe)
 Initial guess from the checkpoint file:  "FBTP_T1opt.chk"
 B after Tr=     0.000000   -0.000000   -0.000000
         Rot=    0.999975   -0.007006   -0.000140   -0.000207 Ang=  -0.80 deg.
 Guess basis will be translated and rotated to current coordinates.
 JPrj=2 DoOrth=T DoCkMO=T.
 Initial guess <Sx>= 0.0000 <Sy>= 0.0000 <Sz>= 1.0000 <S**2>= 2.0325 S= 1.0108
 Generating alternative initial guess.
 ExpMin= 1.17D-01 ExpMax= 2.19D+04 ExpMxC= 3.30D+03 IAcc=3 IRadAn=         5 AccDes= 0.00D+00
 Harris functional with IExCor=  402 and IRadAn=       5 diagonalized for initial guess.
 HarFok:  IExCor=  402 AccDes= 0.00D+00 IRadAn=         5 IDoV= 1 UseB2=F ITyADJ=14
 ICtDFT=  3500011 ScaDFX=  1.000000  1.000000  1.000000  1.000000
 FoFCou: FMM=F IPFlag=           0 FMFlag=      100000 FMFlg1=           0
         NFxFlg=           0 DoJE=T BraDBF=F KetDBF=T FulRan=T
         wScrn=  0.000000 ICntrl=       500 IOpCl=  0 I1Cent=   200000004 NGrid=           0
         NMat0=    1 NMatS0=      1 NMatT0=    0 NMatD0=    1 NMtDS0=    0 NMtDT0=    0
 Petite list used in FoFCou.
 Harris En= -1682.50192170715    
 Leave Link  401 at Thu Mar 14 09:21:56 2024, MaxMem= 32212254720 cpu:              47.5 elap:               1.6
 (Enter /home/<user>/g16/l502.exe)
 Integral symmetry usage will be decided dynamically.
 UHF open shell SCF:
 Using DIIS extrapolation, IDIIS=  1040.
 NGot= 32212254720 LenX= 32211628124 LenY= 32211326174
 Requested convergence on RMS density matrix=1.00D-08 within 128 cycles.
 Requested convergence on MAX density matrix=1.00D-06.
 Requested convergence on             energy=1.00D-06.
 No special actions if energy rises.
 Fock matrices will be formed incrementally for  20 cycles.
 Integral accuracy reduced to 1.0D-05 until final iterations.

 Cycle   1  Pass 0  IDiag  1:
 FoFJK:  IHMeth= 1 ICntrl=       0 DoSepK=F KAlg= 0 I1Cent=           0 FoldK=F
 IRaf= 550000000 NMat=       1 IRICut=       1 DoRegI=T DoRafI=F ISym2E= 0 IDoP0=0 IntGTp=1.
 FoFCou: FMM=F IPFlag=           0 FMFlag=      100000 FMFlg1=           0
         NFxFlg=           0 DoJE=F BraDBF=F KetDBF=F FulRan=T
         wScrn=  0.000000 ICntrl=         0 IOpCl=  1 I1Cent=           0 NGrid=           0
         NMat0=    1 NMatS0=      1 NMatT0=    0 NMatD0=    1 NMtDS0=    0 NMtDT0=    0
 Symmetry not used in FoFCou.
 E= -1682.50640328051    
 DIIS: error= 3.29D-03 at cycle   1 NSaved=   1.
 NSaved= 1 IEnMin= 1 EnMin= -1682.50640328051     IErMin= 1 ErrMin= 3.29D-03
 ErrMax= 3.29D-03  0.00D+00 EMaxC= 1.00D-01 BMatC= 6.57D-02 BMatP= 6.57D-02
 IDIUse=3 WtCom= 9.67D-01 WtEn= 3.29D-02
 Coeff-Com:  0.100D+01
 Coeff-En:   0.100D+01
 Coeff:      0.100D+01
 Gap=     1.906 Goal=   None    Shift=    0.000
 Gap=     1.986 Goal=   None    Shift=    0.000
 GapD=    1.906 DampG=2.000 DampE=1.000 DampFc=2.0000 IDamp=-1.
 RMSDP=4.87D-04 MaxDP=1.61D-02              OVMax= 3.15D-02

 Cycle   2  Pass 0  IDiag  1:
 RMSU=  4.87D-04    CP:  1.00D+00
 E= -1682.54262307281     Delta-E=       -0.036219792303 Rises=F Damp=F
 DIIS: error= 5.56D-04 at cycle   2 NSaved=   2.
 NSaved= 2 IEnMin= 2 EnMin= -1682.54262307281     IErMin= 2 ErrMin= 5.56D-04
 ErrMax= 5.56D-04  0.00D+00 EMaxC= 1.00D-01 BMatC= 1.04D-03 BMatP= 6.57D-02
 IDIUse=3 WtCom= 9.94D-01 WtEn= 5.56D-03
 Coeff-Com: -0.760D-01 0.108D+01
 Coeff-En:   0.000D+00 0.100D+01
 Coeff:     -0.756D-01 0.108D+01
 Gap=     0.092 Goal=   None    Shift=    0.000
 Gap=     0.078 Goal=   None    Shift=    0.000
 RMSDP=8.37D-05 MaxDP=4.60D-03 DE=-3.62D-02 OVMax= 1.55D-02

 Cycle   3  Pass 0  IDiag  1:
 RMSU=  7.51D-05    CP:  1.00D+00  1.08D+00
 E= -1682.54308356334     Delta-E=       -0.000460490524 Rises=F Damp=F
 DIIS: error= 4.41D-04 at cycle   3 NSaved=   3.
 NSaved= 3 IEnMin= 3 EnMin= -1682.54308356334     IErMin= 3 ErrMin= 4.41D-04
 ErrMax= 4.41D-04  0.00D+00 EMaxC= 1.00D-01 BMatC= 5.80D-04 BMatP= 1.04D-03
 IDIUse=3 WtCom= 9.96D-01 WtEn= 4.41D-03
 Coeff-Com: -0.420D-01 0.509D+00 0.533D+00
 Coeff-En:   0.000D+00 0.000D+00 0.100D+01
 Coeff:     -0.418D-01 0.506D+00 0.535D+00
 Gap=     0.091 Goal=   None    Shift=    0.000
 Gap=     0.079 Goal=   None    Shift=    0.000
 RMSDP=4.49D-05 MaxDP=3.16D-03 DE=-4.60D-04 OVMax= 9.71D-03

 Cycle   4  Pass 0  IDiag  1:
 RMSU=  3.45D-05    CP:  1.00D+00  1.09D+00  6.31D-01
 E= -1682.54317907949     Delta-E=       -0.000095516151 Rises=F Damp=F
 DIIS: error= 3.54D-04 at cycle   4 NSaved=   4.
 NSaved= 4 IEnMin= 4 EnMin= -1682.54317907949     IErMin= 4 ErrMin= 3.54D-04
 ErrMax= 3.54D-04  0.00D+00 EMaxC= 1.00D-01 BMatC= 2.52D-04 BMatP= 5.80D-04
 IDIUse=3 WtCom= 9.96D-01 WtEn= 3.54D-03
 Coeff-Com: -0.177D-01 0.195D+00 0.384D+00 0.439D+00
 Coeff-En:   0.000D+00 0.000D+00 0.317D+00 0.683D+00
 Coeff:     -0.176D-01 0.194D+00 0.384D+00 0.440D+00
 Gap=     0.092 Goal=   None    Shift=    0.000
 Gap=     0.079 Goal=   None    Shift=    0.000
 RMSDP=2.36D-05 MaxDP=2.14D-03 DE=-9.55D-05 OVMax= 7.39D-03

 Cycle   5  Pass 0  IDiag  1:
 RMSU=  1.61D-05    CP:  1.00D+00  1.09D+00  7.44D-01  5.63D-01
 E= -1682.54324872857     Delta-E=       -0.000069649082 Rises=F Damp=F
 DIIS: error= 1.35D-04 at cycle   5 NSaved=   5.
 NSaved= 5 IEnMin= 5 EnMin= -1682.54324872857     IErMin= 5 ErrMin= 1.35D-04
 ErrMax= 1.35D-04  0.00D+00 EMaxC= 1.00D-01 BMatC= 2.31D-05 BMatP= 2.52D-04
 IDIUse=3 WtCom= 9.99D-01 WtEn= 1.35D-03
 Coeff-Com: -0.115D-02 0.244D-03 0.107D+00 0.262D+00 0.631D+00
 Coeff-En:   0.000D+00 0.000D+00 0.000D+00 0.269D-01 0.973D+00
 Coeff:     -0.115D-02 0.244D-03 0.107D+00 0.262D+00 0.632D+00
 Gap=     0.092 Goal=   None    Shift=    0.000
 Gap=     0.079 Goal=   None    Shift=    0.000
 RMSDP=7.64D-06 MaxDP=5.52D-04 DE=-6.96D-05 OVMax= 1.51D-03

 Initial convergence to 1.0D-05 achieved.  Increase integral accuracy.
 Cycle   6  Pass 1  IDiag  1:
 E= -1682.54329162294     Delta-E=       -0.000042894369 Rises=F Damp=F
 DIIS: error= 9.81D-05 at cycle   1 NSaved=   1.
 NSaved= 1 IEnMin= 1 EnMin= -1682.54329162294     IErMin= 1 ErrMin= 9.81D-05
 ErrMax= 9.81D-05  0.00D+00 EMaxC= 1.00D-01 BMatC= 1.54D-05 BMatP= 1.54D-05
 IDIUse=1 WtCom= 1.00D+00 WtEn= 0.00D+00
 Coeff-Com:  0.100D+01
 Coeff:      0.100D+01
 Gap=     0.092 Goal=   None    Shift=    0.000
 Gap=     0.079 Goal=   None    Shift=    0.000
 RMSDP=7.64D-06 MaxDP=5.52D-04 DE=-4.29D-05 OVMax= 1.29D-03

 Cycle   7  Pass 1  IDiag  1:
 RMSU=  6.45D-05    CP:  1.00D+00
 E= -1682.54329267465     Delta-E=       -0.000001051706 Rises=F Damp=F
 DIIS: error= 6.12D-05 at cycle   2 NSaved=   2.
 NSaved= 2 IEnMin= 2 EnMin= -1682.54329267465     IErMin= 2 ErrMin= 6.12D-05
 ErrMax= 6.12D-05  0.00D+00 EMaxC= 1.00D-01 BMatC= 1.55D-05 BMatP= 1.54D-05
 IDIUse=1 WtCom= 1.00D+00 WtEn= 0.00D+00
 Coeff-Com:  0.502D+00 0.498D+00
 Coeff:      0.502D+00 0.498D+00
 Gap=     0.092 Goal=   None    Shift=    0.000
 Gap=     0.079 Goal=   None    Shift=    0.000
 RMSDP=6.73D-06 MaxDP=3.89D-04 DE=-1.05D-06 OVMax= 8.99D-04

 Cycle   8  Pass 1  IDiag  1:
 RMSU=  6.73D-06    CP:  1.00D+00  9.99D-01
 E= -1682.54329599309     Delta-E=       -0.000003318441 Rises=F Damp=F
 DIIS: error= 4.10D-05 at cycle   3 NSaved=   3.
 NSaved= 3 IEnMin= 3 EnMin= -1682.54329599309     IErMin= 3 ErrMin= 4.10D-05
 ErrMax= 4.10D-05  0.00D+00 EMaxC= 1.00D-01 BMatC= 5.01D-06 BMatP= 1.54D-05
 IDIUse=1 WtCom= 1.00D+00 WtEn= 0.00D+00
 Coeff-Com:  0.250D-01 0.352D+00 0.623D+00
 Coeff:      0.250D-01 0.352D+00 0.623D+00
 Gap=     0.092 Goal=   None    Shift=    0.000
 Gap=     0.079 Goal=   None    Shift=    0.000
 RMSDP=3.63D-06 MaxDP=2.81D-04 DE=-3.32D-06 OVMax= 7.92D-04

 Cycle   9  Pass 1  IDiag  1:
 RMSU=  2.78D-06    CP:  1.00D+00  1.01D+00  6.64D-01
 E= -1682.54329755914     Delta-E=       -0.000001566051 Rises=F Damp=F
 DIIS: error= 2.29D-05 at cycle   4 NSaved=   4.
 NSaved= 4 IEnMin= 4 EnMin= -1682.54329755914     IErMin= 4 ErrMin= 2.29D-05
 ErrMax= 2.29D-05  0.00D+00 EMaxC= 1.00D-01 BMatC= 1.17D-06 BMatP= 5.01D-06
 IDIUse=1 WtCom= 1.00D+00 WtEn= 0.00D+00
 Coeff-Com: -0.261D-01 0.204D+00 0.438D+00 0.384D+00
 Coeff:     -0.261D-01 0.204D+00 0.438D+00 0.384D+00
 Gap=     0.092 Goal=   None    Shift=    0.000
 Gap=     0.079 Goal=   None    Shift=    0.000
 RMSDP=1.40D-06 MaxDP=9.81D-05 DE=-1.57D-06 OVMax= 2.39D-04

 Cycle  10  Pass 1  IDiag  1:
 RMSU=  1.31D-06    CP:  1.00D+00  1.01D+00  7.21D-01  8.82D-01
 E= -1682.54329798554     Delta-E=       -0.000000426399 Rises=F Damp=F
 DIIS: error= 8.75D-06 at cycle   5 NSaved=   5.
 NSaved= 5 IEnMin= 5 EnMin= -1682.54329798554     IErMin= 5 ErrMin= 8.75D-06
 ErrMax= 8.75D-06  0.00D+00 EMaxC= 1.00D-01 BMatC= 1.28D-07 BMatP= 1.17D-06
 IDIUse=1 WtCom= 1.00D+00 WtEn= 0.00D+00
 Coeff-Com: -0.181D-01-0.844D-01-0.129D+00 0.426D-01 0.119D+01
 Coeff:     -0.181D-01-0.844D-01-0.129D+00 0.426D-01 0.119D+01
 Gap=     0.092 Goal=   None    Shift=    0.000
 Gap=     0.079 Goal=   None    Shift=    0.000
 RMSDP=1.78D-06 MaxDP=1.60D-04 DE=-4.26D-07 OVMax= 6.38D-04

 Cycle  11  Pass 1  IDiag  1:
 RMSU=  7.67D-07    CP:  1.00D+00  1.01D+00  7.74D-01  1.37D+00  1.59D+00
 E= -1682.54329821805     Delta-E=       -0.000000232509 Rises=F Damp=F
 DIIS: error= 8.14D-06 at cycle   6 NSaved=   6.
 NSaved= 6 IEnMin= 6 EnMin= -1682.54329821805     IErMin= 6 ErrMin= 8.14D-06
 ErrMax= 8.14D-06  0.00D+00 EMaxC= 1.00D-01 BMatC= 1.63D-07 BMatP= 1.28D-07
 IDIUse=1 WtCom= 1.00D+00 WtEn= 0.00D+00
 Coeff-Com:  0.381D-03-0.225D+00-0.432D+00-0.237D+00 0.120D+01 0.698D+00
 Coeff:      0.381D-03-0.225D+00-0.432D+00-0.237D+00 0.120D+01 0.698D+00
 Gap=     0.092 Goal=   None    Shift=    0.000
 Gap=     0.079 Goal=   None    Shift=    0.000
 RMSDP=1.59D-06 MaxDP=1.19D-04 DE=-2.33D-07 OVMax= 4.70D-04

 Cycle  12  Pass 1  IDiag  1:
 RMSU=  3.58D-07    CP:  1.00D+00  1.01D+00  8.08D-01  1.78D+00  2.36D+00
                    CP:  7.74D-01
 E= -1682.54329834994     Delta-E=       -0.000000131891 Rises=F Damp=F
 DIIS: error= 1.97D-06 at cycle   7 NSaved=   7.
 NSaved= 7 IEnMin= 7 EnMin= -1682.54329834994     IErMin= 7 ErrMin= 1.97D-06
 ErrMax= 1.97D-06  0.00D+00 EMaxC= 1.00D-01 BMatC= 1.31D-08 BMatP= 1.28D-07
 IDIUse=1 WtCom= 1.00D+00 WtEn= 0.00D+00
 Coeff-Com:  0.245D-02-0.114D+00-0.224D+00-0.133D+00 0.520D+00 0.385D+00
 Coeff-Com:  0.564D+00
 Coeff:      0.245D-02-0.114D+00-0.224D+00-0.133D+00 0.520D+00 0.385D+00
 Coeff:      0.564D+00
 Gap=     0.092 Goal=   None    Shift=    0.000
 Gap=     0.079 Goal=   None    Shift=    0.000
 RMSDP=2.87D-07 MaxDP=2.26D-05 DE=-1.32D-07 OVMax= 8.14D-05

 Cycle  13  Pass 1  IDiag  1:
 RMSU=  1.51D-07    CP:  1.00D+00  1.01D+00  8.15D-01  1.84D+00  2.46D+00
                    CP:  8.70D-01  7.70D-01
 E= -1682.54329835525     Delta-E=       -0.000000005316 Rises=F Damp=F
 DIIS: error= 1.28D-06 at cycle   8 NSaved=   8.
 NSaved= 8 IEnMin= 8 EnMin= -1682.54329835525     IErMin= 8 ErrMin= 1.28D-06
 ErrMax= 1.28D-06  0.00D+00 EMaxC= 1.00D-01 BMatC= 3.38D-09 BMatP= 1.31D-08
 IDIUse=1 WtCom= 1.00D+00 WtEn= 0.00D+00
 Coeff-Com:  0.152D-02-0.447D-01-0.890D-01-0.530D-01 0.183D+00 0.158D+00
 Coeff-Com:  0.361D+00 0.484D+00
 Coeff:      0.152D-02-0.447D-01-0.890D-01-0.530D-01 0.183D+00 0.158D+00
 Coeff:      0.361D+00 0.484D+00
 Gap=     0.092 Goal=   None    Shift=    0.000
 Gap=     0.079 Goal=   None    Shift=    0.000
 RMSDP=9.37D-08 MaxDP=5.85D-06 DE=-5.32D-09 OVMax= 1.69D-05

 Cycle  14  Pass 1  IDiag  1:
 RMSU=  8.41D-08    CP:  1.00D+00  1.01D+00  8.14D-01  1.85D+00  2.46D+00
                    CP:  8.60D-01  8.56D-01  8.65D-01
 E= -1682.54329835654     Delta-E=       -0.000000001287 Rises=F Damp=F
 DIIS: error= 5.17D-07 at cycle   9 NSaved=   9.
 NSaved= 9 IEnMin= 9 EnMin= -1682.54329835654     IErMin= 9 ErrMin= 5.17D-07
 ErrMax= 5.17D-07  0.00D+00 EMaxC= 1.00D-01 BMatC= 7.91D-10 BMatP= 3.38D-09
 IDIUse=1 WtCom= 1.00D+00 WtEn= 0.00D+00
 Coeff-Com: -0.361D-03 0.326D-01 0.634D-01 0.407D-01-0.163D+00-0.109D+00
 Coeff-Com: -0.825D-01 0.295D+00 0.922D+00
 Coeff:     -0.361D-03 0.326D-01 0.634D-01 0.407D-01-0.163D+00-0.109D+00
 Coeff:     -0.825D-01 0.295D+00 0.922D+00
 Gap=     0.092 Goal=   None    Shift=    0.000
 Gap=     0.079 Goal=   None    Shift=    0.000
 RMSDP=8.76D-08 MaxDP=7.79D-06 DE=-1.29D-09 OVMax= 2.20D-05

 Cycle  15  Pass 1  IDiag  1:
 RMSU=  5.28D-08    CP:  1.00D+00  1.01D+00  8.14D-01  1.84D+00  2.46D+00
                    CP:  8.66D-01  9.57D-01  1.24D+00  1.17D+00
 E= -1682.54329835729     Delta-E=       -0.000000000749 Rises=F Damp=F
 DIIS: error= 5.60D-07 at cycle  10 NSaved=  10.
 NSaved=10 IEnMin=10 EnMin= -1682.54329835729     IErMin= 9 ErrMin= 5.17D-07
 ErrMax= 5.60D-07  0.00D+00 EMaxC= 1.00D-01 BMatC= 4.43D-10 BMatP= 7.91D-10
 IDIUse=1 WtCom= 1.00D+00 WtEn= 0.00D+00
 Coeff-Com: -0.763D-03 0.385D-01 0.757D-01 0.477D-01-0.179D+00-0.131D+00
 Coeff-Com: -0.179D+00 0.606D-01 0.682D+00 0.585D+00
 Coeff:     -0.763D-03 0.385D-01 0.757D-01 0.477D-01-0.179D+00-0.131D+00
 Coeff:     -0.179D+00 0.606D-01 0.682D+00 0.585D+00
 Gap=     0.092 Goal=   None    Shift=    0.000
 Gap=     0.079 Goal=   None    Shift=    0.000
 RMSDP=4.53D-08 MaxDP=4.16D-06 DE=-7.49D-10 OVMax= 9.71D-06

 Cycle  16  Pass 1  IDiag  1:
 RMSU=  2.80D-08    CP:  1.00D+00  1.01D+00  8.14D-01  1.84D+00  2.46D+00
                    CP:  8.75D-01  1.00D+00  1.38D+00  1.43D+00  9.21D-01
 E= -1682.54329835740     Delta-E=       -0.000000000106 Rises=F Damp=F
 DIIS: error= 1.63D-07 at cycle  11 NSaved=  11.
 NSaved=11 IEnMin=11 EnMin= -1682.54329835740     IErMin=11 ErrMin= 1.63D-07
 ErrMax= 1.63D-07  0.00D+00 EMaxC= 1.00D-01 BMatC= 6.02D-11 BMatP= 4.43D-10
 IDIUse=1 WtCom= 1.00D+00 WtEn= 0.00D+00
 Coeff-Com: -0.311D-03 0.130D-01 0.256D-01 0.159D-01-0.587D-01-0.449D-01
 Coeff-Com: -0.734D-01-0.218D-01 0.165D+00 0.290D+00 0.690D+00
 Coeff:     -0.311D-03 0.130D-01 0.256D-01 0.159D-01-0.587D-01-0.449D-01
 Coeff:     -0.734D-01-0.218D-01 0.165D+00 0.290D+00 0.690D+00
 Gap=     0.092 Goal=   None    Shift=    0.000
 Gap=     0.079 Goal=   None    Shift=    0.000
 RMSDP=2.18D-08 MaxDP=2.33D-06 DE=-1.06D-10 OVMax= 6.09D-06

 Cycle  17  Pass 1  IDiag  1:
 RMSU=  1.46D-08    CP:  1.00D+00  1.01D+00  8.14D-01  1.84D+00  2.46D+00
                    CP:  8.76D-01  1.01D+00  1.43D+00  1.53D+00  1.10D+00
                    CP:  9.64D-01
 E= -1682.54329835749     Delta-E=       -0.000000000089 Rises=F Damp=F
 DIIS: error= 1.37D-07 at cycle  12 NSaved=  12.
 NSaved=12 IEnMin=12 EnMin= -1682.54329835749     IErMin=12 ErrMin= 1.37D-07
 ErrMax= 1.37D-07  0.00D+00 EMaxC= 1.00D-01 BMatC= 3.96D-11 BMatP= 6.02D-11
 IDIUse=1 WtCom= 1.00D+00 WtEn= 0.00D+00
 Coeff-Com:  0.106D-03-0.751D-02-0.146D-01-0.956D-02 0.360D-01 0.254D-01
 Coeff-Com:  0.257D-01-0.446D-01-0.191D+00-0.446D-01 0.554D+00 0.670D+00
 Coeff:      0.106D-03-0.751D-02-0.146D-01-0.956D-02 0.360D-01 0.254D-01
 Coeff:      0.257D-01-0.446D-01-0.191D+00-0.446D-01 0.554D+00 0.670D+00
 Gap=     0.092 Goal=   None    Shift=    0.000
 Gap=     0.079 Goal=   None    Shift=    0.000
 RMSDP=1.48D-08 MaxDP=1.57D-06 DE=-8.91D-11 OVMax= 3.32D-06

 Cycle  18  Pass 1  IDiag  1:
 RMSU=  8.58D-09    CP:  1.00D+00  1.01D+00  8.14D-01  1.84D+00  2.46D+00
                    CP:  8.76D-01  1.02D+00  1.47D+00  1.58D+00  1.20D+00
                    CP:  1.25D+00  9.34D-01
 E= -1682.54329835753     Delta-E=       -0.000000000046 Rises=F Damp=F
 DIIS: error= 4.85D-08 at cycle  13 NSaved=  13.
 NSaved=13 IEnMin=13 EnMin= -1682.54329835753     IErMin=13 ErrMin= 4.85D-08
 ErrMax= 4.85D-08  0.00D+00 EMaxC= 1.00D-01 BMatC= 7.45D-12 BMatP= 3.96D-11
 IDIUse=1 WtCom= 1.00D+00 WtEn= 0.00D+00
 Coeff-Com:  0.172D-03-0.905D-02-0.177D-01-0.113D-01 0.419D-01 0.311D-01
 Coeff-Com:  0.410D-01-0.178D-01-0.172D+00-0.129D+00 0.961D-01 0.396D+00
 Coeff-Com:  0.750D+00
 Coeff:      0.172D-03-0.905D-02-0.177D-01-0.113D-01 0.419D-01 0.311D-01
 Coeff:      0.410D-01-0.178D-01-0.172D+00-0.129D+00 0.961D-01 0.396D+00
 Coeff:      0.750D+00
 Gap=     0.092 Goal=   None    Shift=    0.000
 Gap=     0.079 Goal=   None    Shift=    0.000
 RMSDP=8.17D-09 MaxDP=8.61D-07 DE=-4.64D-11 OVMax= 1.82D-06

 SCF Done:  E(UB3LYP) =  -1682.54329836     A.U. after   18 cycles
            NFock= 18  Conv=0.82D-08     -V/T= 2.0082
 <Sx>= 0.0000 <Sy>= 0.0000 <Sz>= 1.0000 <S**2>= 2.0354 S= 1.0118
 <L.S>= 0.000000000000E+00
 KE= 1.668913949804D+03 PE=-1.007604698164D+04 EE= 3.647566569841D+03
 Annihilation of the first spin contaminant:
 S**2 before annihilation     2.0354,   after     2.0008
 Leave Link  502 at Thu Mar 14 09:22:41 2024, MaxMem= 32212254720 cpu:            1376.4 elap:              45.9
 (Enter /home/<user>/g16/l701.exe)
 ... and contract with generalized density number  0.
 Compute integral first derivatives.
 Leave Link  701 at Thu Mar 14 09:22:42 2024, MaxMem= 32212254720 cpu:               5.1 elap:               0.2
 (Enter /home/<user>/g16/l702.exe)
 L702 exits ... SP integral derivatives will be done elsewhere.
 Leave Link  702 at Thu Mar 14 09:22:42 2024, MaxMem= 32212254720 cpu:               0.6 elap:               0.0
 (Enter /home/<user>/g16/l703.exe)
 Integral derivatives from FoFJK, PRISM(SPDF).
 Compute integral first derivatives, UseDBF=F ICtDFT=           0.
 Calling FoFJK, ICntrl=      2127 FMM=F ISym2X=0 I1Cent= 0 IOpClX= 1 NMat=1 NMatS=1 NMatT=0.
 FoFJK:  IHMeth= 1 ICntrl=    2127 DoSepK=F KAlg= 0 I1Cent=           0 FoldK=F
 IRaf=         0 NMat=       1 IRICut=       1 DoRegI=T DoRafI=F ISym2E= 0 IDoP0=0 IntGTp=1.
 FoFCou: FMM=F IPFlag=           0 FMFlag=      100000 FMFlg1=         800
         NFxFlg=           0 DoJE=F BraDBF=F KetDBF=F FulRan=T
         wScrn=  0.000000 ICntrl=      2127 IOpCl=  1 I1Cent=           0 NGrid=           0
         NMat0=    1 NMatS0=      1 NMatT0=    0 NMatD0=    1 NMtDS0=    0 NMtDT0=    0
 Symmetry not used in FoFCou.
 Leave Link  703 at Thu Mar 14 09:22:48 2024, MaxMem= 32212254720 cpu:             193.7 elap:               6.5
 (Enter /home/<user>/g16/l716.exe)
 Dipole        =-4.61223399D-01-1.00353837D+00-7.56127610D-02
 ***** Axes restored to original set *****
 -------------------------------------------------------------------
 Center     Atomic                   Forces (Hartrees/Bohr)
 Number     Number              X              Y              Z
 -------------------------------------------------------------------
      1        6          -0.002486380    0.000814440    0.000696794
      2        6           0.005043909   -0.001061326   -0.001306179
      3        6          -0.002439343   -0.000603911    0.000125036
      4        6           0.001395515   -0.000068502    0.000065075
      5        6          -0.001339634    0.000000571   -0.000130683
      6        6           0.001237132   -0.000217495    0.000163565
      7        1           0.000057955    0.000046390   -0.000017486
      8        1          -0.001479476    0.000295279    0.000450695
      9        1           0.000053653    0.000122033    0.000007317
     10        6           0.000015030   -0.000266749   -0.000198635
     11        6          -0.000012508   -0.000127450    0.000023740
     12        6           0.000079962    0.000011784    0.000031475
     13        6           0.000009084   -0.000036569    0.000011221
     14        6           0.000128328    0.000091714   -0.000035174
     15        6          -0.000262423    0.000038190    0.000029016
     16        6           0.000544182    0.000119197    0.000012120
     17        1           0.000001834   -0.000014744    0.000002303
     18        1           0.000013228    0.000003509   -0.000010293
     19        1          -0.000010728    0.000002588   -0.000006565
     20        1           0.000012136    0.000019247   -0.000005108
     21        6          -0.000033094   -0.000007709    0.000010569
     22        1          -0.000004064   -0.000003550    0.000027282
     23        1           0.000007416   -0.000007269    0.000012496
     24        1           0.000003375    0.000013200    0.000010607
     25        6          -0.000045750   -0.000032211    0.000034709
     26        1           0.000002204   -0.000014782   -0.000018544
     27        1           0.000009448   -0.000023878   -0.000012183
     28        1           0.000018614    0.000002609    0.000006075
     29        6          -0.005834470    0.000197807    0.000900284
     30        6          -0.000407534   -0.000390040   -0.000522269
     31        6          -0.000922602    0.000083277    0.000389347
     32        6           0.000265721   -0.001275059   -0.000848679
     33        6           0.001304244   -0.000092955    0.000466447
     34        1           0.000676532    0.000611547   -0.000476653
     35        6           0.004727446   -0.001027522    0.000520361
     36        1          -0.000263945    0.000607664   -0.000353519
     37        7           0.003592897   -0.002249650   -0.000774460
     38        7          -0.004175475   -0.000865896   -0.000371785
     39       16           0.000831914    0.006172691    0.001211803
     40        6          -0.004119667   -0.000015448   -0.000919040
     41        6           0.002172711    0.000203714    0.000535830
     42        6           0.001620247   -0.000881680   -0.000074667
     43        6          -0.000826107   -0.000049286    0.000181539
     44        1           0.000085687   -0.000096062   -0.000036655
     45        6          -0.001046368   -0.000010859   -0.000020914
     46        1           0.001239566   -0.000033987    0.000338948
     47        6           0.000876859   -0.000089944   -0.000119576
     48        1          -0.000032210    0.000110776   -0.000014195
     49        1          -0.000108790   -0.000059460   -0.000054807
     50        6          -0.000171912   -0.000004766   -0.000016510
     51        1          -0.000013547    0.000003171    0.000019916
     52        1          -0.000014252    0.000023924   -0.000000846
     53        6           0.000085077   -0.000008809    0.000106027
     54        1           0.000013084    0.000020349   -0.000026063
     55        1           0.000011842    0.000004025    0.000013892
     56        7          -0.000054043    0.000044951   -0.000047405
     57        1           0.000002637    0.000003264    0.000017161
     58        1          -0.000035147   -0.000030343   -0.000002758
 -------------------------------------------------------------------
 Cartesian Forces:  Max     0.006172691 RMS     0.001135365
 Leave Link  716 at Thu Mar 14 09:22:48 2024, MaxMem= 32212254720 cpu:               0.7 elap:               0.0
 (Enter /home/<user>/g16/l103.exe)

 GradGradGradGradGradGradGradGradGradGradGradGradGradGradGradGradGradGrad
 Berny optimization.
 Using GEDIIS/GDIIS optimizer.
 FormGI is forming the generalized inverse of G from B-inverse, IUseBI=4.
 GSVD:  received Info=                   1 from GESDD.
 Internal  Forces:  Max     0.005420442 RMS     0.000773404
 Search for a local minimum.
 Step number   3 out of a maximum of  346
 All quantities printed in internal units (Hartrees-Bohrs-Radians)
 RMS Force = .77340D-03 SwitMx=.10000D-02 MixMth= 2
 Mixed Optimization -- En-DIIS/RFO-DIIS
 Update second derivatives using D2CorX and points    2    3
 DE= -2.46D-03 DEPred=-2.53D-03 R= 9.73D-01
 TightC=F SS=  1.41D+00  RLast= 3.93D-01 DXNew= 8.4853D-01 1.1791D+00
 Trust test= 9.73D-01 RLast= 3.93D-01 DXMaxT set to 8.49D-01
 ITU=  1  1  0
 Use linear search instead of GDIIS.
     Eigenvalues ---    0.00230   0.00230   0.00250   0.00611   0.00754
     Eigenvalues ---    0.00810   0.00999   0.01031   0.01252   0.01452
     Eigenvalues ---    0.01467   0.01605   0.01613   0.01635   0.01639
     Eigenvalues ---    0.01672   0.01698   0.01716   0.01732   0.01755
     Eigenvalues ---    0.01885   0.01906   0.02012   0.02033   0.02035
     Eigenvalues ---    0.02069   0.02084   0.02088   0.02090   0.02094
     Eigenvalues ---    0.02112   0.02114   0.02119   0.02119   0.02123
     Eigenvalues ---    0.02134   0.02143   0.02145   0.02148   0.02158
     Eigenvalues ---    0.02161   0.02162   0.02175   0.02299   0.04049
     Eigenvalues ---    0.04276   0.04394   0.04472   0.05425   0.05429
     Eigenvalues ---    0.05432   0.05502   0.05502   0.05558   0.05984
     Eigenvalues ---    0.08015   0.08963   0.09275   0.11603   0.12607
     Eigenvalues ---    0.12822   0.15303   0.15963   0.15986   0.15999
     Eigenvalues ---    0.16000   0.16000   0.16000   0.16000   0.16000
     Eigenvalues ---    0.16000   0.16000   0.16000   0.16000   0.16000
     Eigenvalues ---    0.16000   0.16000   0.16000   0.16000   0.16000
     Eigenvalues ---    0.16004   0.16213   0.18954   0.20211   0.21873
     Eigenvalues ---    0.21952   0.22000   0.22003   0.22436   0.22454
     Eigenvalues ---    0.22615   0.22978   0.23688   0.24128   0.24532
     Eigenvalues ---    0.24661   0.24955   0.24979   0.24985   0.24990
     Eigenvalues ---    0.24992   0.24998   0.24999   0.25075   0.28050
     Eigenvalues ---    0.28067   0.28473   0.28609   0.29010   0.31159
     Eigenvalues ---    0.31642   0.33128   0.33184   0.33785   0.34027
     Eigenvalues ---    0.34090   0.34100   0.34104   0.34105   0.34131
     Eigenvalues ---    0.34276   0.34289   0.34562   0.34753   0.35033
     Eigenvalues ---    0.35049   0.35084   0.35122   0.35151   0.35158
     Eigenvalues ---    0.35186   0.35189   0.35199   0.35246   0.35284
     Eigenvalues ---    0.35507   0.35587   0.36123   0.36242   0.36892
     Eigenvalues ---    0.38048   0.38262   0.40023   0.40682   0.41537
     Eigenvalues ---    0.41686   0.41723   0.42118   0.42652   0.42667
     Eigenvalues ---    0.43548   0.44364   0.44523   0.44562   0.44937
     Eigenvalues ---    0.44976   0.45004   0.45798   0.45947   0.46063
     Eigenvalues ---    0.46082   0.46408   0.46916   0.47021   0.47182
     Eigenvalues ---    0.47663   0.54587   0.58642
 RFO step:  Lambda=-9.81419452D-04 EMin= 2.29999300D-03
 Quartic linear search produced a step of  0.04731.
 Iteration  1 RMS(Cart)=  0.03424313 RMS(Int)=  0.00030184
 Iteration  2 RMS(Cart)=  0.00076106 RMS(Int)=  0.00002405
 Iteration  3 RMS(Cart)=  0.00000037 RMS(Int)=  0.00002405
 ITry= 1 IFail=0 DXMaxC= 2.81D-01 DCOld= 1.00D+10 DXMaxT= 8.49D-01 DXLimC= 3.00D+00 Rises=F
 Variable       Old X    -DE/DX   Delta X   Delta X   Delta X     New X
                                 (Linear)    (Quad)   (Total)
    R1        2.68908   0.00153   0.00053   0.00550   0.00604   2.69512
    R2        2.62179  -0.00082  -0.00011  -0.00218  -0.00228   2.61951
    R3        2.04293   0.00007  -0.00017  -0.00038  -0.00056   2.04238
    R4        2.69226   0.00247   0.00051   0.00774   0.00826   2.70052
    R5        2.74154  -0.00058  -0.00053  -0.00326  -0.00379   2.73774
    R6        2.60831  -0.00102  -0.00014  -0.00260  -0.00275   2.60556
    R7        2.05187  -0.00082  -0.00009  -0.00275  -0.00285   2.04902
    R8        2.67224  -0.00001   0.00002  -0.00027  -0.00027   2.67196
    R9        2.88970   0.00015   0.00004   0.00076   0.00080   2.89050
   R10        2.64691  -0.00004   0.00001  -0.00029  -0.00029   2.64661
   R11        2.75911  -0.00043  -0.00016  -0.00188  -0.00204   2.75707
   R12        2.05366   0.00008  -0.00000   0.00023   0.00023   2.05389
   R13        2.88865  -0.00004   0.00000   0.00005   0.00005   2.88870
   R14        2.92016   0.00006  -0.00002   0.00014   0.00012   2.92027
   R15        2.91989   0.00004  -0.00001   0.00014   0.00013   2.92002
   R16        2.62621  -0.00009   0.00001  -0.00016  -0.00015   2.62606
   R17        2.66786   0.00014   0.00001   0.00036   0.00037   2.66823
   R18        2.64645   0.00002  -0.00001   0.00000  -0.00000   2.64644
   R19        2.05502   0.00001  -0.00000   0.00004   0.00004   2.05506
   R20        2.64572   0.00007   0.00001   0.00015   0.00015   2.64588
   R21        2.05356  -0.00001   0.00000  -0.00003  -0.00002   2.05353
   R22        2.63639  -0.00013  -0.00001  -0.00032  -0.00033   2.63607
   R23        2.05339   0.00001  -0.00000   0.00003   0.00003   2.05343
   R24        2.64345   0.00014   0.00005   0.00047   0.00052   2.64397
   R25        2.05383   0.00002  -0.00001   0.00004   0.00003   2.05386
   R26        2.07137   0.00001  -0.00000   0.00004   0.00004   2.07140
   R27        2.07133   0.00001   0.00000   0.00004   0.00004   2.07136
   R28        2.06836   0.00002  -0.00000   0.00004   0.00004   2.06840
   R29        2.07152   0.00001   0.00000   0.00003   0.00004   2.07156
   R30        2.07132   0.00001  -0.00000   0.00002   0.00002   2.07135
   R31        2.06858  -0.00001  -0.00001  -0.00004  -0.00004   2.06854
   R32        2.71902   0.00187  -0.00003   0.00479   0.00476   2.72378
   R33        2.74387   0.00101   0.00160   0.00711   0.00872   2.75259
   R34        2.76805   0.00027   0.00102   0.00422   0.00522   2.77327
   R35        2.51902   0.00013  -0.00054  -0.00173  -0.00227   2.51675
   R36        2.56492   0.00302  -0.00131   0.00357   0.00226   2.56719
   R37        2.04902  -0.00080  -0.00014  -0.00283  -0.00297   2.04605
   R38        2.71408   0.00174  -0.00021   0.00376   0.00354   2.71762
   R39        2.52017   0.00047  -0.00051  -0.00098  -0.00149   2.51868
   R40        2.73779   0.00050   0.00151   0.00566   0.00716   2.74496
   R41        2.04946  -0.00058  -0.00012  -0.00212  -0.00223   2.04722
   R42        2.75274  -0.00015  -0.00043  -0.00171  -0.00214   2.75060
   R43        3.17908   0.00109   0.00110   0.00615   0.00727   3.18634
   R44        3.17752   0.00108   0.00105   0.00595   0.00702   3.18454
   R45        2.67591   0.00135   0.00040   0.00459   0.00500   2.68091
   R46        2.67750   0.00195   0.00039   0.00595   0.00634   2.68384
   R47        2.62434  -0.00055  -0.00006  -0.00142  -0.00148   2.62286
   R48        2.04409  -0.00011  -0.00014  -0.00082  -0.00096   2.04313
   R49        2.62272  -0.00073  -0.00010  -0.00190  -0.00200   2.62072
   R50        2.05128  -0.00066  -0.00008  -0.00223  -0.00231   2.04897
   R51        2.65323  -0.00014  -0.00002  -0.00058  -0.00061   2.65262
   R52        2.05578   0.00006   0.00000   0.00019   0.00019   2.05597
   R53        2.65334  -0.00002  -0.00002  -0.00026  -0.00029   2.65305
   R54        2.05565   0.00001  -0.00000   0.00001   0.00001   2.05566
   R55        2.85384  -0.00018  -0.00001  -0.00063  -0.00065   2.85319
   R56        2.07104  -0.00001  -0.00000  -0.00004  -0.00005   2.07099
   R57        2.07667   0.00001  -0.00000   0.00001   0.00000   2.07667
   R58        2.91044   0.00007   0.00004   0.00040   0.00044   2.91088
   R59        2.08785   0.00001  -0.00001   0.00001   0.00001   2.08786
   R60        2.07271   0.00000  -0.00000   0.00000  -0.00000   2.07271
   R61        2.77102  -0.00009   0.00001  -0.00021  -0.00020   2.77083
   R62        1.92717  -0.00001  -0.00000  -0.00002  -0.00002   1.92715
   R63        1.92532  -0.00002   0.00000  -0.00003  -0.00003   1.92529
    A1        2.11911   0.00096   0.00026   0.00537   0.00564   2.12475
    A2        2.07288  -0.00050  -0.00028  -0.00335  -0.00364   2.06923
    A3        2.09119  -0.00046   0.00003  -0.00203  -0.00200   2.08919
    A4        2.05937  -0.00216  -0.00068  -0.01082  -0.01154   2.04783
    A5        2.13180  -0.00092   0.00060  -0.00173  -0.00120   2.13061
    A6        2.09173   0.00309   0.00008   0.01300   0.01301   2.10474
    A7        2.10302   0.00074   0.00036   0.00495   0.00531   2.10833
    A8        2.08310   0.00090  -0.00012   0.00590   0.00578   2.08887
    A9        2.09610  -0.00165  -0.00026  -0.01106  -0.01133   2.08477
   A10        2.10223   0.00054   0.00008   0.00217   0.00223   2.10445
   A11        2.24823  -0.00043   0.00008  -0.00128  -0.00119   2.24704
   A12        1.93272  -0.00011  -0.00015  -0.00090  -0.00105   1.93167
   A13        2.09591  -0.00054  -0.00017  -0.00355  -0.00375   2.09217
   A14        1.89669   0.00019   0.00011   0.00125   0.00136   1.89805
   A15        2.29058   0.00035   0.00006   0.00229   0.00237   2.29295
   A16        2.08653   0.00046   0.00016   0.00201   0.00216   2.08868
   A17        2.08998  -0.00033   0.00003  -0.00127  -0.00124   2.08874
   A18        2.10668  -0.00013  -0.00019  -0.00073  -0.00092   2.10576
   A19        1.76470  -0.00006   0.00009  -0.00004   0.00005   1.76475
   A20        1.94418   0.00001  -0.00002  -0.00018  -0.00020   1.94398
   A21        1.94457   0.00004  -0.00001   0.00049   0.00048   1.94504
   A22        1.94344  -0.00001  -0.00002  -0.00052  -0.00055   1.94289
   A23        1.94370   0.00004  -0.00003   0.00017   0.00015   1.94385
   A24        1.91924  -0.00002  -0.00000   0.00007   0.00007   1.91931
   A25        2.24937  -0.00002   0.00006   0.00003   0.00009   2.24946
   A26        1.93651   0.00003  -0.00009  -0.00002  -0.00010   1.93641
   A27        2.09730  -0.00001   0.00003  -0.00001   0.00001   2.09732
   A28        2.07969  -0.00001   0.00001  -0.00002  -0.00001   2.07968
   A29        2.11029   0.00000   0.00002   0.00006   0.00008   2.11037
   A30        2.09320   0.00001  -0.00003  -0.00004  -0.00007   2.09314
   A31        2.10559   0.00005  -0.00002   0.00012   0.00011   2.10570
   A32        2.08882  -0.00002   0.00002  -0.00003  -0.00001   2.08880
   A33        2.08878  -0.00003  -0.00000  -0.00010  -0.00010   2.08868
   A34        2.10424   0.00000   0.00001   0.00002   0.00004   2.10428
   A35        2.08896  -0.00001  -0.00004  -0.00015  -0.00019   2.08876
   A36        2.08999   0.00000   0.00003   0.00013   0.00016   2.09014
   A37        2.07383  -0.00002   0.00001  -0.00004  -0.00003   2.07380
   A38        2.10087   0.00002   0.00003   0.00021   0.00025   2.10112
   A39        2.10849   0.00000  -0.00005  -0.00017  -0.00022   2.10827
   A40        1.89409  -0.00005   0.00003  -0.00029  -0.00026   1.89382
   A41        2.28338   0.00006   0.00001   0.00037   0.00038   2.28376
   A42        2.10571  -0.00001  -0.00004  -0.00007  -0.00012   2.10560
   A43        1.93095   0.00003  -0.00000   0.00024   0.00024   1.93118
   A44        1.93162   0.00001  -0.00001   0.00004   0.00003   1.93164
   A45        1.93983  -0.00001  -0.00000  -0.00011  -0.00012   1.93972
   A46        1.88255  -0.00002   0.00001  -0.00001  -0.00001   1.88254
   A47        1.88887  -0.00001   0.00001  -0.00007  -0.00006   1.88881
   A48        1.88822  -0.00001   0.00000  -0.00009  -0.00008   1.88813
   A49        1.93137   0.00002  -0.00000   0.00011   0.00011   1.93148
   A50        1.93147   0.00004   0.00000   0.00031   0.00031   1.93177
   A51        1.94017  -0.00002  -0.00000  -0.00014  -0.00015   1.94003
   A52        1.88171  -0.00003  -0.00000  -0.00014  -0.00015   1.88156
   A53        1.88885  -0.00002   0.00000  -0.00021  -0.00021   1.88864
   A54        1.88844  -0.00000   0.00001   0.00006   0.00007   1.88851
   A55        2.16549   0.00065   0.00132   0.00753   0.00879   2.17428
   A56        2.09182   0.00235  -0.00076   0.00731   0.00649   2.09831
   A57        2.02586  -0.00300  -0.00056  -0.01473  -0.01536   2.01050
   A58        2.10800   0.00164   0.00019   0.00741   0.00760   2.11560
   A59        2.18517   0.00039  -0.00068  -0.00037  -0.00103   2.18414
   A60        1.98926  -0.00202   0.00047  -0.00691  -0.00646   1.98279
   A61        2.14746   0.00128   0.00034   0.00717   0.00748   2.15494
   A62        2.06515  -0.00041  -0.00109  -0.00563  -0.00675   2.05840
   A63        2.06866  -0.00088   0.00070  -0.00226  -0.00158   2.06707
   A64        2.10953   0.00161   0.00020   0.00712   0.00731   2.11684
   A65        1.99190  -0.00236   0.00061  -0.00774  -0.00715   1.98476
   A66        2.18113   0.00076  -0.00082   0.00062  -0.00017   2.18095
   A67        2.14669   0.00126   0.00028   0.00675   0.00700   2.15369
   A68        2.07011  -0.00067   0.00077  -0.00061   0.00014   2.07025
   A69        2.06483  -0.00060  -0.00109  -0.00679  -0.00790   2.05693
   A70        2.02882  -0.00279  -0.00045  -0.01369  -0.01420   2.01461
   A71        2.15972   0.00159   0.00112   0.01083   0.01192   2.17164
   A72        2.09463   0.00120  -0.00067   0.00296   0.00225   2.09689
   A73        1.86141   0.00487  -0.00086   0.01685   0.01598   1.87740
   A74        1.85989   0.00494  -0.00093   0.01707   0.01613   1.87602
   A75        1.72219  -0.00542   0.00071  -0.01920  -0.01845   1.70375
   A76        2.13853  -0.00009   0.00049   0.00133   0.00178   2.14031
   A77        2.09802   0.00196   0.00004   0.00819   0.00819   2.10620
   A78        2.04634  -0.00187  -0.00053  -0.00918  -0.00973   2.03661
   A79        2.10855   0.00080   0.00019   0.00443   0.00463   2.11317
   A80        2.08095  -0.00034  -0.00022  -0.00225  -0.00248   2.07847
   A81        2.09367  -0.00046   0.00003  -0.00219  -0.00216   2.09150
   A82        2.11757   0.00070   0.00028   0.00435   0.00463   2.12220
   A83        2.08648   0.00069  -0.00009   0.00460   0.00450   2.09098
   A84        2.07849  -0.00138  -0.00020  -0.00915  -0.00937   2.06913
   A85        2.12371   0.00041   0.00013   0.00181   0.00193   2.12564
   A86        2.07916  -0.00030   0.00002  -0.00124  -0.00121   2.07795
   A87        2.08029  -0.00010  -0.00015  -0.00057  -0.00072   2.07957
   A88        2.11492   0.00042   0.00005   0.00176   0.00181   2.11672
   A89        2.08568  -0.00033   0.00007  -0.00128  -0.00121   2.08446
   A90        2.08259  -0.00010  -0.00012  -0.00048  -0.00059   2.08200
   A91        2.05511  -0.00046  -0.00013  -0.00310  -0.00324   2.05188
   A92        2.11698   0.00023   0.00007   0.00152   0.00159   2.11857
   A93        2.11061   0.00023   0.00006   0.00147   0.00154   2.11214
   A94        1.93316  -0.00001   0.00003   0.00002   0.00005   1.93322
   A95        1.91487  -0.00002   0.00001  -0.00013  -0.00011   1.91476
   A96        1.96593   0.00003   0.00001   0.00015   0.00015   1.96608
   A97        1.86511   0.00002   0.00003   0.00032   0.00035   1.86545
   A98        1.88397  -0.00001  -0.00004  -0.00013  -0.00018   1.88379
   A99        1.89761  -0.00001  -0.00004  -0.00022  -0.00026   1.89735
   A100       1.89974   0.00001  -0.00002  -0.00006  -0.00008   1.89966
   A101       1.90045   0.00002  -0.00002   0.00005   0.00002   1.90047
   A102       1.92215  -0.00004   0.00002  -0.00014  -0.00012   1.92203
   A103       1.85861   0.00000   0.00001   0.00021   0.00022   1.85884
   A104       1.99732   0.00001   0.00001  -0.00001   0.00000   1.99732
   A105       1.88261   0.00000   0.00000  -0.00004  -0.00004   1.88258
   A106       1.91193   0.00001   0.00000   0.00012   0.00012   1.91206
   A107       1.91491  -0.00003   0.00003  -0.00008  -0.00004   1.91486
   A108       1.84802   0.00001  -0.00000   0.00012   0.00012   1.84814
    D1       -0.00246  -0.00022   0.00030  -0.01138  -0.01102  -0.01348
    D2        3.11326   0.00018   0.00025   0.00922   0.00937   3.12263
    D3       -3.13986  -0.00020   0.00043  -0.00900  -0.00850   3.13483
    D4       -0.02414   0.00021   0.00038   0.01160   0.01189  -0.01225
    D5        0.01377   0.00002   0.00015   0.00202   0.00217   0.01594
    D6       -3.12513   0.00003   0.00026   0.00281   0.00308  -3.12204
    D7       -3.13206  -0.00000   0.00002  -0.00039  -0.00038  -3.13244
    D8        0.01223   0.00001   0.00013   0.00040   0.00053   0.01276
    D9       -0.01472   0.00030  -0.00065   0.01393   0.01324  -0.00148
   D10       -3.10924   0.00041  -0.00010   0.01938   0.01928  -3.08996
   D11       -3.13106  -0.00004  -0.00061  -0.00596  -0.00662  -3.13768
   D12        0.05761   0.00007  -0.00005  -0.00051  -0.00058   0.05703
   D13        0.41099  -0.00062  -0.00649  -0.06371  -0.07034   0.34065
   D14       -2.73707  -0.00026  -0.00656  -0.04189  -0.04843  -2.78550
   D15       -2.75694  -0.00029  -0.00655  -0.04309  -0.04966  -2.80660
   D16        0.37818   0.00007  -0.00662  -0.02128  -0.02776   0.35043
   D17        0.02039  -0.00017   0.00055  -0.00720  -0.00669   0.01369
   D18       -3.11602  -0.00016   0.00038  -0.00594  -0.00559  -3.12161
   D19        3.11455  -0.00021  -0.00001  -0.01223  -0.01226   3.10229
   D20       -0.02185  -0.00020  -0.00017  -0.01098  -0.01115  -0.03301
   D21       -0.00885  -0.00003  -0.00009  -0.00245  -0.00253  -0.01138
   D22        3.13474   0.00004  -0.00025   0.00153   0.00128   3.13602
   D23        3.12842  -0.00004   0.00005  -0.00350  -0.00345   3.12497
   D24       -0.01117   0.00003  -0.00011   0.00047   0.00036  -0.01082
   D25       -3.13585  -0.00003   0.00024  -0.00104  -0.00080  -3.13666
   D26        1.08109   0.00001   0.00022  -0.00033  -0.00011   1.08098
   D27       -1.06914   0.00000   0.00025  -0.00064  -0.00040  -1.06954
   D28        0.01052  -0.00002   0.00009   0.00011   0.00020   0.01073
   D29       -2.05572   0.00002   0.00007   0.00082   0.00090  -2.05482
   D30        2.07723   0.00001   0.00010   0.00051   0.00061   2.07785
   D31       -0.00824   0.00011  -0.00026   0.00508   0.00484  -0.00341
   D32        3.13063   0.00010  -0.00038   0.00428   0.00391   3.13454
   D33        3.13083   0.00002  -0.00006   0.00008   0.00002   3.13086
   D34       -0.01348   0.00001  -0.00017  -0.00072  -0.00090  -0.01438
   D35        0.00688  -0.00003   0.00009  -0.00092  -0.00083   0.00605
   D36       -3.13559  -0.00003   0.00008  -0.00117  -0.00109  -3.13668
   D37       -3.13242   0.00006  -0.00009   0.00366   0.00358  -3.12883
   D38        0.00830   0.00005  -0.00011   0.00341   0.00332   0.01162
   D39        3.13560   0.00002  -0.00003   0.00055   0.00051   3.13611
   D40       -0.00623   0.00001  -0.00003  -0.00070  -0.00074  -0.00697
   D41       -1.08081  -0.00000  -0.00002   0.00009   0.00007  -1.08074
   D42        2.06055  -0.00002  -0.00002  -0.00116  -0.00118   2.05937
   D43        1.06826  -0.00001  -0.00006  -0.00007  -0.00014   1.06813
   D44       -2.07356  -0.00003  -0.00006  -0.00132  -0.00138  -2.07495
   D45        3.07539  -0.00005   0.00003  -0.00132  -0.00130   3.07410
   D46       -1.12214  -0.00004   0.00003  -0.00116  -0.00113  -1.12327
   D47        0.97644  -0.00005   0.00002  -0.00132  -0.00130   0.97514
   D48        1.11983   0.00003  -0.00006  -0.00087  -0.00093   1.11890
   D49       -3.07770   0.00004  -0.00006  -0.00070  -0.00076  -3.07847
   D50       -0.97913   0.00003  -0.00007  -0.00086  -0.00093  -0.98005
   D51       -1.04317   0.00000  -0.00001  -0.00077  -0.00078  -1.04395
   D52        1.04248   0.00001  -0.00001  -0.00061  -0.00062   1.04187
   D53        3.14106   0.00000  -0.00001  -0.00077  -0.00078   3.14028
   D54        1.12318   0.00001  -0.00004   0.00012   0.00008   1.12325
   D55       -3.07523   0.00002  -0.00005   0.00021   0.00016  -3.07507
   D56       -0.97626   0.00003  -0.00004   0.00040   0.00036  -0.97589
   D57        3.07912  -0.00001   0.00005   0.00045   0.00050   3.07962
   D58       -1.11929  -0.00001   0.00005   0.00055   0.00059  -1.11870
   D59        0.97968   0.00000   0.00006   0.00074   0.00079   0.98047
   D60       -1.04122  -0.00002   0.00000  -0.00005  -0.00005  -1.04127
   D61        1.04355  -0.00001  -0.00001   0.00005   0.00004   1.04359
   D62       -3.14066  -0.00000   0.00000   0.00024   0.00024  -3.14042
   D63        3.14088  -0.00001   0.00002  -0.00075  -0.00074   3.14014
   D64       -0.00001  -0.00002   0.00001  -0.00103  -0.00102  -0.00103
   D65       -0.00046   0.00001   0.00002   0.00059   0.00061   0.00015
   D66       -3.14135   0.00000   0.00001   0.00032   0.00032  -3.14103
   D67        0.00006   0.00001  -0.00004   0.00103   0.00099   0.00105
   D68       -3.14077   0.00002  -0.00002   0.00124   0.00122  -3.13954
   D69        3.14144  -0.00000  -0.00003  -0.00010  -0.00013   3.14131
   D70        0.00061   0.00000  -0.00002   0.00011   0.00010   0.00072
   D71        0.00008  -0.00001  -0.00001  -0.00068  -0.00069  -0.00061
   D72       -3.14103  -0.00001  -0.00000  -0.00055  -0.00055  -3.14158
   D73        3.14098  -0.00001   0.00000  -0.00041  -0.00041   3.14057
   D74       -0.00014  -0.00000   0.00000  -0.00028  -0.00027  -0.00041
   D75        0.00016   0.00000  -0.00000   0.00006   0.00006   0.00022
   D76       -3.14125   0.00000  -0.00000   0.00011   0.00011  -3.14114
   D77        3.14127  -0.00000  -0.00000  -0.00007  -0.00008   3.14119
   D78       -0.00013   0.00000  -0.00000  -0.00002  -0.00003  -0.00016
   D79       -0.00001   0.00001   0.00000   0.00065   0.00065   0.00063
   D80       -3.14129   0.00000  -0.00000   0.00002   0.00002  -3.14127
   D81        3.14139   0.00001   0.00000   0.00060   0.00060  -3.14120
   D82        0.00012   0.00000  -0.00000  -0.00003  -0.00004   0.00008
   D83       -3.14100  -0.00001   0.00003  -0.00047  -0.00044  -3.14144
   D84       -0.00037  -0.00001   0.00001  -0.00073  -0.00073  -0.00110
   D85        0.00027   0.00000   0.00003   0.00017   0.00020   0.00047
   D86        3.14090  -0.00000   0.00001  -0.00010  -0.00009   3.14081
   D87        3.13602   0.00008   0.00004   0.00648   0.00649  -3.14068
   D88        0.03881   0.00002   0.00077   0.00277   0.00349   0.04230
   D89        0.00067  -0.00028   0.00011  -0.01466  -0.01450  -0.01383
   D90       -3.09653  -0.00034   0.00084  -0.01837  -0.01749  -3.11403
   D91       -3.13920  -0.00002  -0.00012  -0.00367  -0.00372   3.14027
   D92        0.07005   0.00021   0.00079   0.00914   0.00997   0.08002
   D93       -0.00357   0.00032  -0.00018   0.01652   0.01629   0.01272
   D94       -3.07751   0.00055   0.00073   0.02933   0.02999  -3.04752
   D95        0.00134  -0.00001   0.00004  -0.00055  -0.00052   0.00082
   D96       -3.10417  -0.00004   0.00059  -0.00068  -0.00010  -3.10427
   D97        3.10325   0.00009  -0.00063   0.00288   0.00224   3.10548
   D98       -0.00227   0.00005  -0.00008   0.00275   0.00266   0.00039
   D99        3.11087   0.00005  -0.00060  -0.00078  -0.00141   3.10946
   D100       0.01101  -0.00008   0.00009  -0.00459  -0.00452   0.00650
   D101       0.00448  -0.00005   0.00011  -0.00245  -0.00236   0.00212
   D102      -3.07604   0.00018   0.00089   0.01042   0.01132  -3.06472
   D103       3.07828  -0.00026  -0.00086  -0.01541  -0.01630   3.06198
   D104      -0.00224  -0.00004  -0.00008  -0.00254  -0.00262  -0.00486
   D105      -0.00069   0.00028  -0.00012   0.01443   0.01428   0.01359
   D106      -3.13616  -0.00000  -0.00004  -0.00237  -0.00241  -3.13857
   D107       3.10073   0.00025  -0.00072   0.01441   0.01368   3.11441
   D108      -0.03474  -0.00003  -0.00063  -0.00239  -0.00301  -0.03775
   D109      -0.00775   0.00002   0.00002   0.00067   0.00069  -0.00706
   D110      -3.11156  -0.00004   0.00058   0.00039   0.00096  -3.11060
   D111      -0.00218  -0.00025   0.00005  -0.01326  -0.01319  -0.01537
   D112       3.13353   0.00002  -0.00003   0.00289   0.00277   3.13630
   D113       3.07851  -0.00048  -0.00068  -0.02590  -0.02651   3.05200
   D114      -0.06896  -0.00020  -0.00076  -0.00974  -0.01055  -0.07951
   D115      -0.44188   0.00050   0.00579   0.05385   0.05974  -0.38214
   D116       2.72682   0.00026   0.00578   0.03866   0.04446   2.77128
   D117       2.70605   0.00022   0.00587   0.03651   0.04236   2.74842
   D118      -0.40844  -0.00002   0.00587   0.02132   0.02708  -0.38135
   D119      -0.01378   0.00011  -0.00007   0.00453   0.00445  -0.00933
   D120       0.01252  -0.00009   0.00003  -0.00304  -0.00299   0.00953
   D121      -3.11229  -0.00013  -0.00027  -0.00706  -0.00729  -3.11958
   D122       0.02214  -0.00018  -0.00033  -0.00985  -0.01014   0.01200
   D123       0.00295   0.00016  -0.00025   0.00796   0.00768   0.01063
   D124       3.13739   0.00011  -0.00032   0.00518   0.00482  -3.14098
   D125       3.12891   0.00004   0.00058   0.00495   0.00554   3.13446
   D126      -0.05165  -0.00008   0.00013  -0.00135  -0.00123  -0.05288
   D127       0.01302  -0.00021   0.00056  -0.00960  -0.00901   0.00401
   D128       3.11565  -0.00034   0.00011  -0.01590  -0.01579   3.09986
   D129      -0.01336  -0.00003  -0.00013  -0.00188  -0.00202  -0.01538
   D130       3.12071  -0.00003  -0.00019  -0.00240  -0.00259   3.11812
   D131       3.13545   0.00002  -0.00006   0.00093   0.00086   3.13631
   D132      -0.01367   0.00001  -0.00012   0.00041   0.00029  -0.01338
   D133      -0.01907   0.00013  -0.00049   0.00510   0.00463  -0.01444
   D134       3.12353   0.00007  -0.00037   0.00200   0.00164   3.12516
   D135      -3.12186   0.00021  -0.00005   0.01107   0.01102  -3.11084
   D136       0.02073   0.00015   0.00007   0.00797   0.00803   0.02876
   D137       0.00760  -0.00005   0.00021  -0.00287  -0.00267   0.00494
   D138      -3.10077  -0.00001   0.00009   0.00078   0.00087  -3.09991
   D139      -3.12646  -0.00005   0.00027  -0.00236  -0.00209  -3.12855
   D140       0.04835  -0.00000   0.00015   0.00130   0.00144   0.04979
   D141       0.00850  -0.00000   0.00010   0.00124   0.00134   0.00984
   D142       3.11701  -0.00005   0.00022  -0.00240  -0.00218   3.11482
   D143      -3.13409   0.00006  -0.00002   0.00433   0.00432  -3.12977
   D144      -0.02558   0.00001   0.00010   0.00070   0.00080  -0.02478
   D145      -2.61848  -0.00004  -0.00001  -0.00329  -0.00330  -2.62178
   D146      -0.56361  -0.00004   0.00006  -0.00297  -0.00291  -0.56652
   D147       1.55279  -0.00004   0.00002  -0.00324  -0.00322   1.54957
   D148       0.55738   0.00002  -0.00012   0.00057   0.00045   0.55783
   D149       2.61225   0.00003  -0.00006   0.00089   0.00084   2.61309
   D150      -1.55453   0.00002  -0.00010   0.00062   0.00053  -1.55400
   D151      -0.98219  -0.00001  -0.00001  -0.00106  -0.00107  -0.98326
   D152       1.03731   0.00001  -0.00001  -0.00082  -0.00083   1.03648
   D153       3.09826  -0.00000  -0.00001  -0.00092  -0.00093   3.09733
   D154      -3.12197  -0.00001  -0.00002  -0.00109  -0.00111  -3.12309
   D155      -1.10248   0.00001  -0.00003  -0.00085  -0.00088  -1.10335
   D156       0.95847   0.00000  -0.00003  -0.00095  -0.00098   0.95750
   D157       1.14402  -0.00002  -0.00001  -0.00128  -0.00129   1.14272
   D158      -3.11967  -0.00000  -0.00002  -0.00104  -0.00106  -3.12073
   D159      -1.05872  -0.00001  -0.00002  -0.00114  -0.00116  -1.05988
   D160       1.19238   0.00001   0.00009   0.00190   0.00199   1.19436
   D161      -3.06916   0.00001   0.00010   0.00207   0.00218  -3.06698
   D162      -0.95421   0.00002   0.00010   0.00209   0.00219  -0.95202
   D163       1.06744   0.00002   0.00011   0.00226   0.00238   1.06982
   D164      -3.01890   0.00001   0.00007   0.00185   0.00193  -3.01697
   D165      -0.99725   0.00002   0.00009   0.00203   0.00212  -0.99513
         Item               Value     Threshold  Converged?
 Maximum Force            0.005420     0.000450     NO 
 RMS     Force            0.000773     0.000300     NO 
 Maximum Displacement     0.281267     0.001800     NO 
 RMS     Displacement     0.034373     0.001200     NO 
 Predicted change in Energy=-5.089439D-04
 Lowest energy point so far.  Saving SCF results.
 GradGradGradGradGradGradGradGradGradGradGradGradGradGradGradGradGradGrad

 Leave Link  103 at Thu Mar 14 09:22:49 2024, MaxMem= 32212254720 cpu:               2.6 elap:               0.1
 (Enter /home/<user>/g16/l202.exe)
 Stoichiometry    C29H25N3S(3)
 Framework group  C1[X(C29H25N3S)]
 Deg. of freedom   168
 Full point group                 C1      NOp   1
 RotChk:  IX=0 Diff= 2.43D-02
 Largest Abelian subgroup         C1      NOp   1
 Largest concise Abelian subgroup C1      NOp   1
                         Standard orientation:                         
 ---------------------------------------------------------------------
 Center     Atomic      Atomic             Coordinates (Angstroms)
 Number     Number       Type             X           Y           Z
 ---------------------------------------------------------------------
      1          6           0       -2.460189    1.653205   -0.333243
      2          6           0       -1.778740    0.411181   -0.168791
      3          6           0       -2.580116   -0.757260    0.017592
      4          6           0       -3.956242   -0.673702    0.037515
      5          6           0       -4.603983    0.570127   -0.142922
      6          6           0       -3.844149    1.731611   -0.330239
      7          1           0       -1.873282    2.550493   -0.469255
      8          1           0       -2.101526   -1.714012    0.194423
      9          1           0       -4.328952    2.693289   -0.476637
     10          6           0       -4.980238   -1.790709    0.245768
     11          6           0       -6.291312   -1.011517    0.142489
     12          6           0       -7.595398   -1.481160    0.242143
     13          6           0       -8.657622   -0.577290    0.115948
     14          6           0       -8.414278    0.783376   -0.107112
     15          6           0       -7.108358    1.263251   -0.207959
     16          6           0       -6.046608    0.360677   -0.083018
     17          1           0       -7.797818   -2.535375    0.416195
     18          1           0       -9.680770   -0.935330    0.192460
     19          1           0       -9.250338    1.470926   -0.202165
     20          1           0       -6.922844    2.320110   -0.380848
     21          6           0       -4.824168   -2.445990    1.636570
     22          1           0       -5.605894   -3.196793    1.800037
     23          1           0       -3.853251   -2.947607    1.721286
     24          1           0       -4.893941   -1.699967    2.434453
     25          6           0       -4.875683   -2.866050   -0.858941
     26          1           0       -3.905679   -3.374676   -0.813170
     27          1           0       -5.657784   -3.624189   -0.736476
     28          1           0       -4.982557   -2.422104   -1.853774
     29          6           0       -0.333234    0.317559   -0.193810
     30          6           0        0.562128    1.426696    0.019880
     31          6           0        0.314284   -0.958267   -0.467114
     32          6           0        2.018121    1.247975   -0.023069
     33          6           0        1.662421   -1.120659   -0.507931
     34          1           0       -0.314566   -1.801913   -0.722256
     35          6           0        2.605263   -0.039271   -0.280762
     36          1           0        2.060200   -2.088221   -0.789410
     37          7           0        0.185865    2.670229    0.312737
     38          7           0        2.702845    2.361052    0.238926
     39         16           0        1.584067    3.590082    0.517608
     40          6           0        4.037227   -0.294570   -0.335031
     41          6           0        4.987530    0.727963   -0.588013
     42          6           0        4.546947   -1.606738   -0.146756
     43          6           0        6.344236    0.443668   -0.658372
     44          1           0        4.641958    1.741583   -0.736659
     45          6           0        5.906839   -1.872890   -0.202834
     46          1           0        3.869032   -2.419669    0.088215
     47          6           0        6.838389   -0.856007   -0.465893
     48          1           0        7.042350    1.249248   -0.876000
     49          1           0        6.259962   -2.888527   -0.038164
     50          6           0        8.319942   -1.145769   -0.491685
     51          1           0        8.510446   -2.164621   -0.847627
     52          1           0        8.818753   -0.463752   -1.194309
     53          6           0        8.977747   -0.996395    0.893133
     54          1           0        8.778268    0.020970    1.275056
     55          1           0        8.496267   -1.691451    1.591785
     56          7           0       10.399221   -1.347855    0.816973
     57          1           0       10.895240   -0.646500    0.267368
     58          1           0       10.811600   -1.315494    1.748044
 ---------------------------------------------------------------------
 Rotational constants (GHZ):           0.3555150           0.0395939           0.0362923
 Leave Link  202 at Thu Mar 14 09:22:49 2024, MaxMem= 32212254720 cpu:               0.1 elap:               0.0
 (Enter /home/<user>/g16/l301.exe)
 Standard basis: 6-31G(d) (6D, 7F)
 Ernie: Thresh=  0.10000D-02 Tol=  0.10000D-05 Strict=F.
 There are   549 symmetry adapted cartesian basis functions of A   symmetry.
 There are   549 symmetry adapted basis functions of A   symmetry.
   549 basis functions,  1048 primitive gaussians,   549 cartesian basis functions
   119 alpha electrons      117 beta electrons
       nuclear repulsion energy      3072.4651667451 Hartrees.
 IExCor=  402 DFT=T Ex+Corr=B3LYP ExCW=0 ScaHFX=  0.200000
 ScaDFX=  0.800000  0.720000  1.000000  0.810000 ScalE2=  1.000000  1.000000
 IRadAn=      5 IRanWt=     -1 IRanGd=            0 ICorTp=0 IEmpDi=  4
 NAtoms=   58 NActive=   58 NUniq=   58 SFac= 1.00D+00 NAtFMM=   60 NAOKFM=F Big=F
 Integral buffers will be    131072 words long.
 Raffenetti 2 integral format.
 Two-electron integral symmetry is turned on.
 Leave Link  301 at Thu Mar 14 09:22:49 2024, MaxMem= 32212254720 cpu:               0.8 elap:               0.0
 (Enter /home/<user>/g16/l302.exe)
 NPDir=0 NMtPBC=     1 NCelOv=     1 NCel=       1 NClECP=     1 NCelD=      1
         NCelK=      1 NCelE2=     1 NClLst=     1 CellRange=     0.0.
 One-electron integrals computed using PRISM.
 One-electron integral symmetry used in STVInt
 NBasis=   549 RedAO= T EigKep=  2.77D-04  NBF=   549
 NBsUse=   549 1.00D-06 EigRej= -1.00D+00 NBFU=   549
 Precomputing XC quadrature grid using
 IXCGrd= 4 IRadAn=           5 IRanWt=          -1 IRanGd=           0 AccXCQ= 0.00D+00.
 Generated NRdTot=       0 NPtTot=           0 NUsed=           0 NTot=          32
 NSgBfM=   512   512   512   512   512 MxSgAt=    58 MxSgA2=    58.
 Leave Link  302 at Thu Mar 14 09:22:49 2024, MaxMem= 32212254720 cpu:              12.6 elap:               0.4
 (Enter /home/<user>/g16/l303.exe)
 DipDrv:  MaxL=1.
 Leave Link  303 at Thu Mar 14 09:22:49 2024, MaxMem= 32212254720 cpu:               1.4 elap:               0.1
 (Enter /home/<user>/g16/l401.exe)
 Initial guess from the checkpoint file:  "FBTP_T1opt.chk"
 B after Tr=    -0.000000    0.000000   -0.000000
         Rot=    0.999999   -0.001669    0.000071    0.000012 Ang=  -0.19 deg.
 Guess basis will be translated and rotated to current coordinates.
 JPrj=2 DoOrth=T DoCkMO=T.
 Initial guess <Sx>= 0.0000 <Sy>= 0.0000 <Sz>= 1.0000 <S**2>= 2.0354 S= 1.0118
 Generating alternative initial guess.
 ExpMin= 1.17D-01 ExpMax= 2.19D+04 ExpMxC= 3.30D+03 IAcc=3 IRadAn=         5 AccDes= 0.00D+00
 Harris functional with IExCor=  402 and IRadAn=       5 diagonalized for initial guess.
 HarFok:  IExCor=  402 AccDes= 0.00D+00 IRadAn=         5 IDoV= 1 UseB2=F ITyADJ=14
 ICtDFT=  3500011 ScaDFX=  1.000000  1.000000  1.000000  1.000000
 FoFCou: FMM=F IPFlag=           0 FMFlag=      100000 FMFlg1=           0
         NFxFlg=           0 DoJE=T BraDBF=F KetDBF=T FulRan=T
         wScrn=  0.000000 ICntrl=       500 IOpCl=  0 I1Cent=   200000004 NGrid=           0
         NMat0=    1 NMatS0=      1 NMatT0=    0 NMatD0=    1 NMtDS0=    0 NMtDT0=    0
 Petite list used in FoFCou.
 Harris En= -1682.50280345636    
 Leave Link  401 at Thu Mar 14 09:22:51 2024, MaxMem= 32212254720 cpu:              47.4 elap:               1.6
 (Enter /home/<user>/g16/l502.exe)
 Integral symmetry usage will be decided dynamically.
 UHF open shell SCF:
 Using DIIS extrapolation, IDIIS=  1040.
 NGot= 32212254720 LenX= 32211628124 LenY= 32211326174
 Requested convergence on RMS density matrix=1.00D-08 within 128 cycles.
 Requested convergence on MAX density matrix=1.00D-06.
 Requested convergence on             energy=1.00D-06.
 No special actions if energy rises.
 Fock matrices will be formed incrementally for  20 cycles.
 Integral accuracy reduced to 1.0D-05 until final iterations.

 Cycle   1  Pass 0  IDiag  1:
 FoFJK:  IHMeth= 1 ICntrl=       0 DoSepK=F KAlg= 0 I1Cent=           0 FoldK=F
 IRaf= 550000000 NMat=       1 IRICut=       1 DoRegI=T DoRafI=F ISym2E= 0 IDoP0=0 IntGTp=1.
 FoFCou: FMM=F IPFlag=           0 FMFlag=      100000 FMFlg1=           0
         NFxFlg=           0 DoJE=F BraDBF=F KetDBF=F FulRan=T
         wScrn=  0.000000 ICntrl=         0 IOpCl=  1 I1Cent=           0 NGrid=           0
         NMat0=    1 NMatS0=      1 NMatT0=    0 NMatD0=    1 NMtDS0=    0 NMtDT0=    0
 Symmetry not used in FoFCou.
 E= -1682.53754369516    
 DIIS: error= 1.56D-03 at cycle   1 NSaved=   1.
 NSaved= 1 IEnMin= 1 EnMin= -1682.53754369516     IErMin= 1 ErrMin= 1.56D-03
 ErrMax= 1.56D-03  0.00D+00 EMaxC= 1.00D-01 BMatC= 1.08D-02 BMatP= 1.08D-02
 IDIUse=3 WtCom= 9.84D-01 WtEn= 1.56D-02
 Coeff-Com:  0.100D+01
 Coeff-En:   0.100D+01
 Coeff:      0.100D+01
 Gap=     1.905 Goal=   None    Shift=    0.000
 Gap=     1.985 Goal=   None    Shift=    0.000
 GapD=    1.905 DampG=2.000 DampE=1.000 DampFc=2.0000 IDamp=-1.
 RMSDP=2.14D-04 MaxDP=6.53D-03              OVMax= 1.38D-02

 Cycle   2  Pass 0  IDiag  1:
 RMSU=  2.14D-04    CP:  1.00D+00
 E= -1682.54359957194     Delta-E=       -0.006055876772 Rises=F Damp=F
 DIIS: error= 2.52D-04 at cycle   2 NSaved=   2.
 NSaved= 2 IEnMin= 2 EnMin= -1682.54359957194     IErMin= 2 ErrMin= 2.52D-04
 ErrMax= 2.52D-04  0.00D+00 EMaxC= 1.00D-01 BMatC= 2.18D-04 BMatP= 1.08D-02
 IDIUse=3 WtCom= 9.97D-01 WtEn= 2.52D-03
 Coeff-Com: -0.701D-01 0.107D+01
 Coeff-En:   0.000D+00 0.100D+01
 Coeff:     -0.699D-01 0.107D+01
 Gap=     0.093 Goal=   None    Shift=    0.000
 Gap=     0.079 Goal=   None    Shift=    0.000
 RMSDP=4.09D-05 MaxDP=2.08D-03 DE=-6.06D-03 OVMax= 5.19D-03

 Cycle   3  Pass 0  IDiag  1:
 RMSU=  3.86D-05    CP:  1.00D+00  1.06D+00
 E= -1682.54364997250     Delta-E=       -0.000050400567 Rises=F Damp=F
 DIIS: error= 2.48D-04 at cycle   3 NSaved=   3.
 NSaved= 3 IEnMin= 3 EnMin= -1682.54364997250     IErMin= 3 ErrMin= 2.48D-04
 ErrMax= 2.48D-04  0.00D+00 EMaxC= 1.00D-01 BMatC= 2.37D-04 BMatP= 2.18D-04
 IDIUse=3 WtCom= 9.98D-01 WtEn= 2.48D-03
 Coeff-Com: -0.491D-01 0.591D+00 0.458D+00
 Coeff-En:   0.000D+00 0.202D+00 0.798D+00
 Coeff:     -0.490D-01 0.590D+00 0.459D+00
 Gap=     0.092 Goal=   None    Shift=    0.000
 Gap=     0.080 Goal=   None    Shift=    0.000
 RMSDP=2.57D-05 MaxDP=1.49D-03 DE=-5.04D-05 OVMax= 5.04D-03

 Cycle   4  Pass 0  IDiag  1:
 RMSU=  1.66D-05    CP:  1.00D+00  1.08D+00  5.02D-01
 E= -1682.54370843733     Delta-E=       -0.000058464828 Rises=F Damp=F
 DIIS: error= 1.32D-04 at cycle   4 NSaved=   4.
 NSaved= 4 IEnMin= 4 EnMin= -1682.54370843733     IErMin= 4 ErrMin= 1.32D-04
 ErrMax= 1.32D-04  0.00D+00 EMaxC= 1.00D-01 BMatC= 3.15D-05 BMatP= 2.18D-04
 IDIUse=3 WtCom= 9.99D-01 WtEn= 1.32D-03
 Coeff-Com: -0.186D-01 0.202D+00 0.283D+00 0.534D+00
 Coeff-En:   0.000D+00 0.000D+00 0.103D+00 0.897D+00
 Coeff:     -0.186D-01 0.202D+00 0.282D+00 0.535D+00
 Gap=     0.092 Goal=   None    Shift=    0.000
 Gap=     0.080 Goal=   None    Shift=    0.000
 RMSDP=8.90D-06 MaxDP=4.44D-04 DE=-5.85D-05 OVMax= 1.88D-03

 Initial convergence to 1.0D-05 achieved.  Increase integral accuracy.
 Cycle   5  Pass 1  IDiag  1:
 E= -1682.54376048174     Delta-E=       -0.000052044410 Rises=F Damp=F
 DIIS: error= 1.15D-04 at cycle   1 NSaved=   1.
 NSaved= 1 IEnMin= 1 EnMin= -1682.54376048174     IErMin= 1 ErrMin= 1.15D-04
 ErrMax= 1.15D-04  0.00D+00 EMaxC= 1.00D-01 BMatC= 1.55D-05 BMatP= 1.55D-05
 IDIUse=3 WtCom= 9.99D-01 WtEn= 1.15D-03
 Coeff-Com:  0.100D+01
 Coeff-En:   0.100D+01
 Coeff:      0.100D+01
 Gap=     0.092 Goal=   None    Shift=    0.000
 Gap=     0.080 Goal=   None    Shift=    0.000
 RMSDP=8.90D-06 MaxDP=4.44D-04 DE=-5.20D-05 OVMax= 1.45D-03

 Cycle   6  Pass 1  IDiag  1:
 RMSU=  6.89D-05    CP:  1.00D+00
 E= -1682.54375907113     Delta-E=        0.000001410615 Rises=F Damp=F
 DIIS: error= 7.45D-05 at cycle   2 NSaved=   2.
 NSaved= 2 IEnMin= 1 EnMin= -1682.54376048174     IErMin= 2 ErrMin= 7.45D-05
 ErrMax= 7.45D-05  0.00D+00 EMaxC= 1.00D-01 BMatC= 1.93D-05 BMatP= 1.55D-05
 IDIUse=1 WtCom= 1.00D+00 WtEn= 0.00D+00
 Coeff-Com:  0.537D+00 0.463D+00
 Coeff:      0.537D+00 0.463D+00
 Gap=     0.092 Goal=   None    Shift=    0.000
 Gap=     0.080 Goal=   None    Shift=    0.000
 RMSDP=7.82D-06 MaxDP=3.62D-04 DE= 1.41D-06 OVMax= 1.65D-03

 Cycle   7  Pass 1  IDiag  1:
 RMSU=  7.79D-06    CP:  1.00D+00  9.91D-01
 E= -1682.54376272020     Delta-E=       -0.000003649078 Rises=F Damp=F
 DIIS: error= 4.80D-05 at cycle   3 NSaved=   3.
 NSaved= 3 IEnMin= 3 EnMin= -1682.54376272020     IErMin= 3 ErrMin= 4.80D-05
 ErrMax= 4.80D-05  0.00D+00 EMaxC= 1.00D-01 BMatC= 6.61D-06 BMatP= 1.55D-05
 IDIUse=1 WtCom= 1.00D+00 WtEn= 0.00D+00
 Coeff-Com:  0.323D-01 0.363D+00 0.605D+00
 Coeff:      0.323D-01 0.363D+00 0.605D+00
 Gap=     0.092 Goal=   None    Shift=    0.000
 Gap=     0.080 Goal=   None    Shift=    0.000
 RMSDP=3.42D-06 MaxDP=1.86D-04 DE=-3.65D-06 OVMax= 5.90D-04

 Cycle   8  Pass 1  IDiag  1:
 RMSU=  1.71D-06    CP:  1.00D+00  1.00D+00  6.32D-01
 E= -1682.54376460247     Delta-E=       -0.000001882263 Rises=F Damp=F
 DIIS: error= 1.12D-05 at cycle   4 NSaved=   4.
 NSaved= 4 IEnMin= 4 EnMin= -1682.54376460247     IErMin= 4 ErrMin= 1.12D-05
 ErrMax= 1.12D-05  0.00D+00 EMaxC= 1.00D-01 BMatC= 4.66D-07 BMatP= 6.61D-06
 IDIUse=1 WtCom= 1.00D+00 WtEn= 0.00D+00
 Coeff-Com: -0.741D-02 0.201D+00 0.372D+00 0.435D+00
 Coeff:     -0.741D-02 0.201D+00 0.372D+00 0.435D+00
 Gap=     0.092 Goal=   None    Shift=    0.000
 Gap=     0.080 Goal=   None    Shift=    0.000
 RMSDP=9.52D-07 MaxDP=1.03D-04 DE=-1.88D-06 OVMax= 2.39D-04

 Cycle   9  Pass 1  IDiag  1:
 RMSU=  8.74D-07    CP:  1.00D+00  1.00D+00  6.54D-01  8.11D-01
 E= -1682.54376474387     Delta-E=       -0.000000141399 Rises=F Damp=F
 DIIS: error= 7.70D-06 at cycle   5 NSaved=   5.
 NSaved= 5 IEnMin= 5 EnMin= -1682.54376474387     IErMin= 5 ErrMin= 7.70D-06
 ErrMax= 7.70D-06  0.00D+00 EMaxC= 1.00D-01 BMatC= 5.79D-08 BMatP= 4.66D-07
 IDIUse=1 WtCom= 1.00D+00 WtEn= 0.00D+00
 Coeff-Com: -0.819D-02 0.659D-01 0.125D+00 0.227D+00 0.590D+00
 Coeff:     -0.819D-02 0.659D-01 0.125D+00 0.227D+00 0.590D+00
 Gap=     0.092 Goal=   None    Shift=    0.000
 Gap=     0.080 Goal=   None    Shift=    0.000
 RMSDP=4.90D-07 MaxDP=5.78D-05 DE=-1.41D-07 OVMax= 1.13D-04

 Cycle  10  Pass 1  IDiag  1:
 RMSU=  4.10D-07    CP:  1.00D+00  1.00D+00  6.59D-01  9.54D-01  1.12D+00
 E= -1682.54376478388     Delta-E=       -0.000000040016 Rises=F Damp=F
 DIIS: error= 3.97D-06 at cycle   6 NSaved=   6.
 NSaved= 6 IEnMin= 6 EnMin= -1682.54376478388     IErMin= 6 ErrMin= 3.97D-06
 ErrMax= 3.97D-06  0.00D+00 EMaxC= 1.00D-01 BMatC= 3.03D-08 BMatP= 5.79D-08
 IDIUse=1 WtCom= 1.00D+00 WtEn= 0.00D+00
 Coeff-Com:  0.405D-03-0.149D+00-0.279D+00-0.259D+00 0.538D+00 0.115D+01
 Coeff:      0.405D-03-0.149D+00-0.279D+00-0.259D+00 0.538D+00 0.115D+01
 Gap=     0.092 Goal=   None    Shift=    0.000
 Gap=     0.080 Goal=   None    Shift=    0.000
 RMSDP=1.02D-06 MaxDP=1.03D-04 DE=-4.00D-08 OVMax= 3.98D-04

 Cycle  11  Pass 1  IDiag  1:
 RMSU=  2.66D-07    CP:  1.00D+00  1.00D+00  6.60D-01  1.30D+00  2.00D+00
                    CP:  1.39D+00
 E= -1682.54376483477     Delta-E=       -0.000000050889 Rises=F Damp=F
 DIIS: error= 1.77D-06 at cycle   7 NSaved=   7.
 NSaved= 7 IEnMin= 7 EnMin= -1682.54376483477     IErMin= 7 ErrMin= 1.77D-06
 ErrMax= 1.77D-06  0.00D+00 EMaxC= 1.00D-01 BMatC= 1.17D-08 BMatP= 3.03D-08
 IDIUse=1 WtCom= 1.00D+00 WtEn= 0.00D+00
 Coeff-Com:  0.257D-02-0.120D+00-0.225D+00-0.240D+00 0.201D+00 0.793D+00
 Coeff-Com:  0.589D+00
 Coeff:      0.257D-02-0.120D+00-0.225D+00-0.240D+00 0.201D+00 0.793D+00
 Coeff:      0.589D+00
 Gap=     0.092 Goal=   None    Shift=    0.000
 Gap=     0.080 Goal=   None    Shift=    0.000
 RMSDP=3.58D-07 MaxDP=2.76D-05 DE=-5.09D-08 OVMax= 1.05D-04

 Cycle  12  Pass 1  IDiag  1:
 RMSU=  1.20D-07    CP:  1.00D+00  1.00D+00  6.64D-01  1.43D+00  2.24D+00
                    CP:  1.67D+00  7.51D-01
 E= -1682.54376484219     Delta-E=       -0.000000007420 Rises=F Damp=F
 DIIS: error= 8.12D-07 at cycle   8 NSaved=   8.
 NSaved= 8 IEnMin= 8 EnMin= -1682.54376484219     IErMin= 8 ErrMin= 8.12D-07
 ErrMax= 8.12D-07  0.00D+00 EMaxC= 1.00D-01 BMatC= 1.05D-09 BMatP= 1.17D-08
 IDIUse=1 WtCom= 1.00D+00 WtEn= 0.00D+00
 Coeff-Com:  0.125D-02-0.467D-01-0.873D-01-0.952D-01 0.579D-01 0.286D+00
 Coeff-Com:  0.287D+00 0.597D+00
 Coeff:      0.125D-02-0.467D-01-0.873D-01-0.952D-01 0.579D-01 0.286D+00
 Coeff:      0.287D+00 0.597D+00
 Gap=     0.092 Goal=   None    Shift=    0.000
 Gap=     0.080 Goal=   None    Shift=    0.000
 RMSDP=6.86D-08 MaxDP=4.71D-06 DE=-7.42D-09 OVMax= 1.24D-05

 Cycle  13  Pass 1  IDiag  1:
 RMSU=  6.00D-08    CP:  1.00D+00  1.00D+00  6.64D-01  1.44D+00  2.26D+00
                    CP:  1.69D+00  8.28D-01  9.97D-01
 E= -1682.54376484254     Delta-E=       -0.000000000349 Rises=F Damp=F
 DIIS: error= 5.62D-07 at cycle   9 NSaved=   9.
 NSaved= 9 IEnMin= 9 EnMin= -1682.54376484254     IErMin= 9 ErrMin= 5.62D-07
 ErrMax= 5.62D-07  0.00D+00 EMaxC= 1.00D-01 BMatC= 6.28D-10 BMatP= 1.05D-09
 IDIUse=1 WtCom= 1.00D+00 WtEn= 0.00D+00
 Coeff-Com: -0.467D-03 0.310D-01 0.597D-01 0.636D-01-0.604D-01-0.229D+00
 Coeff-Com: -0.109D+00 0.495D+00 0.749D+00
 Coeff:     -0.467D-03 0.310D-01 0.597D-01 0.636D-01-0.604D-01-0.229D+00
 Coeff:     -0.109D+00 0.495D+00 0.749D+00
 Gap=     0.092 Goal=   None    Shift=    0.000
 Gap=     0.080 Goal=   None    Shift=    0.000
 RMSDP=5.60D-08 MaxDP=3.50D-06 DE=-3.49D-10 OVMax= 9.17D-06

 Cycle  14  Pass 1  IDiag  1:
 RMSU=  3.89D-08    CP:  1.00D+00  1.00D+00  6.65D-01  1.44D+00  2.27D+00
                    CP:  1.71D+00  8.79D-01  1.30D+00  9.14D-01
 E= -1682.54376484285     Delta-E=       -0.000000000310 Rises=F Damp=F
 DIIS: error= 2.40D-07 at cycle  10 NSaved=  10.
 NSaved=10 IEnMin=10 EnMin= -1682.54376484285     IErMin=10 ErrMin= 2.40D-07
 ErrMax= 2.40D-07  0.00D+00 EMaxC= 1.00D-01 BMatC= 1.94D-10 BMatP= 6.28D-10
 IDIUse=1 WtCom= 1.00D+00 WtEn= 0.00D+00
 Coeff-Com: -0.603D-03 0.317D-01 0.604D-01 0.650D-01-0.539D-01-0.224D+00
 Coeff-Com: -0.138D+00 0.216D+00 0.522D+00 0.521D+00
 Coeff:     -0.603D-03 0.317D-01 0.604D-01 0.650D-01-0.539D-01-0.224D+00
 Coeff:     -0.138D+00 0.216D+00 0.522D+00 0.521D+00
 Gap=     0.092 Goal=   None    Shift=    0.000
 Gap=     0.080 Goal=   None    Shift=    0.000
 RMSDP=2.61D-08 MaxDP=1.88D-06 DE=-3.10D-10 OVMax= 5.91D-06

 Cycle  15  Pass 1  IDiag  1:
 RMSU=  1.84D-08    CP:  1.00D+00  1.00D+00  6.65D-01  1.44D+00  2.26D+00
                    CP:  1.72D+00  8.98D-01  1.39D+00  1.13D+00  9.16D-01
 E= -1682.54376484300     Delta-E=       -0.000000000147 Rises=F Damp=F
 DIIS: error= 1.32D-07 at cycle  11 NSaved=  11.
 NSaved=11 IEnMin=11 EnMin= -1682.54376484300     IErMin=11 ErrMin= 1.32D-07
 ErrMax= 1.32D-07  0.00D+00 EMaxC= 1.00D-01 BMatC= 3.28D-11 BMatP= 1.94D-10
 IDIUse=1 WtCom= 1.00D+00 WtEn= 0.00D+00
 Coeff-Com: -0.228D-03 0.104D-01 0.196D-01 0.213D-01-0.153D-01-0.709D-01
 Coeff-Com: -0.500D-01 0.123D-02 0.103D+00 0.286D+00 0.694D+00
 Coeff:     -0.228D-03 0.104D-01 0.196D-01 0.213D-01-0.153D-01-0.709D-01
 Coeff:     -0.500D-01 0.123D-02 0.103D+00 0.286D+00 0.694D+00
 Gap=     0.092 Goal=   None    Shift=    0.000
 Gap=     0.080 Goal=   None    Shift=    0.000
 RMSDP=1.34D-08 MaxDP=1.15D-06 DE=-1.47D-10 OVMax= 2.93D-06

 Cycle  16  Pass 1  IDiag  1:
 RMSU=  9.18D-09    CP:  1.00D+00  1.00D+00  6.64D-01  1.44D+00  2.26D+00
                    CP:  1.72D+00  9.07D-01  1.44D+00  1.20D+00  1.09D+00
                    CP:  1.01D+00
 E= -1682.54376484301     Delta-E=       -0.000000000011 Rises=F Damp=F
 DIIS: error= 7.66D-08 at cycle  12 NSaved=  12.
 NSaved=12 IEnMin=12 EnMin= -1682.54376484301     IErMin=12 ErrMin= 7.66D-08
 ErrMax= 7.66D-08  0.00D+00 EMaxC= 1.00D-01 BMatC= 1.33D-11 BMatP= 3.28D-11
 IDIUse=1 WtCom= 1.00D+00 WtEn= 0.00D+00
 Coeff-Com:  0.146D-03-0.874D-02-0.167D-01-0.180D-01 0.155D-01 0.630D-01
 Coeff-Com:  0.354D-01-0.102D+00-0.185D+00-0.622D-01 0.465D+00 0.814D+00
 Coeff:      0.146D-03-0.874D-02-0.167D-01-0.180D-01 0.155D-01 0.630D-01
 Coeff:      0.354D-01-0.102D+00-0.185D+00-0.622D-01 0.465D+00 0.814D+00
 Gap=     0.092 Goal=   None    Shift=    0.000
 Gap=     0.080 Goal=   None    Shift=    0.000
 RMSDP=1.12D-08 MaxDP=1.03D-06 DE=-1.09D-11 OVMax= 2.32D-06

 Cycle  17  Pass 1  IDiag  1:
 RMSU=  6.43D-09    CP:  1.00D+00  1.00D+00  6.64D-01  1.44D+00  2.26D+00
                    CP:  1.72D+00  9.11D-01  1.47D+00  1.26D+00  1.21D+00
                    CP:  1.32D+00  1.07D+00
 E= -1682.54376484302     Delta-E=       -0.000000000016 Rises=F Damp=F
 DIIS: error= 4.51D-08 at cycle  13 NSaved=  13.
 NSaved=13 IEnMin=13 EnMin= -1682.54376484302     IErMin=13 ErrMin= 4.51D-08
 ErrMax= 4.51D-08  0.00D+00 EMaxC= 1.00D-01 BMatC= 4.96D-12 BMatP= 1.33D-11
 IDIUse=1 WtCom= 1.00D+00 WtEn= 0.00D+00
 Coeff-Com:  0.155D-03-0.845D-02-0.161D-01-0.174D-01 0.141D-01 0.601D-01
 Coeff-Com:  0.365D-01-0.682D-01-0.149D+00-0.118D+00 0.121D+00 0.545D+00
 Coeff-Com:  0.600D+00
 Coeff:      0.155D-03-0.845D-02-0.161D-01-0.174D-01 0.141D-01 0.601D-01
 Coeff:      0.365D-01-0.682D-01-0.149D+00-0.118D+00 0.121D+00 0.545D+00
 Coeff:      0.600D+00
 Gap=     0.092 Goal=   None    Shift=    0.000
 Gap=     0.080 Goal=   None    Shift=    0.000
 RMSDP=5.14D-09 MaxDP=4.64D-07 DE=-1.64D-11 OVMax= 9.48D-07

 SCF Done:  E(UB3LYP) =  -1682.54376484     A.U. after   17 cycles
            NFock= 17  Conv=0.51D-08     -V/T= 2.0082
 <Sx>= 0.0000 <Sy>= 0.0000 <Sz>= 1.0000 <S**2>= 2.0364 S= 1.0121
 <L.S>= 0.000000000000E+00
 KE= 1.668856360475D+03 PE=-1.006689640480D+04 EE= 3.643031112742D+03
 Annihilation of the first spin contaminant:
 S**2 before annihilation     2.0364,   after     2.0009
 Leave Link  502 at Thu Mar 14 09:23:34 2024, MaxMem= 32212254720 cpu:            1303.2 elap:              43.5
 (Enter /home/<user>/g16/l701.exe)
 ... and contract with generalized density number  0.
 Compute integral first derivatives.
 Leave Link  701 at Thu Mar 14 09:23:34 2024, MaxMem= 32212254720 cpu:               5.1 elap:               0.2
 (Enter /home/<user>/g16/l702.exe)
 L702 exits ... SP integral derivatives will be done elsewhere.
 Leave Link  702 at Thu Mar 14 09:23:35 2024, MaxMem= 32212254720 cpu:               0.7 elap:               0.0
 (Enter /home/<user>/g16/l703.exe)
 Integral derivatives from FoFJK, PRISM(SPDF).
 Compute integral first derivatives, UseDBF=F ICtDFT=           0.
 Calling FoFJK, ICntrl=      2127 FMM=F ISym2X=0 I1Cent= 0 IOpClX= 1 NMat=1 NMatS=1 NMatT=0.
 FoFJK:  IHMeth= 1 ICntrl=    2127 DoSepK=F KAlg= 0 I1Cent=           0 FoldK=F
 IRaf=         0 NMat=       1 IRICut=       1 DoRegI=T DoRafI=F ISym2E= 0 IDoP0=0 IntGTp=1.
 FoFCou: FMM=F IPFlag=           0 FMFlag=      100000 FMFlg1=         800
         NFxFlg=           0 DoJE=F BraDBF=F KetDBF=F FulRan=T
         wScrn=  0.000000 ICntrl=      2127 IOpCl=  1 I1Cent=           0 NGrid=           0
         NMat0=    1 NMatS0=      1 NMatT0=    0 NMatD0=    1 NMtDS0=    0 NMtDT0=    0
 Symmetry not used in FoFCou.
 Leave Link  703 at Thu Mar 14 09:23:41 2024, MaxMem= 32212254720 cpu:             194.6 elap:               6.5
 (Enter /home/<user>/g16/l716.exe)
 Dipole        =-4.56298133D-01-9.75728404D-01-1.98713348D-02
 ***** Axes restored to original set *****
 -------------------------------------------------------------------
 Center     Atomic                   Forces (Hartrees/Bohr)
 Number     Number              X              Y              Z
 -------------------------------------------------------------------
      1        6          -0.000708059    0.000115835   -0.000235264
      2        6           0.001589526   -0.000127663    0.000766656
      3        6           0.000343581    0.000217378   -0.000072545
      4        6           0.000546977    0.000158723   -0.000154040
      5        6          -0.000780165    0.000173178   -0.000080995
      6        6           0.000422531   -0.000059732   -0.000057551
      7        1           0.000014310    0.000116031   -0.000059683
      8        1           0.000172112   -0.000566253   -0.000001320
      9        1           0.000141129    0.000155141    0.000107255
     10        6           0.000108649   -0.000405185   -0.000058570
     11        6           0.000066156   -0.000058699    0.000058667
     12        6           0.000055177   -0.000037685    0.000004746
     13        6           0.000002489   -0.000011141    0.000016772
     14        6           0.000043067    0.000061815   -0.000008096
     15        6          -0.000100353    0.000015907   -0.000027549
     16        6           0.000185505    0.000062307   -0.000001302
     17        1           0.000010301   -0.000003668   -0.000004422
     18        1           0.000006616   -0.000000852   -0.000005479
     19        1           0.000007357    0.000007130   -0.000002592
     20        1           0.000000702    0.000006804   -0.000002473
     21        6          -0.000046241   -0.000008589    0.000003856
     22        1           0.000016070   -0.000009272    0.000015377
     23        1          -0.000003252   -0.000016121    0.000014873
     24        1          -0.000002919    0.000005137    0.000008292
     25        6          -0.000002760    0.000003353    0.000053339
     26        1          -0.000009997    0.000016849   -0.000011163
     27        1          -0.000010384    0.000004352   -0.000000389
     28        1           0.000012238    0.000001031   -0.000010087
     29        6          -0.002060228   -0.002162991   -0.000640860
     30        6           0.000030351    0.002338440    0.000221579
     31        6          -0.001699825    0.002217055    0.000185247
     32        6           0.000522522    0.001929514    0.000380630
     33        6           0.002084844    0.001768152    0.000154867
     34        1           0.000131644   -0.000782866    0.000052196
     35        6           0.001011382   -0.002404646   -0.000454194
     36        1          -0.000560510   -0.000538793   -0.000029317
     37        7           0.001530863    0.000279891    0.000140427
     38        7          -0.001073237    0.000653316    0.000007189
     39       16          -0.000336927   -0.003509197   -0.000666577
     40        6          -0.001174034    0.000256913    0.000492014
     41        6           0.000302257   -0.000127274   -0.000053421
     42        6          -0.000247005    0.000274266   -0.000008132
     43        6          -0.000236695    0.000001437   -0.000026122
     44        1          -0.000097572    0.000231734   -0.000021551
     45        6          -0.000334839    0.000052613   -0.000052232
     46        1          -0.000047360   -0.000371859    0.000072515
     47        6           0.000615117   -0.000022231   -0.000012672
     48        1          -0.000094235    0.000164914    0.000065241
     49        1          -0.000188610   -0.000097344   -0.000040410
     50        6          -0.000137349    0.000023014   -0.000024541
     51        1          -0.000008184   -0.000004224    0.000003712
     52        1           0.000001265    0.000000937   -0.000013965
     53        6           0.000009980   -0.000020157    0.000038916
     54        1           0.000001326    0.000004938   -0.000009231
     55        1           0.000005781    0.000013106    0.000008344
     56        7          -0.000018698    0.000036775   -0.000034914
     57        1           0.000006215   -0.000001865    0.000011073
     58        1          -0.000018601   -0.000019681   -0.000002120
 -------------------------------------------------------------------
 Cartesian Forces:  Max     0.003509197 RMS     0.000625200
 Leave Link  716 at Thu Mar 14 09:23:41 2024, MaxMem= 32212254720 cpu:               0.7 elap:               0.0
 (Enter /home/<user>/g16/l103.exe)

 GradGradGradGradGradGradGradGradGradGradGradGradGradGradGradGradGradGrad
 Berny optimization.
 Using GEDIIS/GDIIS optimizer.
 FormGI is forming the generalized inverse of G from B-inverse, IUseBI=4.
 GSVD:  received Info=                   1 from GESDD.
 Internal  Forces:  Max     0.002083242 RMS     0.000380348
 Search for a local minimum.
 Step number   4 out of a maximum of  346
 All quantities printed in internal units (Hartrees-Bohrs-Radians)
 RMS Force = .38035D-03 SwitMx=.10000D-02 MixMth= 2
 Mixed Optimization -- En-DIIS/RFO-DIIS
 Swapping is turned off.
 Update second derivatives using D2CorX and points    2    3    4
 DE= -4.66D-04 DEPred=-5.09D-04 R= 9.17D-01
 TightC=F SS=  1.41D+00  RLast= 1.68D-01 DXNew= 1.4270D+00 5.0385D-01
 Trust test= 9.17D-01 RLast= 1.68D-01 DXMaxT set to 8.49D-01
 ITU=  1  1  1  0
     Eigenvalues ---    0.00230   0.00230   0.00250   0.00611   0.00753
     Eigenvalues ---    0.00790   0.00813   0.01030   0.01253   0.01453
     Eigenvalues ---    0.01466   0.01602   0.01618   0.01632   0.01657
     Eigenvalues ---    0.01674   0.01698   0.01725   0.01740   0.01767
     Eigenvalues ---    0.01885   0.01923   0.02014   0.02034   0.02036
     Eigenvalues ---    0.02070   0.02089   0.02090   0.02091   0.02094
     Eigenvalues ---    0.02112   0.02115   0.02119   0.02123   0.02130
     Eigenvalues ---    0.02134   0.02144   0.02145   0.02148   0.02159
     Eigenvalues ---    0.02161   0.02162   0.02191   0.02313   0.04049
     Eigenvalues ---    0.04278   0.04394   0.04471   0.05425   0.05429
     Eigenvalues ---    0.05433   0.05500   0.05501   0.05559   0.05982
     Eigenvalues ---    0.08017   0.08962   0.09275   0.11602   0.12606
     Eigenvalues ---    0.12823   0.15385   0.15949   0.15983   0.15999
     Eigenvalues ---    0.16000   0.16000   0.16000   0.16000   0.16000
     Eigenvalues ---    0.16000   0.16000   0.16000   0.16000   0.16000
     Eigenvalues ---    0.16000   0.16000   0.16000   0.16000   0.16001
     Eigenvalues ---    0.16009   0.16556   0.18947   0.19222   0.21875
     Eigenvalues ---    0.21953   0.22000   0.22004   0.22437   0.22451
     Eigenvalues ---    0.22616   0.22967   0.23644   0.24083   0.24530
     Eigenvalues ---    0.24664   0.24936   0.24961   0.24981   0.24992
     Eigenvalues ---    0.24998   0.24998   0.24999   0.25966   0.28050
     Eigenvalues ---    0.28067   0.28479   0.28609   0.29011   0.31180
     Eigenvalues ---    0.31880   0.33128   0.33239   0.33785   0.34027
     Eigenvalues ---    0.34090   0.34100   0.34104   0.34105   0.34131
     Eigenvalues ---    0.34276   0.34289   0.34564   0.34801   0.35033
     Eigenvalues ---    0.35049   0.35084   0.35151   0.35158   0.35180
     Eigenvalues ---    0.35187   0.35189   0.35237   0.35284   0.35465
     Eigenvalues ---    0.35587   0.35828   0.36126   0.36242   0.38012
     Eigenvalues ---    0.38068   0.39761   0.40542   0.41118   0.41573
     Eigenvalues ---    0.41681   0.41761   0.42120   0.42617   0.43255
     Eigenvalues ---    0.44364   0.44419   0.44523   0.44732   0.44912
     Eigenvalues ---    0.44970   0.45436   0.45798   0.45954   0.46070
     Eigenvalues ---    0.46088   0.46544   0.46916   0.47006   0.47212
     Eigenvalues ---    0.47584   0.54557   0.60435
 En-DIIS/RFO-DIIS/Sim-DIIS IScMMF=       -3 using points:     4    3
 RFO step:  Lambda=-2.06596431D-04.
 NNeg= 0 NGDIIS= 2 SimSw=  2.50D-01 Rises=F DC= -4.66D-04 SmlDif=  1.00D-05
 NRisDI= 0 DoIntr=F SqrtH=F CThrHd= 10.0 CDAdj=  3.0
 RMS Error=  0.5420683980D-02 NUsed= 2 OKEnD=T EnDIS=F
 InvSVX:  RCond= 6.64D-03 Info=           0 Equed=N FErr=  2.28D-15 BErr=  0.00D+00
 DidBck=F Rises=F RFO-DIIS coefs:    1.41811   -0.41811
 Iteration  1 RMS(Cart)=  0.03923511 RMS(Int)=  0.00019243
 Iteration  2 RMS(Cart)=  0.00088536 RMS(Int)=  0.00001151
 Iteration  3 RMS(Cart)=  0.00000022 RMS(Int)=  0.00001151
 ITry= 1 IFail=0 DXMaxC= 2.64D-01 DCOld= 1.00D+10 DXMaxT= 8.49D-01 DXLimC= 3.00D+00 Rises=F
 Variable       Old X    -DE/DX   Delta X   Delta X   Delta X     New X
                                 (Linear)    (Quad)   (Total)
    R1        2.69512   0.00035   0.00253  -0.00052   0.00201   2.69713
    R2        2.61951  -0.00025  -0.00095  -0.00004  -0.00100   2.61851
    R3        2.04238   0.00011  -0.00023   0.00045   0.00021   2.04259
    R4        2.70052  -0.00046   0.00346  -0.00275   0.00071   2.70123
    R5        2.73774  -0.00208  -0.00159  -0.00503  -0.00661   2.73113
    R6        2.60556  -0.00041  -0.00115  -0.00030  -0.00145   2.60411
    R7        2.04902   0.00057  -0.00119   0.00213   0.00094   2.04996
    R8        2.67196   0.00039  -0.00011   0.00093   0.00081   2.67277
    R9        2.89050   0.00007   0.00034   0.00017   0.00050   2.89101
   R10        2.64661   0.00036  -0.00012   0.00085   0.00073   2.64734
   R11        2.75707  -0.00015  -0.00085  -0.00008  -0.00093   2.75614
   R12        2.05389   0.00005   0.00010   0.00009   0.00019   2.05408
   R13        2.88870  -0.00001   0.00002   0.00003   0.00005   2.88875
   R14        2.92027   0.00005   0.00005   0.00014   0.00019   2.92046
   R15        2.92002  -0.00004   0.00006  -0.00017  -0.00011   2.91991
   R16        2.62606  -0.00006  -0.00006  -0.00008  -0.00014   2.62592
   R17        2.66823   0.00022   0.00015   0.00038   0.00054   2.66877
   R18        2.64644   0.00003  -0.00000   0.00006   0.00006   2.64651
   R19        2.05506   0.00000   0.00002  -0.00001   0.00001   2.05507
   R20        2.64588   0.00006   0.00006   0.00007   0.00013   2.64601
   R21        2.05353  -0.00001  -0.00001  -0.00001  -0.00002   2.05351
   R22        2.63607  -0.00006  -0.00014  -0.00008  -0.00022   2.63585
   R23        2.05343  -0.00000   0.00001  -0.00001   0.00001   2.05343
   R24        2.64397   0.00005   0.00022   0.00001   0.00023   2.64420
   R25        2.05386   0.00001   0.00001   0.00002   0.00003   2.05389
   R26        2.07140  -0.00000   0.00001  -0.00001   0.00000   2.07141
   R27        2.07136   0.00001   0.00002   0.00001   0.00003   2.07139
   R28        2.06840   0.00001   0.00002   0.00002   0.00004   2.06843
   R29        2.07156  -0.00002   0.00002  -0.00006  -0.00004   2.07152
   R30        2.07135   0.00000   0.00001   0.00001   0.00002   2.07136
   R31        2.06854   0.00001  -0.00002   0.00003   0.00002   2.06856
   R32        2.72378   0.00147   0.00199   0.00287   0.00486   2.72863
   R33        2.75259  -0.00178   0.00364  -0.00567  -0.00202   2.75057
   R34        2.77327   0.00075   0.00218   0.00141   0.00358   2.77684
   R35        2.51675  -0.00133  -0.00095  -0.00166  -0.00261   2.51414
   R36        2.56719   0.00041   0.00095   0.00044   0.00139   2.56858
   R37        2.04605   0.00054  -0.00124   0.00208   0.00084   2.04689
   R38        2.71762   0.00086   0.00148   0.00159   0.00307   2.72069
   R39        2.51868  -0.00128  -0.00062  -0.00174  -0.00236   2.51631
   R40        2.74496  -0.00170   0.00300  -0.00521  -0.00222   2.74274
   R41        2.04722   0.00029  -0.00093   0.00125   0.00032   2.04754
   R42        2.75060  -0.00171  -0.00089  -0.00434  -0.00523   2.74537
   R43        3.18634  -0.00185   0.00304  -0.00585  -0.00280   3.18354
   R44        3.18454  -0.00204   0.00293  -0.00622  -0.00328   3.18125
   R45        2.68091   0.00004   0.00209  -0.00098   0.00112   2.68203
   R46        2.68384  -0.00026   0.00265  -0.00189   0.00077   2.68461
   R47        2.62286  -0.00021  -0.00062  -0.00012  -0.00074   2.62212
   R48        2.04313   0.00025  -0.00040   0.00089   0.00049   2.04362
   R49        2.62072  -0.00021  -0.00084  -0.00003  -0.00086   2.61986
   R50        2.04897   0.00032  -0.00097   0.00135   0.00038   2.04935
   R51        2.65262   0.00023  -0.00025   0.00065   0.00039   2.65301
   R52        2.05597   0.00004   0.00008   0.00008   0.00016   2.05613
   R53        2.65305   0.00039  -0.00012   0.00093   0.00080   2.65386
   R54        2.05566   0.00002   0.00000   0.00005   0.00005   2.05571
   R55        2.85319  -0.00016  -0.00027  -0.00038  -0.00065   2.85255
   R56        2.07099   0.00000  -0.00002   0.00002  -0.00000   2.07099
   R57        2.07667   0.00001   0.00000   0.00003   0.00003   2.07670
   R58        2.91088   0.00001   0.00018  -0.00007   0.00012   2.91099
   R59        2.08786   0.00000   0.00000   0.00000   0.00001   2.08787
   R60        2.07271  -0.00000  -0.00000  -0.00001  -0.00001   2.07270
   R61        2.77083  -0.00003  -0.00008  -0.00005  -0.00013   2.77069
   R62        1.92715  -0.00001  -0.00001  -0.00001  -0.00002   1.92713
   R63        1.92529  -0.00001  -0.00001  -0.00002  -0.00003   1.92526
    A1        2.12475  -0.00014   0.00236  -0.00167   0.00069   2.12543
    A2        2.06923   0.00013  -0.00152   0.00137  -0.00015   2.06908
    A3        2.08919   0.00001  -0.00084   0.00032  -0.00052   2.08866
    A4        2.04783   0.00028  -0.00482   0.00333  -0.00152   2.04631
    A5        2.13061   0.00139  -0.00050   0.00560   0.00506   2.13566
    A6        2.10474  -0.00168   0.00544  -0.00900  -0.00360   2.10114
    A7        2.10833  -0.00014   0.00222  -0.00173   0.00048   2.10881
    A8        2.08887   0.00016   0.00241  -0.00010   0.00231   2.09118
    A9        2.08477  -0.00002  -0.00474   0.00216  -0.00258   2.08219
   A10        2.10445   0.00024   0.00093   0.00041   0.00134   2.10579
   A11        2.24704  -0.00031  -0.00050  -0.00119  -0.00168   2.24536
   A12        1.93167   0.00007  -0.00044   0.00078   0.00035   1.93202
   A13        2.09217  -0.00025  -0.00157  -0.00002  -0.00160   2.09057
   A14        1.89805  -0.00008   0.00057  -0.00063  -0.00006   1.89799
   A15        2.29295   0.00033   0.00099   0.00066   0.00166   2.29461
   A16        2.08868  -0.00000   0.00090  -0.00021   0.00068   2.08937
   A17        2.08874  -0.00019  -0.00052  -0.00101  -0.00152   2.08722
   A18        2.10576   0.00019  -0.00038   0.00122   0.00084   2.10660
   A19        1.76475  -0.00011   0.00002  -0.00077  -0.00075   1.76400
   A20        1.94398   0.00005  -0.00009   0.00038   0.00030   1.94428
   A21        1.94504   0.00004   0.00020   0.00019   0.00039   1.94543
   A22        1.94289   0.00000  -0.00023  -0.00014  -0.00037   1.94252
   A23        1.94385   0.00006   0.00006   0.00018   0.00024   1.94410
   A24        1.91931  -0.00005   0.00003   0.00011   0.00014   1.91945
   A25        2.24946  -0.00008   0.00004  -0.00049  -0.00045   2.24902
   A26        1.93641   0.00012  -0.00004   0.00065   0.00061   1.93702
   A27        2.09732  -0.00003   0.00000  -0.00017  -0.00016   2.09715
   A28        2.07968  -0.00000  -0.00001   0.00001   0.00000   2.07968
   A29        2.11037  -0.00001   0.00003  -0.00009  -0.00005   2.11031
   A30        2.09314   0.00001  -0.00003   0.00008   0.00005   2.09319
   A31        2.10570   0.00004   0.00005   0.00012   0.00017   2.10586
   A32        2.08880  -0.00002  -0.00000  -0.00008  -0.00008   2.08872
   A33        2.08868  -0.00002  -0.00004  -0.00004  -0.00008   2.08860
   A34        2.10428   0.00000   0.00002  -0.00004  -0.00003   2.10425
   A35        2.08876   0.00001  -0.00008   0.00013   0.00005   2.08881
   A36        2.09014  -0.00001   0.00007  -0.00009  -0.00002   2.09012
   A37        2.07380  -0.00001  -0.00001  -0.00004  -0.00005   2.07375
   A38        2.10112   0.00000   0.00010  -0.00004   0.00007   2.10118
   A39        2.10827   0.00001  -0.00009   0.00007  -0.00002   2.10825
   A40        1.89382  -0.00000  -0.00011   0.00000  -0.00011   1.89371
   A41        2.28376  -0.00000   0.00016  -0.00012   0.00004   2.28381
   A42        2.10560   0.00000  -0.00005   0.00012   0.00007   2.10567
   A43        1.93118   0.00002   0.00010   0.00009   0.00019   1.93137
   A44        1.93164   0.00002   0.00001   0.00011   0.00012   1.93177
   A45        1.93972  -0.00000  -0.00005   0.00002  -0.00003   1.93969
   A46        1.88254  -0.00003  -0.00000  -0.00020  -0.00020   1.88235
   A47        1.88881  -0.00001  -0.00003  -0.00003  -0.00006   1.88875
   A48        1.88813  -0.00001  -0.00004  -0.00000  -0.00004   1.88809
   A49        1.93148  -0.00000   0.00005  -0.00003   0.00002   1.93150
   A50        1.93177  -0.00001   0.00013  -0.00006   0.00007   1.93184
   A51        1.94003   0.00000  -0.00006   0.00002  -0.00004   1.93999
   A52        1.88156   0.00001  -0.00006   0.00014   0.00008   1.88164
   A53        1.88864  -0.00001  -0.00009  -0.00009  -0.00017   1.88847
   A54        1.88851   0.00000   0.00003   0.00001   0.00004   1.88855
   A55        2.17428   0.00168   0.00367   0.00465   0.00830   2.18258
   A56        2.09831  -0.00150   0.00271  -0.00696  -0.00428   2.09403
   A57        2.01050  -0.00017  -0.00642   0.00249  -0.00397   2.00653
   A58        2.11560  -0.00048   0.00318  -0.00291   0.00026   2.11586
   A59        2.18414   0.00057  -0.00043   0.00181   0.00140   2.18553
   A60        1.98279  -0.00010  -0.00270   0.00102  -0.00169   1.98110
   A61        2.15494   0.00051   0.00313   0.00003   0.00314   2.15808
   A62        2.05840   0.00032  -0.00282   0.00451   0.00167   2.06007
   A63        2.06707  -0.00081  -0.00066  -0.00363  -0.00431   2.06276
   A64        2.11684  -0.00012   0.00306  -0.00147   0.00156   2.11841
   A65        1.98476   0.00023  -0.00299   0.00246  -0.00053   1.98422
   A66        2.18095  -0.00011  -0.00007  -0.00093  -0.00098   2.17998
   A67        2.15369   0.00040   0.00293  -0.00042   0.00248   2.15618
   A68        2.07025  -0.00093   0.00006  -0.00486  -0.00481   2.06544
   A69        2.05693   0.00054  -0.00330   0.00596   0.00265   2.05957
   A70        2.01461  -0.00014  -0.00594   0.00223  -0.00374   2.01087
   A71        2.17164   0.00021   0.00498  -0.00160   0.00337   2.17501
   A72        2.09689  -0.00007   0.00094  -0.00056   0.00037   2.09726
   A73        1.87740  -0.00069   0.00668  -0.00553   0.00115   1.87855
   A74        1.87602  -0.00085   0.00675  -0.00621   0.00052   1.87655
   A75        1.70375   0.00140  -0.00771   0.00819   0.00049   1.70424
   A76        2.14031   0.00015   0.00075   0.00022   0.00094   2.14125
   A77        2.10620  -0.00040   0.00342  -0.00309   0.00032   2.10652
   A78        2.03661   0.00025  -0.00407   0.00281  -0.00127   2.03535
   A79        2.11317  -0.00004   0.00193  -0.00114   0.00080   2.11397
   A80        2.07847   0.00000  -0.00104   0.00050  -0.00054   2.07793
   A81        2.09150   0.00004  -0.00090   0.00066  -0.00025   2.09126
   A82        2.12220  -0.00016   0.00194  -0.00167   0.00027   2.12246
   A83        2.09098   0.00029   0.00188   0.00085   0.00273   2.09371
   A84        2.06913  -0.00013  -0.00392   0.00103  -0.00289   2.06624
   A85        2.12564  -0.00000   0.00081  -0.00032   0.00049   2.12612
   A86        2.07795  -0.00017  -0.00051  -0.00087  -0.00138   2.07658
   A87        2.07957   0.00018  -0.00030   0.00119   0.00089   2.08046
   A88        2.11672   0.00014   0.00076   0.00032   0.00107   2.11779
   A89        2.08446  -0.00028  -0.00051  -0.00136  -0.00187   2.08260
   A90        2.08200   0.00013  -0.00025   0.00105   0.00080   2.08280
   A91        2.05188  -0.00018  -0.00135   0.00006  -0.00130   2.05058
   A92        2.11857   0.00009   0.00067  -0.00002   0.00065   2.11922
   A93        2.11214   0.00009   0.00064   0.00001   0.00065   2.11279
   A94        1.93322  -0.00000   0.00002  -0.00009  -0.00007   1.93315
   A95        1.91476   0.00000  -0.00005   0.00003  -0.00002   1.91473
   A96        1.96608  -0.00001   0.00006  -0.00007  -0.00001   1.96608
   A97        1.86545  -0.00000   0.00015  -0.00005   0.00010   1.86555
   A98        1.88379   0.00001  -0.00007   0.00007  -0.00000   1.88379
   A99        1.89735   0.00001  -0.00011   0.00012   0.00001   1.89737
   A100       1.89966   0.00001  -0.00003   0.00003  -0.00001   1.89965
   A101       1.90047   0.00001   0.00001   0.00009   0.00010   1.90058
   A102       1.92203  -0.00003  -0.00005  -0.00011  -0.00016   1.92187
   A103       1.85884  -0.00001   0.00009  -0.00004   0.00006   1.85889
   A104       1.99732   0.00001   0.00000  -0.00001  -0.00001   1.99731
   A105       1.88258   0.00001  -0.00001   0.00005   0.00003   1.88261
   A106       1.91206   0.00002   0.00005   0.00011   0.00016   1.91222
   A107       1.91486  -0.00002  -0.00002  -0.00007  -0.00009   1.91477
   A108       1.84814   0.00000   0.00005   0.00006   0.00011   1.84825
    D1       -0.01348   0.00011  -0.00461   0.00798   0.00339  -0.01009
    D2        3.12263  -0.00010   0.00392  -0.00741  -0.00356   3.11907
    D3        3.13483   0.00006  -0.00355   0.00505   0.00153   3.13635
    D4       -0.01225  -0.00015   0.00497  -0.01035  -0.00542  -0.01768
    D5        0.01594  -0.00012   0.00091  -0.00618  -0.00527   0.01067
    D6       -3.12204  -0.00012   0.00129  -0.00604  -0.00475  -3.12679
    D7       -3.13244  -0.00007  -0.00016  -0.00321  -0.00338  -3.13582
    D8        0.01276  -0.00007   0.00022  -0.00308  -0.00286   0.00990
    D9       -0.00148  -0.00002   0.00553  -0.00442   0.00110  -0.00038
   D10       -3.08996  -0.00015   0.00806  -0.01179  -0.00373  -3.09369
   D11       -3.13768   0.00017  -0.00277   0.01068   0.00788  -3.12980
   D12        0.05703   0.00004  -0.00024   0.00332   0.00304   0.06007
   D13        0.34065  -0.00003  -0.02941   0.00288  -0.02658   0.31407
   D14       -2.78550  -0.00021  -0.02025  -0.01162  -0.03186  -2.81737
   D15       -2.80660  -0.00024  -0.02076  -0.01297  -0.03374  -2.84034
   D16        0.35043  -0.00041  -0.01160  -0.02746  -0.03902   0.31141
   D17        0.01369  -0.00006  -0.00280  -0.00081  -0.00363   0.01006
   D18       -3.12161  -0.00006  -0.00234  -0.00168  -0.00403  -3.12564
   D19        3.10229   0.00008  -0.00513   0.00647   0.00133   3.10362
   D20       -0.03301   0.00008  -0.00466   0.00561   0.00093  -0.03208
   D21       -0.01138   0.00004  -0.00106   0.00282   0.00177  -0.00961
   D22        3.13602   0.00004   0.00054   0.00168   0.00221   3.13824
   D23        3.12497   0.00005  -0.00144   0.00354   0.00209   3.12706
   D24       -0.01082   0.00004   0.00015   0.00239   0.00254  -0.00828
   D25       -3.13666  -0.00003  -0.00034  -0.00165  -0.00199  -3.13865
   D26        1.08098   0.00001  -0.00005  -0.00123  -0.00128   1.07970
   D27       -1.06954  -0.00000  -0.00017  -0.00179  -0.00196  -1.07150
   D28        0.01073  -0.00003   0.00009  -0.00245  -0.00236   0.00836
   D29       -2.05482   0.00000   0.00038  -0.00203  -0.00165  -2.05647
   D30        2.07785  -0.00001   0.00026  -0.00259  -0.00233   2.07552
   D31       -0.00341   0.00004   0.00202   0.00063   0.00266  -0.00075
   D32        3.13454   0.00003   0.00164   0.00049   0.00213   3.13667
   D33        3.13086   0.00005   0.00001   0.00207   0.00208   3.13294
   D34       -0.01438   0.00004  -0.00037   0.00193   0.00155  -0.01283
   D35        0.00605  -0.00003  -0.00035  -0.00126  -0.00160   0.00445
   D36       -3.13668  -0.00001  -0.00046  -0.00053  -0.00098  -3.13766
   D37       -3.12883  -0.00003   0.00150  -0.00258  -0.00107  -3.12990
   D38        0.01162  -0.00001   0.00139  -0.00185  -0.00045   0.01118
   D39        3.13611   0.00001   0.00021   0.00089   0.00111   3.13721
   D40       -0.00697   0.00002  -0.00031   0.00168   0.00137  -0.00560
   D41       -1.08074   0.00001   0.00003   0.00085   0.00088  -1.07987
   D42        2.05937   0.00002  -0.00049   0.00163   0.00114   2.06050
   D43        1.06813  -0.00000  -0.00006   0.00102   0.00097   1.06909
   D44       -2.07495   0.00001  -0.00058   0.00181   0.00123  -2.07372
   D45        3.07410  -0.00005  -0.00054  -0.00006  -0.00060   3.07349
   D46       -1.12327  -0.00005  -0.00047  -0.00017  -0.00065  -1.12392
   D47        0.97514  -0.00005  -0.00054  -0.00009  -0.00063   0.97451
   D48        1.11890   0.00005  -0.00039   0.00075   0.00036   1.11926
   D49       -3.07847   0.00005  -0.00032   0.00063   0.00031  -3.07815
   D50       -0.98005   0.00005  -0.00039   0.00071   0.00033  -0.97973
   D51       -1.04395   0.00001  -0.00033   0.00053   0.00021  -1.04374
   D52        1.04187   0.00000  -0.00026   0.00042   0.00016   1.04203
   D53        3.14028   0.00000  -0.00033   0.00050   0.00017   3.14046
   D54        1.12325   0.00004   0.00003   0.00097   0.00100   1.12425
   D55       -3.07507   0.00005   0.00007   0.00109   0.00116  -3.07391
   D56       -0.97589   0.00005   0.00015   0.00108   0.00123  -0.97466
   D57        3.07962  -0.00003   0.00021   0.00024   0.00045   3.08007
   D58       -1.11870  -0.00003   0.00025   0.00036   0.00061  -1.11809
   D59        0.98047  -0.00002   0.00033   0.00035   0.00068   0.98115
   D60       -1.04127  -0.00002  -0.00002   0.00026   0.00024  -1.04103
   D61        1.04359  -0.00001   0.00002   0.00039   0.00040   1.04400
   D62       -3.14042  -0.00001   0.00010   0.00037   0.00048  -3.13994
   D63        3.14014   0.00000  -0.00031   0.00053   0.00022   3.14036
   D64       -0.00103   0.00000  -0.00043   0.00052   0.00009  -0.00094
   D65        0.00015  -0.00000   0.00025  -0.00032  -0.00006   0.00008
   D66       -3.14103  -0.00001   0.00014  -0.00033  -0.00019  -3.14122
   D67        0.00105   0.00000   0.00041  -0.00037   0.00004   0.00109
   D68       -3.13954  -0.00001   0.00051  -0.00101  -0.00050  -3.14004
   D69        3.14131   0.00001  -0.00005   0.00033   0.00028   3.14159
   D70        0.00072  -0.00001   0.00004  -0.00031  -0.00027   0.00045
   D71       -0.00061   0.00001  -0.00029   0.00051   0.00022  -0.00039
   D72       -3.14158  -0.00000  -0.00023   0.00008  -0.00015   3.14145
   D73        3.14057   0.00001  -0.00017   0.00052   0.00034   3.14091
   D74       -0.00041  -0.00000  -0.00011   0.00009  -0.00002  -0.00043
   D75        0.00022  -0.00000   0.00002  -0.00007  -0.00005   0.00017
   D76       -3.14114  -0.00001   0.00005  -0.00031  -0.00026  -3.14140
   D77        3.14119   0.00001  -0.00003   0.00035   0.00032   3.14151
   D78       -0.00016   0.00000  -0.00001   0.00012   0.00010  -0.00006
   D79        0.00063  -0.00001   0.00027  -0.00055  -0.00028   0.00036
   D80       -3.14127  -0.00001   0.00001  -0.00017  -0.00016  -3.14144
   D81       -3.14120  -0.00000   0.00025  -0.00031  -0.00006  -3.14126
   D82        0.00008   0.00000  -0.00002   0.00007   0.00005   0.00013
   D83       -3.14144  -0.00001  -0.00018  -0.00006  -0.00025   3.14150
   D84       -0.00110   0.00001  -0.00031   0.00074   0.00043  -0.00066
   D85        0.00047  -0.00001   0.00008  -0.00045  -0.00036   0.00011
   D86        3.14081   0.00001  -0.00004   0.00036   0.00032   3.14113
   D87       -3.14068  -0.00024   0.00271  -0.01544  -0.01275   3.12976
   D88        0.04230  -0.00019   0.00146  -0.01298  -0.01155   0.03076
   D89       -0.01383  -0.00009  -0.00606  -0.00167  -0.00771  -0.02154
   D90       -3.11403  -0.00003  -0.00731   0.00078  -0.00651  -3.12054
   D91        3.14027   0.00027  -0.00156   0.01452   0.01298  -3.12993
   D92        0.08002   0.00007   0.00417   0.00138   0.00554   0.08557
   D93        0.01272   0.00010   0.00681   0.00130   0.00811   0.02083
   D94       -3.04752  -0.00010   0.01254  -0.01184   0.00067  -3.04685
   D95        0.00082  -0.00001  -0.00022  -0.00034  -0.00056   0.00027
   D96       -3.10427  -0.00003  -0.00004  -0.00202  -0.00207  -3.10634
   D97        3.10548  -0.00004   0.00094  -0.00250  -0.00157   3.10392
   D98        0.00039  -0.00006   0.00111  -0.00419  -0.00308  -0.00269
   D99        3.10946   0.00006  -0.00059   0.00448   0.00387   3.11334
   D100       0.00650   0.00012  -0.00189   0.00686   0.00496   0.01146
   D101       0.00212   0.00001  -0.00099   0.00122   0.00022   0.00234
   D102      -3.06472  -0.00019   0.00473  -0.00989  -0.00514  -3.06986
   D103       3.06198   0.00026  -0.00682   0.01478   0.00794   3.06992
   D104      -0.00486   0.00006  -0.00110   0.00367   0.00257  -0.00229
   D105       0.01359   0.00010   0.00597   0.00268   0.00864   0.02224
   D106      -3.13857   0.00017  -0.00101   0.01019   0.00918  -3.12939
   D107       3.11441   0.00014   0.00572   0.00464   0.01035   3.12477
   D108      -0.03775   0.00021  -0.00126   0.01215   0.01089  -0.02686
   D109      -0.00706  -0.00003   0.00029  -0.00078  -0.00049  -0.00755
   D110      -3.11060  -0.00005   0.00040  -0.00253  -0.00213  -3.11273
   D111      -0.01537  -0.00011  -0.00551  -0.00319  -0.00870  -0.02407
   D112       3.13630  -0.00018   0.00116  -0.01035  -0.00923   3.12707
   D113       3.05200   0.00002  -0.01108   0.00740  -0.00365   3.04835
   D114      -0.07951  -0.00005  -0.00441   0.00025  -0.00418  -0.08369
   D115      -0.38214   0.00012   0.02498   0.00345   0.02847  -0.35367
   D116       2.77128   0.00020   0.01859   0.01056   0.02916   2.80044
   D117       2.74842   0.00020   0.01771   0.01131   0.02901   2.77743
   D118      -0.38135   0.00027   0.01132   0.01842   0.02970  -0.35165
   D119      -0.00933  -0.00013   0.00186  -0.00652  -0.00467  -0.01400
   D120       0.00953   0.00010  -0.00125   0.00418   0.00294   0.01247
   D121      -3.11958   0.00004  -0.00305   0.00387   0.00084  -3.11874
   D122       0.01200   0.00009  -0.00424   0.00654   0.00231   0.01431
   D123       0.01063  -0.00003   0.00321  -0.00301   0.00018   0.01082
   D124      -3.14098   0.00002   0.00202  -0.00034   0.00166  -3.13932
   D125       3.13446  -0.00011   0.00232  -0.00659  -0.00427   3.13019
   D126      -0.05288  -0.00002  -0.00051  -0.00087  -0.00138  -0.05426
   D127       0.00401  -0.00004  -0.00377   0.00013  -0.00363   0.00038
   D128       3.09986   0.00005  -0.00660   0.00585  -0.00075   3.09911
   D129      -0.01538   0.00007  -0.00084   0.00350   0.00266  -0.01272
   D130       3.11812   0.00007  -0.00108   0.00370   0.00261   3.12073
   D131       3.13631   0.00002   0.00036   0.00081   0.00117   3.13748
   D132      -0.01338   0.00003   0.00012   0.00101   0.00113  -0.01225
   D133      -0.01444   0.00008   0.00193   0.00239   0.00433  -0.01011
   D134       3.12516   0.00008   0.00069   0.00337   0.00406   3.12923
   D135      -3.11084  -0.00002   0.00461  -0.00326   0.00136  -3.10949
   D136       0.02876  -0.00002   0.00336  -0.00227   0.00109   0.02985
   D137       0.00494  -0.00003  -0.00112  -0.00093  -0.00205   0.00289
   D138      -3.09991  -0.00005   0.00036  -0.00233  -0.00197  -3.10188
   D139      -3.12855  -0.00003  -0.00088  -0.00111  -0.00199  -3.13054
   D140       0.04979  -0.00005   0.00060  -0.00252  -0.00192   0.04787
   D141       0.00984  -0.00004   0.00056  -0.00198  -0.00142   0.00842
   D142       3.11482  -0.00002  -0.00091  -0.00058  -0.00149   3.11333
   D143      -3.12977  -0.00004   0.00181  -0.00296  -0.00115  -3.13092
   D144      -0.02478  -0.00003   0.00033  -0.00156  -0.00122  -0.02600
   D145      -2.62178  -0.00000  -0.00138   0.00018  -0.00120  -2.62298
   D146      -0.56652  -0.00000  -0.00122   0.00008  -0.00114  -0.56766
   D147       1.54957  -0.00000  -0.00135   0.00020  -0.00114   1.54843
   D148       0.55783  -0.00001   0.00019  -0.00128  -0.00109   0.55674
   D149       2.61309  -0.00001   0.00035  -0.00137  -0.00102   2.61207
   D150      -1.55400  -0.00001   0.00022  -0.00125  -0.00103  -1.55503
   D151      -0.98326  -0.00000  -0.00045   0.00015  -0.00030  -0.98355
   D152       1.03648  -0.00000  -0.00035   0.00017  -0.00018   1.03630
   D153       3.09733  -0.00000  -0.00039   0.00022  -0.00017   3.09716
   D154      -3.12309   0.00000  -0.00047   0.00026  -0.00020  -3.12329
   D155      -1.10335   0.00001  -0.00037   0.00029  -0.00008  -1.10343
   D156       0.95750   0.00001  -0.00041   0.00034  -0.00007   0.95743
   D157       1.14272  -0.00000  -0.00054   0.00022  -0.00032   1.14240
   D158      -3.12073   0.00000  -0.00044   0.00024  -0.00020  -3.12093
   D159      -1.05988   0.00000  -0.00048   0.00029  -0.00019  -1.06007
   D160       1.19436   0.00000   0.00083   0.00062   0.00146   1.19582
   D161      -3.06698   0.00001   0.00091   0.00072   0.00163  -3.06536
   D162      -0.95202   0.00001   0.00091   0.00068   0.00160  -0.95042
   D163       1.06982   0.00002   0.00099   0.00078   0.00177   1.07159
   D164      -3.01697   0.00001   0.00081   0.00070   0.00151  -3.01546
   D165      -0.99513   0.00001   0.00088   0.00080   0.00168  -0.99345
         Item               Value     Threshold  Converged?
 Maximum Force            0.002083     0.000450     NO 
 RMS     Force            0.000380     0.000300     NO 
 Maximum Displacement     0.263657     0.001800     NO 
 RMS     Displacement     0.038992     0.001200     NO 
 Predicted change in Energy=-1.043477D-04
 Lowest energy point so far.  Saving SCF results.
 GradGradGradGradGradGradGradGradGradGradGradGradGradGradGradGradGradGrad

 Leave Link  103 at Thu Mar 14 09:23:41 2024, MaxMem= 32212254720 cpu:               2.6 elap:               0.1
 (Enter /home/<user>/g16/l202.exe)
 Stoichiometry    C29H25N3S(3)
 Framework group  C1[X(C29H25N3S)]
 Deg. of freedom   168
 Full point group                 C1      NOp   1
 RotChk:  IX=0 Diff= 2.62D-02
 Largest Abelian subgroup         C1      NOp   1
 Largest concise Abelian subgroup C1      NOp   1
                         Standard orientation:                         
 ---------------------------------------------------------------------
 Center     Atomic      Atomic             Coordinates (Angstroms)
 Number     Number       Type             X           Y           Z
 ---------------------------------------------------------------------
      1          6           0       -2.477206    1.680266   -0.283923
      2          6           0       -1.781658    0.440678   -0.154658
      3          6           0       -2.572024   -0.739612    0.005047
      4          6           0       -3.948029   -0.669765    0.031922
      5          6           0       -4.609937    0.572043   -0.110308
      6          6           0       -3.861244    1.745465   -0.268719
      7          1           0       -1.900093    2.586692   -0.400806
      8          1           0       -2.086150   -1.698350    0.151732
      9          1           0       -4.354546    2.707184   -0.383847
     10          6           0       -4.958993   -1.803932    0.211010
     11          6           0       -6.278355   -1.035320    0.138015
     12          6           0       -7.576816   -1.521428    0.230867
     13          6           0       -8.649127   -0.625504    0.137113
     14          6           0       -8.421473    0.743700   -0.047363
     15          6           0       -7.121404    1.240230   -0.141345
     16          6           0       -6.049430    0.345727   -0.048420
     17          1           0       -7.767194   -2.582416    0.374775
     18          1           0       -9.667995   -0.996539    0.208471
     19          1           0       -9.265268    1.424735   -0.117812
     20          1           0       -6.947985    2.303598   -0.284393
     21          6           0       -4.789494   -2.499333    1.580708
     22          1           0       -5.562634   -3.262831    1.725109
     23          1           0       -3.813143   -2.993291    1.645908
     24          1           0       -4.862987   -1.778482    2.401105
     25          6           0       -4.849149   -2.844113   -0.926289
     26          1           0       -3.874003   -3.344186   -0.900365
     27          1           0       -5.623239   -3.613340   -0.823576
     28          1           0       -4.964919   -2.371189   -1.906677
     29          6           0       -0.339561    0.354753   -0.196128
     30          6           0        0.563319    1.464166    0.001221
     31          6           0        0.305528   -0.921932   -0.465441
     32          6           0        2.020228    1.278210   -0.044568
     33          6           0        1.653599   -1.090336   -0.508586
     34          1           0       -0.323968   -1.768846   -0.709828
     35          6           0        2.603509   -0.015376   -0.287941
     36          1           0        2.041805   -2.063942   -0.783150
     37          7           0        0.196115    2.711894    0.281160
     38          7           0        2.709497    2.391207    0.198827
     39         16           0        1.598252    3.627879    0.462968
     40          6           0        4.030938   -0.281767   -0.333510
     41          6           0        4.993834    0.736427   -0.558094
     42          6           0        4.527943   -1.602074   -0.166247
     43          6           0        6.348132    0.441253   -0.622011
     44          1           0        4.658996    1.756402   -0.688621
     45          6           0        5.885174   -1.879746   -0.219572
     46          1           0        3.843288   -2.415450    0.047626
     47          6           0        6.829318   -0.866855   -0.453822
     48          1           0        7.054497    1.245956   -0.815316
     49          1           0        6.225773   -2.902714   -0.074943
     50          6           0        8.307870   -1.170251   -0.474645
     51          1           0        8.491278   -2.183493   -0.849798
     52          1           0        8.818397   -0.478943   -1.159577
     53          6           0        8.956643   -1.055344    0.917769
     54          1           0        8.764226   -0.043950    1.318713
     55          1           0        8.463288   -1.759583    1.598706
     56          7           0       10.375103   -1.419130    0.844716
     57          1           0       10.882321   -0.711081    0.314264
     58          1           0       10.780416   -1.411165    1.779392
 ---------------------------------------------------------------------
 Rotational constants (GHZ):           0.3502348           0.0397118           0.0363096
 Leave Link  202 at Thu Mar 14 09:23:41 2024, MaxMem= 32212254720 cpu:               0.0 elap:               0.0
 (Enter /home/<user>/g16/l301.exe)
 Standard basis: 6-31G(d) (6D, 7F)
 Ernie: Thresh=  0.10000D-02 Tol=  0.10000D-05 Strict=F.
 There are   549 symmetry adapted cartesian basis functions of A   symmetry.
 There are   549 symmetry adapted basis functions of A   symmetry.
   549 basis functions,  1048 primitive gaussians,   549 cartesian basis functions
   119 alpha electrons      117 beta electrons
       nuclear repulsion energy      3072.5134680249 Hartrees.
 IExCor=  402 DFT=T Ex+Corr=B3LYP ExCW=0 ScaHFX=  0.200000
 ScaDFX=  0.800000  0.720000  1.000000  0.810000 ScalE2=  1.000000  1.000000
 IRadAn=      5 IRanWt=     -1 IRanGd=            0 ICorTp=0 IEmpDi=  4
 NAtoms=   58 NActive=   58 NUniq=   58 SFac= 1.00D+00 NAtFMM=   60 NAOKFM=F Big=F
 Integral buffers will be    131072 words long.
 Raffenetti 2 integral format.
 Two-electron integral symmetry is turned on.
 Leave Link  301 at Thu Mar 14 09:23:41 2024, MaxMem= 32212254720 cpu:               0.8 elap:               0.0
 (Enter /home/<user>/g16/l302.exe)
 NPDir=0 NMtPBC=     1 NCelOv=     1 NCel=       1 NClECP=     1 NCelD=      1
         NCelK=      1 NCelE2=     1 NClLst=     1 CellRange=     0.0.
 One-electron integrals computed using PRISM.
 One-electron integral symmetry used in STVInt
 NBasis=   549 RedAO= T EigKep=  2.74D-04  NBF=   549
 NBsUse=   549 1.00D-06 EigRej= -1.00D+00 NBFU=   549
 Precomputing XC quadrature grid using
 IXCGrd= 4 IRadAn=           5 IRanWt=          -1 IRanGd=           0 AccXCQ= 0.00D+00.
 Generated NRdTot=       0 NPtTot=           0 NUsed=           0 NTot=          32
 NSgBfM=   512   512   512   512   512 MxSgAt=    58 MxSgA2=    58.
 Leave Link  302 at Thu Mar 14 09:23:42 2024, MaxMem= 32212254720 cpu:              12.4 elap:               0.4
 (Enter /home/<user>/g16/l303.exe)
 DipDrv:  MaxL=1.
 Leave Link  303 at Thu Mar 14 09:23:42 2024, MaxMem= 32212254720 cpu:               1.3 elap:               0.0
 (Enter /home/<user>/g16/l401.exe)
 Initial guess from the checkpoint file:  "FBTP_T1opt.chk"
 B after Tr=    -0.000000    0.000000   -0.000000
         Rot=    0.999996   -0.002899   -0.000065   -0.000047 Ang=  -0.33 deg.
 Guess basis will be translated and rotated to current coordinates.
 JPrj=2 DoOrth=T DoCkMO=T.
 Initial guess <Sx>= 0.0000 <Sy>= 0.0000 <Sz>= 1.0000 <S**2>= 2.0364 S= 1.0121
 Generating alternative initial guess.
 ExpMin= 1.17D-01 ExpMax= 2.19D+04 ExpMxC= 3.30D+03 IAcc=3 IRadAn=         5 AccDes= 0.00D+00
 Harris functional with IExCor=  402 and IRadAn=       5 diagonalized for initial guess.
 HarFok:  IExCor=  402 AccDes= 0.00D+00 IRadAn=         5 IDoV= 1 UseB2=F ITyADJ=14
 ICtDFT=  3500011 ScaDFX=  1.000000  1.000000  1.000000  1.000000
 FoFCou: FMM=F IPFlag=           0 FMFlag=      100000 FMFlg1=           0
         NFxFlg=           0 DoJE=T BraDBF=F KetDBF=T FulRan=T
         wScrn=  0.000000 ICntrl=       500 IOpCl=  0 I1Cent=   200000004 NGrid=           0
         NMat0=    1 NMatS0=      1 NMatT0=    0 NMatD0=    1 NMtDS0=    0 NMtDT0=    0
 Petite list used in FoFCou.
 Harris En= -1682.50307953248    
 Leave Link  401 at Thu Mar 14 09:23:43 2024, MaxMem= 32212254720 cpu:              46.1 elap:               1.5
 (Enter /home/<user>/g16/l502.exe)
 Integral symmetry usage will be decided dynamically.
 UHF open shell SCF:
 Using DIIS extrapolation, IDIIS=  1040.
 NGot= 32212254720 LenX= 32211628124 LenY= 32211326174
 Requested convergence on RMS density matrix=1.00D-08 within 128 cycles.
 Requested convergence on MAX density matrix=1.00D-06.
 Requested convergence on             energy=1.00D-06.
 No special actions if energy rises.
 Fock matrices will be formed incrementally for  20 cycles.
 Integral accuracy reduced to 1.0D-05 until final iterations.

 Cycle   1  Pass 0  IDiag  1:
 FoFJK:  IHMeth= 1 ICntrl=       0 DoSepK=F KAlg= 0 I1Cent=           0 FoldK=F
 IRaf= 550000000 NMat=       1 IRICut=       1 DoRegI=T DoRafI=F ISym2E= 0 IDoP0=0 IntGTp=1.
 FoFCou: FMM=F IPFlag=           0 FMFlag=      100000 FMFlg1=           0
         NFxFlg=           0 DoJE=F BraDBF=F KetDBF=F FulRan=T
         wScrn=  0.000000 ICntrl=         0 IOpCl=  1 I1Cent=           0 NGrid=           0
         NMat0=    1 NMatS0=      1 NMatT0=    0 NMatD0=    1 NMtDS0=    0 NMtDT0=    0
 Symmetry not used in FoFCou.
 E= -1682.53918577112    
 DIIS: error= 1.30D-03 at cycle   1 NSaved=   1.
 NSaved= 1 IEnMin= 1 EnMin= -1682.53918577112     IErMin= 1 ErrMin= 1.30D-03
 ErrMax= 1.30D-03  0.00D+00 EMaxC= 1.00D-01 BMatC= 8.62D-03 BMatP= 8.62D-03
 IDIUse=3 WtCom= 9.87D-01 WtEn= 1.30D-02
 Coeff-Com:  0.100D+01
 Coeff-En:   0.100D+01
 Coeff:      0.100D+01
 Gap=     1.903 Goal=   None    Shift=    0.000
 Gap=     1.983 Goal=   None    Shift=    0.000
 GapD=    1.903 DampG=2.000 DampE=1.000 DampFc=2.0000 IDamp=-1.
 RMSDP=1.76D-04 MaxDP=5.39D-03              OVMax= 1.02D-02

 Cycle   2  Pass 0  IDiag  1:
 RMSU=  1.76D-04    CP:  1.00D+00
 E= -1682.54375341033     Delta-E=       -0.004567639210 Rises=F Damp=F
 DIIS: error= 1.76D-04 at cycle   2 NSaved=   2.
 NSaved= 2 IEnMin= 2 EnMin= -1682.54375341033     IErMin= 2 ErrMin= 1.76D-04
 ErrMax= 1.76D-04  0.00D+00 EMaxC= 1.00D-01 BMatC= 1.43D-04 BMatP= 8.62D-03
 IDIUse=3 WtCom= 9.98D-01 WtEn= 1.76D-03
 Coeff-Com: -0.723D-01 0.107D+01
 Coeff-En:   0.000D+00 0.100D+01
 Coeff:     -0.722D-01 0.107D+01
 Gap=     0.092 Goal=   None    Shift=    0.000
 Gap=     0.080 Goal=   None    Shift=    0.000
 RMSDP=3.13D-05 MaxDP=2.01D-03 DE=-4.57D-03 OVMax= 5.31D-03

 Cycle   3  Pass 0  IDiag  1:
 RMSU=  2.92D-05    CP:  1.00D+00  1.06D+00
 E= -1682.54379092682     Delta-E=       -0.000037516495 Rises=F Damp=F
 DIIS: error= 2.73D-04 at cycle   3 NSaved=   3.
 NSaved= 3 IEnMin= 3 EnMin= -1682.54379092682     IErMin= 2 ErrMin= 1.76D-04
 ErrMax= 2.73D-04  0.00D+00 EMaxC= 1.00D-01 BMatC= 1.64D-04 BMatP= 1.43D-04
 IDIUse=3 WtCom= 3.77D-01 WtEn= 6.23D-01
 Coeff-Com: -0.493D-01 0.612D+00 0.437D+00
 Coeff-En:   0.000D+00 0.103D+00 0.897D+00
 Coeff:     -0.186D-01 0.295D+00 0.723D+00
 Gap=     0.092 Goal=   None    Shift=    0.000
 Gap=     0.080 Goal=   None    Shift=    0.000
 RMSDP=3.01D-05 MaxDP=2.78D-03 DE=-3.75D-05 OVMax= 5.43D-03

 Cycle   4  Pass 0  IDiag  1:
 RMSU=  2.05D-05    CP:  1.00D+00  1.08D+00  2.58D-01
 E= -1682.54376766820     Delta-E=        0.000023258623 Rises=F Damp=F
 DIIS: error= 3.58D-04 at cycle   4 NSaved=   4.
 NSaved= 4 IEnMin= 3 EnMin= -1682.54379092682     IErMin= 2 ErrMin= 1.76D-04
 ErrMax= 3.58D-04  0.00D+00 EMaxC= 1.00D-01 BMatC= 2.57D-04 BMatP= 1.43D-04
 IDIUse=3 WtCom= 3.46D-01 WtEn= 6.54D-01
 Coeff-Com: -0.179D-01 0.199D+00 0.501D+00 0.318D+00
 Coeff-En:   0.000D+00 0.000D+00 0.587D+00 0.413D+00
 Coeff:     -0.620D-02 0.689D-01 0.558D+00 0.380D+00
 Gap=     0.092 Goal=   None    Shift=    0.000
 Gap=     0.080 Goal=   None    Shift=    0.000
 RMSDP=1.80D-05 MaxDP=2.00D-03 DE= 2.33D-05 OVMax= 5.02D-03

 Cycle   5  Pass 0  IDiag  1:
 RMSU=  7.11D-06    CP:  1.00D+00  1.08D+00  6.30D-01  3.94D-01
 E= -1682.54382936309     Delta-E=       -0.000061694893 Rises=F Damp=F
 DIIS: error= 4.01D-05 at cycle   5 NSaved=   5.
 NSaved= 5 IEnMin= 5 EnMin= -1682.54382936309     IErMin= 5 ErrMin= 4.01D-05
 ErrMax= 4.01D-05  0.00D+00 EMaxC= 1.00D-01 BMatC= 6.24D-06 BMatP= 1.43D-04
 IDIUse=1 WtCom= 1.00D+00 WtEn= 0.00D+00
 Coeff-Com: -0.339D-02 0.240D-01 0.304D+00 0.224D+00 0.451D+00
 Coeff:     -0.339D-02 0.240D-01 0.304D+00 0.224D+00 0.451D+00
 Gap=     0.092 Goal=   None    Shift=    0.000
 Gap=     0.080 Goal=   None    Shift=    0.000
 RMSDP=3.51D-06 MaxDP=2.34D-04 DE=-6.17D-05 OVMax= 5.10D-04

 Initial convergence to 1.0D-05 achieved.  Increase integral accuracy.
 Cycle   6  Pass 1  IDiag  1:
 E= -1682.54387235656     Delta-E=       -0.000042993472 Rises=F Damp=F
 DIIS: error= 1.12D-04 at cycle   1 NSaved=   1.
 NSaved= 1 IEnMin= 1 EnMin= -1682.54387235656     IErMin= 1 ErrMin= 1.12D-04
 ErrMax= 1.12D-04  0.00D+00 EMaxC= 1.00D-01 BMatC= 1.18D-05 BMatP= 1.18D-05
 IDIUse=3 WtCom= 9.99D-01 WtEn= 1.12D-03
 Coeff-Com:  0.100D+01
 Coeff-En:   0.100D+01
 Coeff:      0.100D+01
 Gap=     0.092 Goal=   None    Shift=    0.000
 Gap=     0.080 Goal=   None    Shift=    0.000
 RMSDP=3.51D-06 MaxDP=2.34D-04 DE=-4.30D-05 OVMax= 7.42D-04

 Cycle   7  Pass 1  IDiag  1:
 RMSU=  6.84D-05    CP:  1.00D+00
 E= -1682.54387429992     Delta-E=       -0.000001943354 Rises=F Damp=F
 DIIS: error= 2.48D-05 at cycle   2 NSaved=   2.
 NSaved= 2 IEnMin= 2 EnMin= -1682.54387429992     IErMin= 2 ErrMin= 2.48D-05
 ErrMax= 2.48D-05  0.00D+00 EMaxC= 1.00D-01 BMatC= 2.48D-06 BMatP= 1.18D-05
 IDIUse=1 WtCom= 1.00D+00 WtEn= 0.00D+00
 Coeff-Com:  0.210D+00 0.790D+00
 Coeff:      0.210D+00 0.790D+00
 Gap=     0.092 Goal=   None    Shift=    0.000
 Gap=     0.080 Goal=   None    Shift=    0.000
 RMSDP=4.78D-06 MaxDP=2.22D-04 DE=-1.94D-06 OVMax= 6.65D-04

 Cycle   8  Pass 1  IDiag  1:
 RMSU=  4.74D-06    CP:  1.00D+00  1.01D+00
 E= -1682.54387304785     Delta-E=        0.000001252069 Rises=F Damp=F
 DIIS: error= 4.70D-05 at cycle   3 NSaved=   3.
 NSaved= 3 IEnMin= 2 EnMin= -1682.54387429992     IErMin= 2 ErrMin= 2.48D-05
 ErrMax= 4.70D-05  0.00D+00 EMaxC= 1.00D-01 BMatC= 7.00D-06 BMatP= 2.48D-06
 IDIUse=1 WtCom= 1.00D+00 WtEn= 0.00D+00
 Coeff-Com:  0.431D-03 0.629D+00 0.371D+00
 Coeff:      0.431D-03 0.629D+00 0.371D+00
 Gap=     0.092 Goal=   None    Shift=    0.000
 Gap=     0.080 Goal=   None    Shift=    0.000
 RMSDP=3.16D-06 MaxDP=2.17D-04 DE= 1.25D-06 OVMax= 5.29D-04

 Cycle   9  Pass 1  IDiag  1:
 RMSU=  9.83D-07    CP:  1.00D+00  1.01D+00  3.68D-01
 E= -1682.54387505471     Delta-E=       -0.000002006856 Rises=F Damp=F
 DIIS: error= 7.63D-06 at cycle   4 NSaved=   4.
 NSaved= 4 IEnMin= 4 EnMin= -1682.54387505471     IErMin= 4 ErrMin= 7.63D-06
 ErrMax= 7.63D-06  0.00D+00 EMaxC= 1.00D-01 BMatC= 1.47D-07 BMatP= 2.48D-06
 IDIUse=1 WtCom= 1.00D+00 WtEn= 0.00D+00
 Coeff-Com: -0.544D-02 0.379D+00 0.238D+00 0.388D+00
 Coeff:     -0.544D-02 0.379D+00 0.238D+00 0.388D+00
 Gap=     0.092 Goal=   None    Shift=    0.000
 Gap=     0.080 Goal=   None    Shift=    0.000
 RMSDP=4.69D-07 MaxDP=4.42D-05 DE=-2.01D-06 OVMax= 6.55D-05

 Cycle  10  Pass 1  IDiag  1:
 RMSU=  4.38D-07    CP:  1.00D+00  1.01D+00  3.87D-01  8.57D-01
 E= -1682.54387509903     Delta-E=       -0.000000044322 Rises=F Damp=F
 DIIS: error= 2.71D-06 at cycle   5 NSaved=   5.
 NSaved= 5 IEnMin= 5 EnMin= -1682.54387509903     IErMin= 5 ErrMin= 2.71D-06
 ErrMax= 2.71D-06  0.00D+00 EMaxC= 1.00D-01 BMatC= 1.39D-08 BMatP= 1.47D-07
 IDIUse=1 WtCom= 1.00D+00 WtEn= 0.00D+00
 Coeff-Com: -0.130D-02-0.989D-01-0.469D-01 0.751D-01 0.107D+01
 Coeff:     -0.130D-02-0.989D-01-0.469D-01 0.751D-01 0.107D+01
 Gap=     0.092 Goal=   None    Shift=    0.000
 Gap=     0.080 Goal=   None    Shift=    0.000
 RMSDP=5.11D-07 MaxDP=4.88D-05 DE=-4.43D-08 OVMax= 1.96D-04

 Cycle  11  Pass 1  IDiag  1:
 RMSU=  2.65D-07    CP:  1.00D+00  1.01D+00  3.98D-01  1.23D+00  1.53D+00
 E= -1682.54387512077     Delta-E=       -0.000000021747 Rises=F Damp=F
 DIIS: error= 2.86D-06 at cycle   6 NSaved=   6.
 NSaved= 6 IEnMin= 6 EnMin= -1682.54387512077     IErMin= 5 ErrMin= 2.71D-06
 ErrMax= 2.86D-06  0.00D+00 EMaxC= 1.00D-01 BMatC= 1.14D-08 BMatP= 1.39D-08
 IDIUse=1 WtCom= 1.00D+00 WtEn= 0.00D+00
 Coeff-Com:  0.248D-02-0.333D+00-0.194D+00-0.194D+00 0.917D+00 0.802D+00
 Coeff:      0.248D-02-0.333D+00-0.194D+00-0.194D+00 0.917D+00 0.802D+00
 Gap=     0.092 Goal=   None    Shift=    0.000
 Gap=     0.080 Goal=   None    Shift=    0.000
 RMSDP=4.88D-07 MaxDP=4.68D-05 DE=-2.17D-08 OVMax= 1.58D-04

 Cycle  12  Pass 1  IDiag  1:
 RMSU=  1.63D-07    CP:  1.00D+00  1.01D+00  4.07D-01  1.58D+00  2.22D+00
                    CP:  1.05D+00
 E= -1682.54387513297     Delta-E=       -0.000000012198 Rises=F Damp=F
 DIIS: error= 1.29D-06 at cycle   7 NSaved=   7.
 NSaved= 7 IEnMin= 7 EnMin= -1682.54387513297     IErMin= 7 ErrMin= 1.29D-06
 ErrMax= 1.29D-06  0.00D+00 EMaxC= 1.00D-01 BMatC= 3.46D-09 BMatP= 1.14D-08
 IDIUse=1 WtCom= 1.00D+00 WtEn= 0.00D+00
 Coeff-Com:  0.203D-02-0.210D+00-0.125D+00-0.150D+00 0.405D+00 0.560D+00
 Coeff-Com:  0.518D+00
 Coeff:      0.203D-02-0.210D+00-0.125D+00-0.150D+00 0.405D+00 0.560D+00
 Coeff:      0.518D+00
 Gap=     0.092 Goal=   None    Shift=    0.000
 Gap=     0.080 Goal=   None    Shift=    0.000
 RMSDP=1.53D-07 MaxDP=1.26D-05 DE=-1.22D-08 OVMax= 5.19D-05

 Cycle  13  Pass 1  IDiag  1:
 RMSU=  7.12D-08    CP:  1.00D+00  1.01D+00  4.10D-01  1.68D+00  2.39D+00
                    CP:  1.20D+00  7.61D-01
 E= -1682.54387513450     Delta-E=       -0.000000001530 Rises=F Damp=F
 DIIS: error= 5.00D-07 at cycle   8 NSaved=   8.
 NSaved= 8 IEnMin= 8 EnMin= -1682.54387513450     IErMin= 8 ErrMin= 5.00D-07
 ErrMax= 5.00D-07  0.00D+00 EMaxC= 1.00D-01 BMatC= 4.95D-10 BMatP= 3.46D-09
 IDIUse=1 WtCom= 1.00D+00 WtEn= 0.00D+00
 Coeff-Com:  0.971D-03-0.916D-01-0.551D-01-0.692D-01 0.153D+00 0.257D+00
 Coeff-Com:  0.320D+00 0.485D+00
 Coeff:      0.971D-03-0.916D-01-0.551D-01-0.692D-01 0.153D+00 0.257D+00
 Coeff:      0.320D+00 0.485D+00
 Gap=     0.092 Goal=   None    Shift=    0.000
 Gap=     0.080 Goal=   None    Shift=    0.000
 RMSDP=3.59D-08 MaxDP=2.35D-06 DE=-1.53D-09 OVMax= 6.09D-06

 Cycle  14  Pass 1  IDiag  1:
 RMSU=  3.13D-08    CP:  1.00D+00  1.01D+00  4.09D-01  1.69D+00  2.40D+00
                    CP:  1.21D+00  8.35D-01  8.74D-01
 E= -1682.54387513468     Delta-E=       -0.000000000173 Rises=F Damp=F
 DIIS: error= 2.00D-07 at cycle   9 NSaved=   9.
 NSaved= 9 IEnMin= 9 EnMin= -1682.54387513468     IErMin= 9 ErrMin= 2.00D-07
 ErrMax= 2.00D-07  0.00D+00 EMaxC= 1.00D-01 BMatC= 1.12D-10 BMatP= 4.95D-10
 IDIUse=1 WtCom= 1.00D+00 WtEn= 0.00D+00
 Coeff-Com: -0.487D-03 0.557D-01 0.324D-01 0.380D-01-0.122D+00-0.148D+00
 Coeff-Com: -0.924D-01 0.279D+00 0.958D+00
 Coeff:     -0.487D-03 0.557D-01 0.324D-01 0.380D-01-0.122D+00-0.148D+00
 Coeff:     -0.924D-01 0.279D+00 0.958D+00
 Gap=     0.092 Goal=   None    Shift=    0.000
 Gap=     0.080 Goal=   None    Shift=    0.000
 RMSDP=3.40D-08 MaxDP=2.66D-06 DE=-1.73D-10 OVMax= 6.84D-06

 Cycle  15  Pass 1  IDiag  1:
 RMSU=  2.60D-08    CP:  1.00D+00  1.01D+00  4.09D-01  1.69D+00  2.40D+00
                    CP:  1.23D+00  9.08D-01  1.11D+00  1.14D+00
 E= -1682.54387513484     Delta-E=       -0.000000000164 Rises=F Damp=F
 DIIS: error= 2.11D-07 at cycle  10 NSaved=  10.
 NSaved=10 IEnMin=10 EnMin= -1682.54387513484     IErMin= 9 ErrMin= 2.00D-07
 ErrMax= 2.11D-07  0.00D+00 EMaxC= 1.00D-01 BMatC= 5.26D-11 BMatP= 1.12D-10
 IDIUse=1 WtCom= 1.00D+00 WtEn= 0.00D+00
 Coeff-Com: -0.567D-03 0.598D-01 0.352D-01 0.426D-01-0.118D+00-0.161D+00
 Coeff-Com: -0.140D+00 0.559D-01 0.624D+00 0.603D+00
 Coeff:     -0.567D-03 0.598D-01 0.352D-01 0.426D-01-0.118D+00-0.161D+00
 Coeff:     -0.140D+00 0.559D-01 0.624D+00 0.603D+00
 Gap=     0.092 Goal=   None    Shift=    0.000
 Gap=     0.080 Goal=   None    Shift=    0.000
 RMSDP=1.64D-08 MaxDP=1.60D-06 DE=-1.64D-10 OVMax= 3.82D-06

 Cycle  16  Pass 1  IDiag  1:
 RMSU=  1.19D-08    CP:  1.00D+00  1.01D+00  4.09D-01  1.69D+00  2.40D+00
                    CP:  1.23D+00  9.18D-01  1.20D+00  1.41D+00  1.12D+00
 E= -1682.54387513493     Delta-E=       -0.000000000087 Rises=F Damp=F
 DIIS: error= 8.31D-08 at cycle  11 NSaved=  11.
 NSaved=11 IEnMin=11 EnMin= -1682.54387513493     IErMin=11 ErrMin= 8.31D-08
 ErrMax= 8.31D-08  0.00D+00 EMaxC= 1.00D-01 BMatC= 1.60D-11 BMatP= 5.26D-11
 IDIUse=1 WtCom= 1.00D+00 WtEn= 0.00D+00
 Coeff-Com: -0.203D-03 0.200D-01 0.119D-01 0.146D-01-0.351D-01-0.546D-01
 Coeff-Com: -0.624D-01-0.684D-01 0.775D-01 0.410D+00 0.687D+00
 Coeff:     -0.203D-03 0.200D-01 0.119D-01 0.146D-01-0.351D-01-0.546D-01
 Coeff:     -0.624D-01-0.684D-01 0.775D-01 0.410D+00 0.687D+00
 Gap=     0.092 Goal=   None    Shift=    0.000
 Gap=     0.080 Goal=   None    Shift=    0.000
 RMSDP=1.08D-08 MaxDP=1.13D-06 DE=-8.73D-11 OVMax= 2.86D-06

 Cycle  17  Pass 1  IDiag  1:
 RMSU=  6.00D-09    CP:  1.00D+00  1.01D+00  4.09D-01  1.69D+00  2.40D+00
                    CP:  1.23D+00  9.37D-01  1.26D+00  1.52D+00  1.36D+00
                    CP:  9.45D-01
 E= -1682.54387513489     Delta-E=        0.000000000038 Rises=F Damp=F
 DIIS: error= 3.39D-08 at cycle  12 NSaved=  12.
 NSaved=12 IEnMin=11 EnMin= -1682.54387513493     IErMin=12 ErrMin= 3.39D-08
 ErrMax= 3.39D-08  0.00D+00 EMaxC= 1.00D-01 BMatC= 3.67D-12 BMatP= 1.60D-11
 IDIUse=1 WtCom= 1.00D+00 WtEn= 0.00D+00
 Coeff-Com:  0.624D-04-0.742D-02-0.433D-02-0.524D-02 0.170D-01 0.203D-01
 Coeff-Com:  0.960D-02-0.545D-01-0.153D+00 0.412D-01 0.393D+00 0.743D+00
 Coeff:      0.624D-04-0.742D-02-0.433D-02-0.524D-02 0.170D-01 0.203D-01
 Coeff:      0.960D-02-0.545D-01-0.153D+00 0.412D-01 0.393D+00 0.743D+00
 Gap=     0.092 Goal=   None    Shift=    0.000
 Gap=     0.080 Goal=   None    Shift=    0.000
 RMSDP=5.37D-09 MaxDP=5.34D-07 DE= 3.82D-11 OVMax= 1.08D-06

 SCF Done:  E(UB3LYP) =  -1682.54387513     A.U. after   17 cycles
            NFock= 17  Conv=0.54D-08     -V/T= 2.0082
 <Sx>= 0.0000 <Sy>= 0.0000 <Sz>= 1.0000 <S**2>= 2.0367 S= 1.0122
 <L.S>= 0.000000000000E+00
 KE= 1.668867987896D+03 PE=-1.006698807472D+04 EE= 3.643062743667D+03
 Annihilation of the first spin contaminant:
 S**2 before annihilation     2.0367,   after     2.0009
 Leave Link  502 at Thu Mar 14 09:24:25 2024, MaxMem= 32212254720 cpu:            1243.4 elap:              41.5
 (Enter /home/<user>/g16/l701.exe)
 ... and contract with generalized density number  0.
 Compute integral first derivatives.
 Leave Link  701 at Thu Mar 14 09:24:25 2024, MaxMem= 32212254720 cpu:               4.9 elap:               0.2
 (Enter /home/<user>/g16/l702.exe)
 L702 exits ... SP integral derivatives will be done elsewhere.
 Leave Link  702 at Thu Mar 14 09:24:25 2024, MaxMem= 32212254720 cpu:               0.7 elap:               0.0
 (Enter /home/<user>/g16/l703.exe)
 Integral derivatives from FoFJK, PRISM(SPDF).
 Compute integral first derivatives, UseDBF=F ICtDFT=           0.
 Calling FoFJK, ICntrl=      2127 FMM=F ISym2X=0 I1Cent= 0 IOpClX= 1 NMat=1 NMatS=1 NMatT=0.
 FoFJK:  IHMeth= 1 ICntrl=    2127 DoSepK=F KAlg= 0 I1Cent=           0 FoldK=F
 IRaf=         0 NMat=       1 IRICut=       1 DoRegI=T DoRafI=F ISym2E= 0 IDoP0=0 IntGTp=1.
 FoFCou: FMM=F IPFlag=           0 FMFlag=      100000 FMFlg1=         800
         NFxFlg=           0 DoJE=F BraDBF=F KetDBF=F FulRan=T
         wScrn=  0.000000 ICntrl=      2127 IOpCl=  1 I1Cent=           0 NGrid=           0
         NMat0=    1 NMatS0=      1 NMatT0=    0 NMatD0=    1 NMtDS0=    0 NMtDT0=    0
 Symmetry not used in FoFCou.
 Leave Link  703 at Thu Mar 14 09:24:32 2024, MaxMem= 32212254720 cpu:             191.6 elap:               6.4
 (Enter /home/<user>/g16/l716.exe)
 Dipole        =-4.64165673D-01-9.86717440D-01 1.65254977D-02
 ***** Axes restored to original set *****
 -------------------------------------------------------------------
 Center     Atomic                   Forces (Hartrees/Bohr)
 Number     Number              X              Y              Z
 -------------------------------------------------------------------
      1        6          -0.000045602    0.000172574    0.000174081
      2        6           0.000426471    0.000183543   -0.000003408
      3        6          -0.000169127   -0.000272805    0.000167032
      4        6           0.000185552    0.000016909   -0.000083766
      5        6          -0.000443835    0.000041702    0.000081251
      6        6           0.000167705    0.000060711   -0.000135128
      7        1           0.000225645    0.000097801    0.000031990
      8        1          -0.000294870    0.000111490    0.000067297
      9        1           0.000047412    0.000032797    0.000054336
     10        6           0.000009345   -0.000070068    0.000102600
     11        6          -0.000049937   -0.000065561    0.000009177
     12        6           0.000030215   -0.000000940   -0.000013989
     13        6          -0.000036044   -0.000002651    0.000001000
     14        6           0.000001681    0.000011412   -0.000002393
     15        6          -0.000045228    0.000019450   -0.000003587
     16        6           0.000169671   -0.000012563   -0.000056176
     17        1           0.000002442    0.000004087   -0.000002606
     18        1          -0.000004292    0.000001525    0.000005124
     19        1           0.000003569   -0.000002595    0.000002884
     20        1           0.000007576   -0.000008834    0.000000579
     21        6          -0.000014469    0.000013485   -0.000028714
     22        1           0.000007665   -0.000002898   -0.000005104
     23        1          -0.000000399   -0.000012064    0.000008337
     24        1          -0.000000673   -0.000005427    0.000000203
     25        6           0.000000391    0.000051332    0.000012767
     26        1           0.000000358    0.000009121   -0.000001363
     27        1          -0.000004309    0.000014181    0.000008205
     28        1           0.000002698   -0.000004639   -0.000005182
     29        6          -0.000003269   -0.001581225   -0.000167046
     30        6           0.000157909    0.001126223    0.000410876
     31        6          -0.000199420    0.000980585    0.000018070
     32        6           0.000113340    0.000947791    0.000133477
     33        6           0.000722577    0.001038627    0.000106750
     34        1           0.000680898   -0.000222700   -0.000181686
     35        6          -0.000427310   -0.001714307   -0.000329801
     36        1          -0.000501985   -0.000215619   -0.000053683
     37        7           0.000779286    0.000660549   -0.000383283
     38        7          -0.001101051    0.001144693   -0.000039751
     39       16          -0.000427922   -0.002735705   -0.000114229
     40        6          -0.000219547    0.000268432    0.000290840
     41        6           0.000195723    0.000147167   -0.000078460
     42        6          -0.000110748   -0.000048628   -0.000001688
     43        6          -0.000015129   -0.000054607   -0.000024347
     44        1          -0.000000723   -0.000074366   -0.000001935
     45        6           0.000001481    0.000034965    0.000033046
     46        1           0.000046381   -0.000048530   -0.000006209
     47        6           0.000217632   -0.000037544   -0.000020374
     48        1          -0.000019284    0.000036275    0.000034129
     49        1          -0.000018059   -0.000028259   -0.000001125
     50        6          -0.000091211    0.000010098   -0.000017406
     51        1           0.000003661   -0.000006015    0.000007654
     52        1           0.000009624   -0.000007173    0.000001099
     53        6           0.000010828   -0.000018716   -0.000006936
     54        1          -0.000002937    0.000001938   -0.000001116
     55        1          -0.000000507    0.000006988   -0.000002144
     56        7           0.000012892    0.000021436    0.000000995
     57        1           0.000001118   -0.000002431    0.000008204
     58        1           0.000006139   -0.000011017    0.000000635
 -------------------------------------------------------------------
 Cartesian Forces:  Max     0.002735705 RMS     0.000373807
 Leave Link  716 at Thu Mar 14 09:24:32 2024, MaxMem= 32212254720 cpu:               0.7 elap:               0.0
 (Enter /home/<user>/g16/l103.exe)

 GradGradGradGradGradGradGradGradGradGradGradGradGradGradGradGradGradGrad
 Berny optimization.
 Using GEDIIS/GDIIS optimizer.
 FormGI is forming the generalized inverse of G from B-inverse, IUseBI=4.
 GSVD:  received Info=                   1 from GESDD.
 Internal  Forces:  Max     0.001933304 RMS     0.000264409
 Search for a local minimum.
 Step number   5 out of a maximum of  346
 All quantities printed in internal units (Hartrees-Bohrs-Radians)
 RMS Force = .26441D-03 SwitMx=.10000D-02 MixMth= 2
 Mixed Optimization -- En-DIIS/RFO-DIIS
 Swapping is turned off.
 Update second derivatives using D2CorX and points    3    4    5
 DE= -1.10D-04 DEPred=-1.04D-04 R= 1.06D+00
 TightC=F SS=  1.41D+00  RLast= 1.01D-01 DXNew= 1.4270D+00 3.0218D-01
 Trust test= 1.06D+00 RLast= 1.01D-01 DXMaxT set to 8.49D-01
 ITU=  1  1  1  1  0
     Eigenvalues ---    0.00230   0.00230   0.00250   0.00556   0.00612
     Eigenvalues ---    0.00755   0.00811   0.01031   0.01254   0.01454
     Eigenvalues ---    0.01466   0.01602   0.01616   0.01631   0.01640
     Eigenvalues ---    0.01668   0.01706   0.01725   0.01741   0.01809
     Eigenvalues ---    0.01862   0.01886   0.02016   0.02032   0.02038
     Eigenvalues ---    0.02070   0.02087   0.02089   0.02089   0.02094
     Eigenvalues ---    0.02112   0.02115   0.02119   0.02123   0.02128
     Eigenvalues ---    0.02134   0.02142   0.02145   0.02147   0.02155
     Eigenvalues ---    0.02161   0.02162   0.02198   0.02351   0.04049
     Eigenvalues ---    0.04279   0.04390   0.04470   0.05425   0.05429
     Eigenvalues ---    0.05433   0.05499   0.05500   0.05559   0.05991
     Eigenvalues ---    0.08018   0.08960   0.09275   0.11593   0.12604
     Eigenvalues ---    0.12822   0.14739   0.15945   0.15961   0.15988
     Eigenvalues ---    0.16000   0.16000   0.16000   0.16000   0.16000
     Eigenvalues ---    0.16000   0.16000   0.16000   0.16000   0.16000
     Eigenvalues ---    0.16000   0.16000   0.16000   0.16000   0.16001
     Eigenvalues ---    0.16017   0.16085   0.18967   0.20879   0.21875
     Eigenvalues ---    0.21954   0.21998   0.22002   0.22435   0.22464
     Eigenvalues ---    0.22616   0.22938   0.23535   0.24099   0.24536
     Eigenvalues ---    0.24696   0.24798   0.24963   0.24981   0.24992
     Eigenvalues ---    0.24998   0.24998   0.25044   0.28049   0.28065
     Eigenvalues ---    0.28470   0.28609   0.29008   0.30531   0.31173
     Eigenvalues ---    0.32441   0.33128   0.33486   0.33785   0.34027
     Eigenvalues ---    0.34090   0.34100   0.34104   0.34106   0.34131
     Eigenvalues ---    0.34276   0.34289   0.34560   0.34817   0.35033
     Eigenvalues ---    0.35049   0.35084   0.35151   0.35158   0.35180
     Eigenvalues ---    0.35187   0.35189   0.35237   0.35279   0.35449
     Eigenvalues ---    0.35569   0.35776   0.36138   0.36849   0.37788
     Eigenvalues ---    0.38016   0.39069   0.40728   0.40828   0.41537
     Eigenvalues ---    0.41660   0.42111   0.42599   0.43124   0.44031
     Eigenvalues ---    0.44316   0.44365   0.44523   0.44535   0.44961
     Eigenvalues ---    0.44984   0.45660   0.45800   0.45957   0.46060
     Eigenvalues ---    0.46082   0.46854   0.46915   0.47152   0.47417
     Eigenvalues ---    0.51530   0.54561   0.59334
 En-DIIS/RFO-DIIS/Sim-DIIS IScMMF=       -3 using points:     5    4    3
 RFO step:  Lambda=-1.18890094D-04.
 NNeg= 0 NGDIIS= 3 SimSw=  2.50D-01 Rises=F DC= -1.10D-04 SmlDif=  1.00D-05
 NRisDI= 0 DoIntr=F SqrtH=F CThrHd= 10.0 CDAdj=  3.0
 RMS Error=  0.4926034722D-02 NUsed= 3 OKEnD=T EnDIS=F
 InvSVX:  RCond= 3.35D-04 Info=           0 Equed=N FErr=  1.82D-14 BErr=  3.60D-17
 DidBck=F Rises=F RFO-DIIS coefs:    1.50697   -0.32160   -0.18538
 Iteration  1 RMS(Cart)=  0.02879227 RMS(Int)=  0.00010511
 Iteration  2 RMS(Cart)=  0.00050184 RMS(Int)=  0.00000797
 Iteration  3 RMS(Cart)=  0.00000007 RMS(Int)=  0.00000797
 ITry= 1 IFail=0 DXMaxC= 2.10D-01 DCOld= 1.00D+10 DXMaxT= 8.49D-01 DXLimC= 3.00D+00 Rises=F
 Variable       Old X    -DE/DX   Delta X   Delta X   Delta X     New X
                                 (Linear)    (Quad)   (Total)
    R1        2.69713   0.00007   0.00214  -0.00075   0.00139   2.69853
    R2        2.61851  -0.00007  -0.00093   0.00017  -0.00076   2.61775
    R3        2.04259   0.00019   0.00001   0.00060   0.00060   2.04319
    R4        2.70123   0.00037   0.00189  -0.00034   0.00156   2.70279
    R5        2.73113  -0.00015  -0.00406   0.00039  -0.00366   2.72746
    R6        2.60411   0.00004  -0.00124   0.00051  -0.00073   2.60338
    R7        2.04996  -0.00021  -0.00005  -0.00021  -0.00027   2.04969
    R8        2.67277   0.00018   0.00036   0.00039   0.00075   2.67352
    R9        2.89101   0.00005   0.00040   0.00005   0.00046   2.89147
   R10        2.64734   0.00017   0.00031   0.00031   0.00062   2.64796
   R11        2.75614  -0.00010  -0.00085   0.00007  -0.00078   2.75536
   R12        2.05408  -0.00000   0.00014  -0.00004   0.00010   2.05418
   R13        2.88875   0.00002   0.00004   0.00002   0.00006   2.88881
   R14        2.92046  -0.00002   0.00012  -0.00009   0.00003   2.92049
   R15        2.91991  -0.00006  -0.00003  -0.00023  -0.00026   2.91966
   R16        2.62592  -0.00001  -0.00010   0.00001  -0.00009   2.62583
   R17        2.66877   0.00005   0.00034   0.00001   0.00036   2.66913
   R18        2.64651   0.00003   0.00003   0.00005   0.00008   2.64659
   R19        2.05507  -0.00001   0.00001  -0.00002  -0.00000   2.05507
   R20        2.64601   0.00001   0.00009  -0.00001   0.00008   2.64609
   R21        2.05351   0.00000  -0.00002   0.00001  -0.00000   2.05351
   R22        2.63585   0.00000  -0.00017   0.00006  -0.00011   2.63574
   R23        2.05343  -0.00000   0.00001  -0.00001  -0.00001   2.05343
   R24        2.64420   0.00004   0.00021  -0.00001   0.00021   2.64440
   R25        2.05389  -0.00001   0.00002  -0.00002  -0.00000   2.05389
   R26        2.07141  -0.00000   0.00001  -0.00002  -0.00001   2.07140
   R27        2.07139   0.00001   0.00002   0.00001   0.00003   2.07142
   R28        2.06843  -0.00000   0.00002  -0.00001   0.00001   2.06844
   R29        2.07152  -0.00000  -0.00001  -0.00001  -0.00003   2.07149
   R30        2.07136  -0.00001   0.00001  -0.00002  -0.00000   2.07136
   R31        2.06856   0.00000  -0.00000   0.00001   0.00001   2.06857
   R32        2.72863   0.00004   0.00334  -0.00042   0.00292   2.73156
   R33        2.75057  -0.00066   0.00059  -0.00318  -0.00258   2.74799
   R34        2.77684  -0.00015   0.00278  -0.00070   0.00207   2.77891
   R35        2.51414  -0.00059  -0.00175  -0.00063  -0.00238   2.51176
   R36        2.56858  -0.00031   0.00113  -0.00041   0.00072   2.56930
   R37        2.04689  -0.00019  -0.00012  -0.00014  -0.00026   2.04663
   R38        2.72069   0.00078   0.00221   0.00152   0.00373   2.72442
   R39        2.51631  -0.00043  -0.00148  -0.00043  -0.00191   2.51440
   R40        2.74274  -0.00089   0.00020  -0.00338  -0.00317   2.73957
   R41        2.04754   0.00003  -0.00025   0.00036   0.00010   2.04764
   R42        2.74537  -0.00001  -0.00305   0.00049  -0.00256   2.74282
   R43        3.18354  -0.00168  -0.00007  -0.00505  -0.00512   3.17842
   R44        3.18125  -0.00152  -0.00036  -0.00462  -0.00498   3.17627
   R45        2.68203   0.00020   0.00149  -0.00028   0.00121   2.68324
   R46        2.68461   0.00009   0.00157  -0.00068   0.00089   2.68550
   R47        2.62212   0.00006  -0.00065   0.00035  -0.00030   2.62182
   R48        2.04362  -0.00007   0.00007  -0.00005   0.00002   2.04363
   R49        2.61986   0.00006  -0.00081   0.00041  -0.00039   2.61946
   R50        2.04935   0.00000  -0.00023   0.00030   0.00007   2.04942
   R51        2.65301   0.00006   0.00009   0.00015   0.00024   2.65325
   R52        2.05613   0.00000   0.00011  -0.00001   0.00011   2.05623
   R53        2.65386   0.00005   0.00035   0.00010   0.00045   2.65431
   R54        2.05571   0.00002   0.00003   0.00005   0.00008   2.05580
   R55        2.85255  -0.00005  -0.00045  -0.00005  -0.00050   2.85205
   R56        2.07099   0.00000  -0.00001   0.00002   0.00001   2.07100
   R57        2.07670  -0.00000   0.00002  -0.00000   0.00002   2.07672
   R58        2.91099   0.00001   0.00014  -0.00003   0.00011   2.91111
   R59        2.08787   0.00000   0.00001   0.00001   0.00001   2.08788
   R60        2.07270  -0.00001  -0.00001  -0.00001  -0.00002   2.07268
   R61        2.77069   0.00002  -0.00010   0.00007  -0.00003   2.77066
   R62        1.92713  -0.00001  -0.00001  -0.00001  -0.00002   1.92711
   R63        1.92526   0.00000  -0.00002   0.00001  -0.00001   1.92525
    A1        2.12543   0.00014   0.00139  -0.00017   0.00122   2.12665
    A2        2.06908  -0.00022  -0.00075  -0.00064  -0.00140   2.06768
    A3        2.08866   0.00007  -0.00064   0.00082   0.00018   2.08884
    A4        2.04631  -0.00006  -0.00291   0.00124  -0.00168   2.04463
    A5        2.13566  -0.00129   0.00234  -0.00471  -0.00238   2.13329
    A6        2.10114   0.00135   0.00059   0.00352   0.00410   2.10524
    A7        2.10881  -0.00014   0.00123  -0.00117   0.00006   2.10887
    A8        2.09118   0.00030   0.00224   0.00086   0.00311   2.09429
    A9        2.08219  -0.00016  -0.00341   0.00030  -0.00311   2.07908
   A10        2.10579   0.00016   0.00109   0.00041   0.00149   2.10729
   A11        2.24536  -0.00011  -0.00107  -0.00033  -0.00139   2.24396
   A12        1.93202  -0.00005  -0.00002  -0.00009  -0.00010   1.93192
   A13        2.09057  -0.00011  -0.00151   0.00001  -0.00150   2.08907
   A14        1.89799   0.00001   0.00022  -0.00010   0.00012   1.89811
   A15        2.29461   0.00010   0.00128   0.00009   0.00137   2.29598
   A16        2.08937   0.00000   0.00075  -0.00035   0.00040   2.08976
   A17        2.08722  -0.00005  -0.00100  -0.00011  -0.00111   2.08611
   A18        2.10660   0.00005   0.00025   0.00046   0.00072   2.10731
   A19        1.76400   0.00001  -0.00037   0.00010  -0.00027   1.76373
   A20        1.94428   0.00002   0.00011   0.00031   0.00042   1.94470
   A21        1.94543  -0.00003   0.00029  -0.00033  -0.00004   1.94539
   A22        1.94252   0.00000  -0.00029   0.00016  -0.00013   1.94239
   A23        1.94410  -0.00002   0.00015  -0.00024  -0.00009   1.94400
   A24        1.91945   0.00001   0.00008   0.00001   0.00009   1.91954
   A25        2.24902   0.00000  -0.00021   0.00003  -0.00018   2.24884
   A26        1.93702   0.00000   0.00029  -0.00005   0.00024   1.93726
   A27        2.09715  -0.00000  -0.00008   0.00001  -0.00007   2.09709
   A28        2.07968   0.00002  -0.00000   0.00006   0.00006   2.07975
   A29        2.11031  -0.00001  -0.00001  -0.00005  -0.00006   2.11025
   A30        2.09319  -0.00001   0.00001  -0.00001   0.00000   2.09319
   A31        2.10586  -0.00001   0.00010  -0.00008   0.00003   2.10589
   A32        2.08872   0.00001  -0.00004   0.00005   0.00000   2.08872
   A33        2.08860   0.00000  -0.00006   0.00003  -0.00003   2.08858
   A34        2.10425   0.00000  -0.00001   0.00001   0.00000   2.10426
   A35        2.08881  -0.00000  -0.00001   0.00002   0.00000   2.08881
   A36        2.09012  -0.00000   0.00002  -0.00003  -0.00001   2.09012
   A37        2.07375   0.00001  -0.00003   0.00006   0.00003   2.07378
   A38        2.10118   0.00000   0.00008  -0.00001   0.00007   2.10125
   A39        2.10825  -0.00002  -0.00005  -0.00006  -0.00011   2.10815
   A40        1.89371   0.00003  -0.00011   0.00012   0.00001   1.89372
   A41        2.28381  -0.00001   0.00009  -0.00005   0.00005   2.28385
   A42        2.10567  -0.00002   0.00001  -0.00007  -0.00006   2.10561
   A43        1.93137  -0.00001   0.00014  -0.00009   0.00005   1.93142
   A44        1.93177   0.00001   0.00007   0.00009   0.00015   1.93192
   A45        1.93969   0.00000  -0.00004   0.00006   0.00003   1.93972
   A46        1.88235  -0.00001  -0.00010  -0.00010  -0.00020   1.88214
   A47        1.88875   0.00000  -0.00004   0.00001  -0.00003   1.88872
   A48        1.88809  -0.00001  -0.00003   0.00003  -0.00001   1.88809
   A49        1.93150  -0.00000   0.00003  -0.00004  -0.00001   1.93149
   A50        1.93184  -0.00002   0.00009  -0.00017  -0.00008   1.93176
   A51        1.93999   0.00001  -0.00005   0.00010   0.00005   1.94004
   A52        1.88164   0.00001   0.00002   0.00010   0.00011   1.88176
   A53        1.88847  -0.00000  -0.00013   0.00001  -0.00011   1.88835
   A54        1.88855   0.00000   0.00003   0.00001   0.00004   1.88859
   A55        2.18258  -0.00186   0.00584  -0.00809  -0.00224   2.18034
   A56        2.09403   0.00193  -0.00096   0.00667   0.00572   2.09975
   A57        2.00653  -0.00008  -0.00486   0.00142  -0.00349   2.00305
   A58        2.11586   0.00005   0.00154  -0.00051   0.00099   2.11685
   A59        2.18553  -0.00039   0.00052  -0.00162  -0.00108   2.18445
   A60        1.98110   0.00034  -0.00206   0.00231   0.00025   1.98135
   A61        2.15808   0.00012   0.00298  -0.00069   0.00225   2.16033
   A62        2.06007   0.00065  -0.00040   0.00493   0.00454   2.06461
   A63        2.06276  -0.00077  -0.00248  -0.00406  -0.00654   2.05622
   A64        2.11841  -0.00024   0.00215  -0.00161   0.00050   2.11891
   A65        1.98422  -0.00031  -0.00160  -0.00007  -0.00167   1.98256
   A66        2.17998   0.00055  -0.00053   0.00171   0.00121   2.18118
   A67        2.15618   0.00031   0.00256   0.00024   0.00277   2.15895
   A68        2.06544  -0.00071  -0.00241  -0.00381  -0.00621   2.05922
   A69        2.05957   0.00040  -0.00012   0.00375   0.00363   2.06320
   A70        2.01087  -0.00018  -0.00453   0.00102  -0.00355   2.00732
   A71        2.17501   0.00003   0.00392  -0.00140   0.00253   2.17754
   A72        2.09726   0.00015   0.00061   0.00041   0.00103   2.09829
   A73        1.87855  -0.00061   0.00354  -0.00436  -0.00082   1.87772
   A74        1.87655  -0.00034   0.00326  -0.00320   0.00005   1.87660
   A75        1.70424   0.00092  -0.00317   0.00540   0.00224   1.70648
   A76        2.14125   0.00027   0.00081   0.00076   0.00157   2.14282
   A77        2.10652  -0.00017   0.00168  -0.00166   0.00001   2.10653
   A78        2.03535  -0.00010  -0.00245   0.00086  -0.00159   2.03376
   A79        2.11397   0.00002   0.00126  -0.00045   0.00081   2.11478
   A80        2.07793  -0.00003  -0.00073   0.00015  -0.00059   2.07734
   A81        2.09126   0.00001  -0.00053   0.00031  -0.00022   2.09104
   A82        2.12246   0.00003   0.00099  -0.00044   0.00055   2.12301
   A83        2.09371   0.00005   0.00222  -0.00023   0.00199   2.09569
   A84        2.06624  -0.00008  -0.00320   0.00072  -0.00248   2.06376
   A85        2.12612   0.00005   0.00060  -0.00003   0.00057   2.12669
   A86        2.07658  -0.00006  -0.00092  -0.00016  -0.00108   2.07550
   A87        2.08046   0.00001   0.00032   0.00020   0.00051   2.08097
   A88        2.11779   0.00007   0.00088   0.00003   0.00090   2.11869
   A89        2.08260  -0.00006  -0.00117  -0.00013  -0.00130   2.08130
   A90        2.08280  -0.00001   0.00029   0.00011   0.00040   2.08320
   A91        2.05058  -0.00008  -0.00126   0.00005  -0.00122   2.04936
   A92        2.11922   0.00006   0.00062   0.00007   0.00069   2.11991
   A93        2.11279   0.00002   0.00062  -0.00009   0.00052   2.11332
   A94        1.93315  -0.00000  -0.00003  -0.00001  -0.00004   1.93311
   A95        1.91473   0.00000  -0.00003   0.00009   0.00006   1.91479
   A96        1.96608   0.00002   0.00003   0.00007   0.00010   1.96618
   A97        1.86555   0.00000   0.00011  -0.00007   0.00004   1.86559
   A98        1.88379  -0.00001  -0.00003  -0.00008  -0.00011   1.88368
   A99        1.89737  -0.00001  -0.00004  -0.00001  -0.00006   1.89731
   A100       1.89965  -0.00001  -0.00002  -0.00002  -0.00003   1.89962
   A101       1.90058  -0.00001   0.00006  -0.00005   0.00001   1.90059
   A102       1.92187   0.00002  -0.00010   0.00013   0.00003   1.92190
   A103       1.85889   0.00000   0.00007  -0.00007  -0.00000   1.85889
   A104       1.99731  -0.00001  -0.00001  -0.00003  -0.00004   1.99727
   A105       1.88261  -0.00000   0.00001   0.00003   0.00004   1.88265
   A106       1.91222   0.00000   0.00011   0.00003   0.00014   1.91236
   A107       1.91477   0.00001  -0.00005   0.00011   0.00006   1.91483
   A108       1.84825  -0.00000   0.00008   0.00000   0.00008   1.84832
    D1       -0.01009  -0.00009  -0.00032  -0.00336  -0.00367  -0.01376
    D2        3.11907   0.00006  -0.00007   0.00168   0.00159   3.12066
    D3        3.13635  -0.00010  -0.00080  -0.00378  -0.00457   3.13178
    D4       -0.01768   0.00005  -0.00055   0.00126   0.00069  -0.01698
    D5        0.01067   0.00004  -0.00227   0.00192  -0.00035   0.01033
    D6       -3.12679  -0.00000  -0.00184  -0.00023  -0.00207  -3.12886
    D7       -3.13582   0.00005  -0.00179   0.00235   0.00056  -3.13526
    D8        0.00990   0.00000  -0.00135   0.00019  -0.00116   0.00874
    D9       -0.00038   0.00008   0.00301   0.00280   0.00580   0.00542
   D10       -3.09369   0.00011   0.00168   0.00293   0.00459  -3.08910
   D11       -3.12980  -0.00004   0.00277  -0.00207   0.00068  -3.12912
   D12        0.06007  -0.00001   0.00144  -0.00195  -0.00053   0.05955
   D13        0.31407  -0.00013  -0.02652  -0.00219  -0.02873   0.28534
   D14       -2.81737  -0.00009  -0.02513  -0.00276  -0.02788  -2.84525
   D15       -2.84034   0.00001  -0.02631   0.00298  -0.02334  -2.86367
   D16        0.31141   0.00005  -0.02493   0.00242  -0.02249   0.28892
   D17        0.01006  -0.00003  -0.00308  -0.00086  -0.00396   0.00611
   D18       -3.12564  -0.00002  -0.00308   0.00009  -0.00300  -3.12863
   D19        3.10362  -0.00004  -0.00160  -0.00097  -0.00259   3.10103
   D20       -0.03208  -0.00003  -0.00160  -0.00002  -0.00163  -0.03371
   D21       -0.00961  -0.00002   0.00043  -0.00068  -0.00025  -0.00986
   D22        3.13824  -0.00001   0.00136  -0.00068   0.00068   3.13891
   D23        3.12706  -0.00003   0.00042  -0.00148  -0.00106   3.12600
   D24       -0.00828  -0.00002   0.00135  -0.00148  -0.00013  -0.00841
   D25       -3.13865   0.00001  -0.00116   0.00046  -0.00070  -3.13935
   D26        1.07970  -0.00001  -0.00067   0.00009  -0.00058   1.07912
   D27       -1.07150  -0.00001  -0.00107   0.00009  -0.00097  -1.07247
   D28        0.00836   0.00003  -0.00116   0.00134   0.00018   0.00854
   D29       -2.05647   0.00001  -0.00067   0.00097   0.00030  -2.05617
   D30        2.07552   0.00000  -0.00107   0.00097  -0.00009   2.07542
   D31       -0.00075   0.00001   0.00224   0.00015   0.00240   0.00165
   D32        3.13667   0.00006   0.00180   0.00233   0.00413   3.14080
   D33        3.13294   0.00000   0.00106   0.00016   0.00122   3.13416
   D34       -0.01283   0.00005   0.00062   0.00234   0.00295  -0.00988
   D35        0.00445   0.00001  -0.00097   0.00098   0.00002   0.00447
   D36       -3.13766   0.00001  -0.00070   0.00066  -0.00004  -3.13770
   D37       -3.12990   0.00002   0.00012   0.00097   0.00111  -3.12879
   D38        0.01118   0.00002   0.00039   0.00065   0.00105   0.01222
   D39        3.13721  -0.00002   0.00066  -0.00081  -0.00016   3.13706
   D40       -0.00560  -0.00002   0.00056  -0.00073  -0.00017  -0.00577
   D41       -1.07987   0.00001   0.00046  -0.00033   0.00013  -1.07974
   D42        2.06050   0.00001   0.00036  -0.00024   0.00011   2.06062
   D43        1.06909   0.00001   0.00046  -0.00038   0.00008   1.06917
   D44       -2.07372   0.00001   0.00036  -0.00030   0.00007  -2.07365
   D45        3.07349   0.00002  -0.00055   0.00046  -0.00009   3.07340
   D46       -1.12392   0.00001  -0.00054   0.00033  -0.00021  -1.12413
   D47        0.97451   0.00002  -0.00056   0.00046  -0.00010   0.97440
   D48        1.11926  -0.00001   0.00001   0.00006   0.00007   1.11933
   D49       -3.07815  -0.00002   0.00002  -0.00007  -0.00005  -3.07821
   D50       -0.97973  -0.00001  -0.00001   0.00007   0.00006  -0.97967
   D51       -1.04374   0.00000  -0.00004   0.00026   0.00022  -1.04352
   D52        1.04203  -0.00000  -0.00003   0.00013   0.00009   1.04212
   D53        3.14046   0.00000  -0.00006   0.00026   0.00020   3.14066
   D54        1.12425   0.00001   0.00052   0.00012   0.00065   1.12490
   D55       -3.07391   0.00001   0.00062   0.00011   0.00073  -3.07317
   D56       -0.97466   0.00001   0.00069   0.00007   0.00076  -0.97390
   D57        3.08007  -0.00000   0.00032  -0.00008   0.00024   3.08030
   D58       -1.11809  -0.00000   0.00042  -0.00010   0.00032  -1.11777
   D59        0.98115  -0.00000   0.00049  -0.00014   0.00035   0.98151
   D60       -1.04103  -0.00000   0.00011  -0.00005   0.00007  -1.04096
   D61        1.04400  -0.00000   0.00021  -0.00006   0.00015   1.04415
   D62       -3.13994  -0.00001   0.00029  -0.00010   0.00019  -3.13976
   D63        3.14036  -0.00001  -0.00003  -0.00025  -0.00027   3.14009
   D64       -0.00094  -0.00000  -0.00014   0.00000  -0.00014  -0.00108
   D65        0.00008  -0.00001   0.00008  -0.00034  -0.00026  -0.00017
   D66       -3.14122  -0.00000  -0.00004  -0.00009  -0.00013  -3.14134
   D67        0.00109   0.00000   0.00021  -0.00010   0.00010   0.00120
   D68       -3.14004   0.00001  -0.00003   0.00018   0.00016  -3.13989
   D69        3.14159   0.00000   0.00012  -0.00002   0.00009  -3.14151
   D70        0.00045   0.00001  -0.00012   0.00026   0.00014   0.00059
   D71       -0.00039   0.00000  -0.00002   0.00020   0.00018  -0.00022
   D72        3.14145   0.00001  -0.00018   0.00031   0.00013   3.14159
   D73        3.14091  -0.00000   0.00010  -0.00005   0.00005   3.14095
   D74       -0.00043   0.00000  -0.00006   0.00006   0.00000  -0.00043
   D75        0.00017   0.00000  -0.00001   0.00004   0.00002   0.00020
   D76       -3.14140   0.00000  -0.00011   0.00007  -0.00004  -3.14144
   D77        3.14151  -0.00000   0.00015  -0.00008   0.00007   3.14158
   D78       -0.00006  -0.00000   0.00005  -0.00005   0.00000  -0.00006
   D79        0.00036  -0.00000  -0.00002  -0.00012  -0.00014   0.00021
   D80       -3.14144  -0.00000  -0.00008  -0.00001  -0.00009  -3.14152
   D81       -3.14126  -0.00000   0.00008  -0.00015  -0.00008  -3.14133
   D82        0.00013  -0.00000   0.00002  -0.00004  -0.00002   0.00011
   D83        3.14150   0.00000  -0.00021   0.00033   0.00012  -3.14156
   D84       -0.00066  -0.00000   0.00009  -0.00003   0.00006  -0.00061
   D85        0.00011   0.00000  -0.00015   0.00021   0.00007   0.00017
   D86        3.14113  -0.00000   0.00014  -0.00014   0.00000   3.14113
   D87        3.12976  -0.00008  -0.00526  -0.00469  -0.00994   3.11982
   D88        0.03076  -0.00019  -0.00521  -0.00993  -0.01513   0.01563
   D89       -0.02154  -0.00011  -0.00660  -0.00412  -0.01070  -0.03224
   D90       -3.12054  -0.00022  -0.00654  -0.00936  -0.01589  -3.13643
   D91       -3.12993   0.00009   0.00589   0.00537   0.01129  -3.11864
   D92        0.08557   0.00010   0.00466   0.00266   0.00733   0.09290
   D93        0.02083   0.00014   0.00713   0.00492   0.01206   0.03289
   D94       -3.04685   0.00015   0.00590   0.00222   0.00809  -3.03876
   D95        0.00027   0.00001  -0.00038   0.00032  -0.00006   0.00021
   D96       -3.10634  -0.00000  -0.00107  -0.00042  -0.00149  -3.10784
   D97        3.10392   0.00008  -0.00038   0.00491   0.00454   3.10846
   D98       -0.00269   0.00007  -0.00107   0.00417   0.00310   0.00041
   D99        3.11334  -0.00003   0.00170  -0.00106   0.00064   3.11397
   D100       0.01146  -0.00013   0.00168  -0.00590  -0.00422   0.00724
   D101       0.00234  -0.00004  -0.00032  -0.00173  -0.00206   0.00029
   D102      -3.06986  -0.00009  -0.00051  -0.00499  -0.00550  -3.07536
   D103       3.06992   0.00000   0.00100   0.00134   0.00233   3.07225
   D104      -0.00229  -0.00004   0.00082  -0.00193  -0.00112  -0.00340
   D105       0.02224   0.00009   0.00703   0.00294   0.00996   0.03219
   D106      -3.12939   0.00013   0.00421   0.00694   0.01113  -3.11826
   D107       3.12477   0.00008   0.00779   0.00372   0.01150   3.13627
   D108      -0.02686   0.00012   0.00496   0.00772   0.01268  -0.01418
   D109      -0.00755   0.00002  -0.00012  -0.00016  -0.00028  -0.00783
   D110      -3.11273   0.00003  -0.00090  -0.00085  -0.00176  -3.11448
   D111      -0.02407  -0.00008  -0.00686  -0.00234  -0.00921  -0.03328
   D112       3.12707  -0.00012  -0.00417  -0.00614  -0.01034   3.11673
   D113       3.04835  -0.00007  -0.00677   0.00063  -0.00612   3.04222
   D114      -0.08369  -0.00011  -0.00408  -0.00316  -0.00725  -0.09095
   D115      -0.35367  -0.00004   0.02551  -0.00746   0.01807  -0.33559
   D116       2.80044  -0.00001   0.02303  -0.00408   0.01896   2.81940
   D117       2.77743   0.00000   0.02256  -0.00327   0.01928   2.79671
   D118      -0.35165   0.00003   0.02008   0.00011   0.02017  -0.33148
   D119      -0.01400   0.00011  -0.00154   0.00514   0.00360  -0.01040
   D120       0.01247  -0.00007   0.00094  -0.00279  -0.00186   0.01061
   D121      -3.11874   0.00002  -0.00093   0.00178   0.00086  -3.11788
   D122       0.01431   0.00001  -0.00071   0.00192   0.00122   0.01553
   D123       0.01082  -0.00001   0.00152  -0.00150   0.00002   0.01083
   D124      -3.13932  -0.00001   0.00173  -0.00135   0.00038  -3.13895
   D125       3.13019  -0.00001  -0.00113  -0.00144  -0.00257   3.12762
   D126      -0.05426  -0.00001  -0.00093  -0.00034  -0.00127  -0.05553
   D127       0.00038   0.00001  -0.00351   0.00174  -0.00176  -0.00138
   D128       3.09911   0.00002  -0.00331   0.00285  -0.00045   3.09866
   D129      -0.01272   0.00001   0.00097   0.00060   0.00157  -0.01115
   D130       3.12073   0.00002   0.00084   0.00106   0.00190   3.12264
   D131       3.13748   0.00001   0.00076   0.00046   0.00121   3.13870
   D132      -0.01225   0.00002   0.00063   0.00092   0.00154  -0.01071
   D133      -0.01011  -0.00001   0.00305  -0.00110   0.00197  -0.00814
   D134       3.12923   0.00001   0.00236  -0.00001   0.00236   3.13159
   D135      -3.10949  -0.00002   0.00273  -0.00216   0.00058  -3.10891
   D136       0.02985  -0.00000   0.00204  -0.00107   0.00098   0.03082
   D137       0.00289  -0.00001  -0.00153   0.00013  -0.00140   0.00149
   D138      -3.10188  -0.00001  -0.00084  -0.00058  -0.00142  -3.10329
   D139      -3.13054  -0.00002  -0.00140  -0.00033  -0.00173  -3.13227
   D140       0.04787  -0.00002  -0.00070  -0.00104  -0.00174   0.04613
   D141       0.00842   0.00001  -0.00047   0.00012  -0.00035   0.00807
   D142       3.11333   0.00001  -0.00116   0.00082  -0.00034   3.11299
   D143      -3.13092  -0.00001   0.00022  -0.00097  -0.00075  -3.13167
   D144      -0.02600  -0.00000  -0.00047  -0.00027  -0.00073  -0.02674
   D145      -2.62298  -0.00000  -0.00122   0.00012  -0.00110  -2.62408
   D146      -0.56766  -0.00000  -0.00112   0.00008  -0.00104  -0.56870
   D147       1.54843   0.00000  -0.00118   0.00018  -0.00100   1.54743
   D148       0.55674  -0.00001  -0.00047  -0.00061  -0.00108   0.55567
   D149       2.61207  -0.00000  -0.00036  -0.00065  -0.00101   2.61105
   D150      -1.55503  -0.00000  -0.00042  -0.00056  -0.00098  -1.55601
   D151      -0.98355   0.00000  -0.00035   0.00068   0.00034  -0.98322
   D152       1.03630  -0.00000  -0.00024   0.00056   0.00032   1.03662
   D153       3.09716   0.00000  -0.00026   0.00065   0.00039   3.09755
   D154      -3.12329   0.00000  -0.00031   0.00071   0.00040  -3.12289
   D155      -1.10343  -0.00001  -0.00020   0.00059   0.00038  -1.10305
   D156       0.95743  -0.00000  -0.00022   0.00067   0.00045   0.95788
   D157       1.14240   0.00001  -0.00040   0.00084   0.00044   1.14284
   D158      -3.12093   0.00000  -0.00030   0.00072   0.00042  -3.12051
   D159      -1.06007   0.00001  -0.00031   0.00080   0.00049  -1.05958
   D160       1.19582   0.00000   0.00111   0.00025   0.00135   1.19717
   D161      -3.06536   0.00001   0.00123   0.00033   0.00156  -3.06380
   D162      -0.95042  -0.00000   0.00122   0.00019   0.00140  -0.94902
   D163       1.07159   0.00000   0.00134   0.00027   0.00161   1.07320
   D164      -3.01546   0.00000   0.00112   0.00028   0.00140  -3.01406
   D165      -0.99345   0.00001   0.00124   0.00036   0.00161  -0.99185
         Item               Value     Threshold  Converged?
 Maximum Force            0.001933     0.000450     NO 
 RMS     Force            0.000264     0.000300     YES
 Maximum Displacement     0.209703     0.001800     NO 
 RMS     Displacement     0.028802     0.001200     NO 
 Predicted change in Energy=-5.918606D-05
 Lowest energy point so far.  Saving SCF results.
 GradGradGradGradGradGradGradGradGradGradGradGradGradGradGradGradGradGrad

 Leave Link  103 at Thu Mar 14 09:24:32 2024, MaxMem= 32212254720 cpu:               2.7 elap:               0.1
 (Enter /home/<user>/g16/l202.exe)
 Stoichiometry    C29H25N3S(3)
 Framework group  C1[X(C29H25N3S)]
 Deg. of freedom   168
 Full point group                 C1      NOp   1
 RotChk:  IX=0 Diff= 2.06D-02
 Largest Abelian subgroup         C1      NOp   1
 Largest concise Abelian subgroup C1      NOp   1
                         Standard orientation:                         
 ---------------------------------------------------------------------
 Center     Atomic      Atomic             Coordinates (Angstroms)
 Number     Number       Type             X           Y           Z
 ---------------------------------------------------------------------
      1          6           0       -2.475440    1.679079   -0.244725
      2          6           0       -1.780102    0.435039   -0.155007
      3          6           0       -2.572895   -0.747123   -0.015032
      4          6           0       -3.948089   -0.674503    0.023527
      5          6           0       -4.609652    0.571601   -0.081895
      6          6           0       -3.858712    1.747091   -0.215258
      7          1           0       -1.896691    2.587186   -0.341741
      8          1           0       -2.091604   -1.711549    0.106233
      9          1           0       -4.349428    2.713488   -0.298310
     10          6           0       -4.959370   -1.811778    0.182005
     11          6           0       -6.277998   -1.039601    0.138811
     12          6           0       -7.576380   -1.526201    0.229481
     13          6           0       -8.648125   -0.626796    0.167195
     14          6           0       -8.419973    0.746422    0.015802
     15          6           0       -7.120040    1.243553   -0.075998
     16          6           0       -6.048526    0.345631   -0.014364
     17          1           0       -7.767156   -2.590271    0.347819
     18          1           0       -9.666933   -0.998243    0.237241
     19          1           0       -9.263318    1.430073   -0.030530
     20          1           0       -6.946167    2.309982   -0.193402
     21          6           0       -4.780653   -2.541996    1.532290
     22          1           0       -5.553913   -3.307797    1.663188
     23          1           0       -3.804725   -3.039042    1.577602
     24          1           0       -4.846727   -1.842125    2.371281
     25          6           0       -4.860196   -2.822755   -0.982110
     26          1           0       -3.885842   -3.324973   -0.976409
     27          1           0       -5.635020   -3.592940   -0.893040
     28          1           0       -4.982427   -2.324844   -1.949261
     29          6           0       -0.340225    0.352320   -0.210309
     30          6           0        0.560537    1.467064   -0.022217
     31          6           0        0.311818   -0.918153   -0.484813
     32          6           0        2.019202    1.286515   -0.068845
     33          6           0        1.660876   -1.081749   -0.527576
     34          1           0       -0.308685   -1.770981   -0.731021
     35          6           0        2.608816   -0.007920   -0.303995
     36          1           0        2.046399   -2.056450   -0.802251
     37          7           0        0.188710    2.715181    0.243550
     38          7           0        2.701893    2.404637    0.163834
     39         16           0        1.585752    3.635411    0.417903
     40          6           0        4.035288   -0.273895   -0.337169
     41          6           0        5.002975    0.746146   -0.535265
     42          6           0        4.530187   -1.597339   -0.185172
     43          6           0        6.357417    0.450331   -0.588918
     44          1           0        4.670949    1.768583   -0.653181
     45          6           0        5.887354   -1.875780   -0.230018
     46          1           0        3.844659   -2.414973    0.008941
     47          6           0        6.835961   -0.860971   -0.437867
     48          1           0        7.066020    1.258143   -0.760120
     49          1           0        6.224026   -2.902010   -0.099670
     50          6           0        8.313950   -1.166307   -0.448976
     51          1           0        8.499524   -2.173869   -0.838116
     52          1           0        8.832227   -0.465184   -1.117938
     53          6           0        8.949347   -1.074366    0.951357
     54          1           0        8.754198   -0.069198    1.366409
     55          1           0        8.448600   -1.788660    1.616217
     56          7           0       10.368034   -1.438720    0.886294
     57          1           0       10.881492   -0.722406    0.373249
     58          1           0       10.763935   -1.447573    1.824979
 ---------------------------------------------------------------------
 Rotational constants (GHZ):           0.3490969           0.0397188           0.0362935
 Leave Link  202 at Thu Mar 14 09:24:32 2024, MaxMem= 32212254720 cpu:               0.1 elap:               0.0
 (Enter /home/<user>/g16/l301.exe)
 Standard basis: 6-31G(d) (6D, 7F)
 Ernie: Thresh=  0.10000D-02 Tol=  0.10000D-05 Strict=F.
 There are   549 symmetry adapted cartesian basis functions of A   symmetry.
 There are   549 symmetry adapted basis functions of A   symmetry.
   549 basis functions,  1048 primitive gaussians,   549 cartesian basis functions
   119 alpha electrons      117 beta electrons
       nuclear repulsion energy      3072.5780792321 Hartrees.
 IExCor=  402 DFT=T Ex+Corr=B3LYP ExCW=0 ScaHFX=  0.200000
 ScaDFX=  0.800000  0.720000  1.000000  0.810000 ScalE2=  1.000000  1.000000
 IRadAn=      5 IRanWt=     -1 IRanGd=            0 ICorTp=0 IEmpDi=  4
 NAtoms=   58 NActive=   58 NUniq=   58 SFac= 1.00D+00 NAtFMM=   60 NAOKFM=F Big=F
 Integral buffers will be    131072 words long.
 Raffenetti 2 integral format.
 Two-electron integral symmetry is turned on.
 Leave Link  301 at Thu Mar 14 09:24:32 2024, MaxMem= 32212254720 cpu:               0.8 elap:               0.0
 (Enter /home/<user>/g16/l302.exe)
 NPDir=0 NMtPBC=     1 NCelOv=     1 NCel=       1 NClECP=     1 NCelD=      1
         NCelK=      1 NCelE2=     1 NClLst=     1 CellRange=     0.0.
 One-electron integrals computed using PRISM.
 One-electron integral symmetry used in STVInt
 NBasis=   549 RedAO= T EigKep=  2.72D-04  NBF=   549
 NBsUse=   549 1.00D-06 EigRej= -1.00D+00 NBFU=   549
 Precomputing XC quadrature grid using
 IXCGrd= 4 IRadAn=           5 IRanWt=          -1 IRanGd=           0 AccXCQ= 0.00D+00.
 Generated NRdTot=       0 NPtTot=           0 NUsed=           0 NTot=          32
 NSgBfM=   512   512   512   512   512 MxSgAt=    58 MxSgA2=    58.
 Leave Link  302 at Thu Mar 14 09:24:32 2024, MaxMem= 32212254720 cpu:              12.6 elap:               0.4
 (Enter /home/<user>/g16/l303.exe)
 DipDrv:  MaxL=1.
 Leave Link  303 at Thu Mar 14 09:24:32 2024, MaxMem= 32212254720 cpu:               1.4 elap:               0.1
 (Enter /home/<user>/g16/l401.exe)
 Initial guess from the checkpoint file:  "FBTP_T1opt.chk"
 B after Tr=     0.000000   -0.000000    0.000000
         Rot=    0.999998   -0.001865    0.000032   -0.000110 Ang=  -0.21 deg.
 Guess basis will be translated and rotated to current coordinates.
 JPrj=2 DoOrth=T DoCkMO=T.
 Initial guess <Sx>= 0.0000 <Sy>= 0.0000 <Sz>= 1.0000 <S**2>= 2.0367 S= 1.0122
 Generating alternative initial guess.
 ExpMin= 1.17D-01 ExpMax= 2.19D+04 ExpMxC= 3.30D+03 IAcc=3 IRadAn=         5 AccDes= 0.00D+00
 Harris functional with IExCor=  402 and IRadAn=       5 diagonalized for initial guess.
 HarFok:  IExCor=  402 AccDes= 0.00D+00 IRadAn=         5 IDoV= 1 UseB2=F ITyADJ=14
 ICtDFT=  3500011 ScaDFX=  1.000000  1.000000  1.000000  1.000000
 FoFCou: FMM=F IPFlag=           0 FMFlag=      100000 FMFlg1=           0
         NFxFlg=           0 DoJE=T BraDBF=F KetDBF=T FulRan=T
         wScrn=  0.000000 ICntrl=       500 IOpCl=  0 I1Cent=   200000004 NGrid=           0
         NMat0=    1 NMatS0=      1 NMatT0=    0 NMatD0=    1 NMtDS0=    0 NMtDT0=    0
 Petite list used in FoFCou.
 Harris En= -1682.50335269166    
 Leave Link  401 at Thu Mar 14 09:24:34 2024, MaxMem= 32212254720 cpu:              46.2 elap:               1.5
 (Enter /home/<user>/g16/l502.exe)
 Integral symmetry usage will be decided dynamically.
 UHF open shell SCF:
 Using DIIS extrapolation, IDIIS=  1040.
 NGot= 32212254720 LenX= 32211628124 LenY= 32211326174
 Requested convergence on RMS density matrix=1.00D-08 within 128 cycles.
 Requested convergence on MAX density matrix=1.00D-06.
 Requested convergence on             energy=1.00D-06.
 No special actions if energy rises.
 Fock matrices will be formed incrementally for  20 cycles.
 Integral accuracy reduced to 1.0D-05 until final iterations.

 Cycle   1  Pass 0  IDiag  1:
 FoFJK:  IHMeth= 1 ICntrl=       0 DoSepK=F KAlg= 0 I1Cent=           0 FoldK=F
 IRaf= 550000000 NMat=       1 IRICut=       1 DoRegI=T DoRafI=F ISym2E= 0 IDoP0=0 IntGTp=1.
 FoFCou: FMM=F IPFlag=           0 FMFlag=      100000 FMFlg1=           0
         NFxFlg=           0 DoJE=F BraDBF=F KetDBF=F FulRan=T
         wScrn=  0.000000 ICntrl=         0 IOpCl=  1 I1Cent=           0 NGrid=           0
         NMat0=    1 NMatS0=      1 NMatT0=    0 NMatD0=    1 NMtDS0=    0 NMtDT0=    0
 Symmetry not used in FoFCou.
 E= -1682.54064234808    
 DIIS: error= 1.32D-03 at cycle   1 NSaved=   1.
 NSaved= 1 IEnMin= 1 EnMin= -1682.54064234808     IErMin= 1 ErrMin= 1.32D-03
 ErrMax= 1.32D-03  0.00D+00 EMaxC= 1.00D-01 BMatC= 5.61D-03 BMatP= 5.61D-03
 IDIUse=3 WtCom= 9.87D-01 WtEn= 1.32D-02
 Coeff-Com:  0.100D+01
 Coeff-En:   0.100D+01
 Coeff:      0.100D+01
 Gap=     1.903 Goal=   None    Shift=    0.000
 Gap=     1.983 Goal=   None    Shift=    0.000
 GapD=    1.903 DampG=2.000 DampE=1.000 DampFc=2.0000 IDamp=-1.
 RMSDP=1.51D-04 MaxDP=5.07D-03              OVMax= 9.73D-03

 Cycle   2  Pass 0  IDiag  1:
 RMSU=  1.51D-04    CP:  1.00D+00
 E= -1682.54381337699     Delta-E=       -0.003171028907 Rises=F Damp=F
 DIIS: error= 1.75D-04 at cycle   2 NSaved=   2.
 NSaved= 2 IEnMin= 2 EnMin= -1682.54381337699     IErMin= 2 ErrMin= 1.75D-04
 ErrMax= 1.75D-04  0.00D+00 EMaxC= 1.00D-01 BMatC= 1.19D-04 BMatP= 5.61D-03
 IDIUse=3 WtCom= 9.98D-01 WtEn= 1.75D-03
 Coeff-Com: -0.698D-01 0.107D+01
 Coeff-En:   0.000D+00 0.100D+01
 Coeff:     -0.697D-01 0.107D+01
 Gap=     0.092 Goal=   None    Shift=    0.000
 Gap=     0.080 Goal=   None    Shift=    0.000
 RMSDP=3.13D-05 MaxDP=2.94D-03 DE=-3.17D-03 OVMax= 7.19D-03

 Cycle   3  Pass 0  IDiag  1:
 RMSU=  3.01D-05    CP:  1.00D+00  1.06D+00
 E= -1682.54381767218     Delta-E=       -0.000004295190 Rises=F Damp=F
 DIIS: error= 3.61D-04 at cycle   3 NSaved=   3.
 NSaved= 3 IEnMin= 3 EnMin= -1682.54381767218     IErMin= 2 ErrMin= 1.75D-04
 ErrMax= 3.61D-04  0.00D+00 EMaxC= 1.00D-01 BMatC= 2.42D-04 BMatP= 1.19D-04
 IDIUse=3 WtCom= 3.45D-01 WtEn= 6.55D-01
 Coeff-Com: -0.574D-01 0.680D+00 0.378D+00
 Coeff-En:   0.000D+00 0.470D+00 0.530D+00
 Coeff:     -0.198D-01 0.543D+00 0.477D+00
 Gap=     0.092 Goal=   None    Shift=    0.000
 Gap=     0.080 Goal=   None    Shift=    0.000
 RMSDP=2.53D-05 MaxDP=2.84D-03 DE=-4.30D-06 OVMax= 5.97D-03

 Cycle   4  Pass 0  IDiag  1:
 RMSU=  1.39D-05    CP:  1.00D+00  1.08D+00  3.05D-01
 E= -1682.54385717824     Delta-E=       -0.000039506058 Rises=F Damp=F
 DIIS: error= 2.06D-04 at cycle   4 NSaved=   4.
 NSaved= 4 IEnMin= 4 EnMin= -1682.54385717824     IErMin= 2 ErrMin= 1.75D-04
 ErrMax= 2.06D-04  0.00D+00 EMaxC= 1.00D-01 BMatC= 7.43D-05 BMatP= 1.19D-04
 IDIUse=3 WtCom= 9.98D-01 WtEn= 2.06D-03
 Coeff-Com: -0.186D-01 0.183D+00 0.349D+00 0.486D+00
 Coeff-En:   0.000D+00 0.000D+00 0.288D+00 0.712D+00
 Coeff:     -0.185D-01 0.183D+00 0.349D+00 0.487D+00
 Gap=     0.092 Goal=   None    Shift=    0.000
 Gap=     0.080 Goal=   None    Shift=    0.000
 RMSDP=1.11D-05 MaxDP=1.39D-03 DE=-3.95D-05 OVMax= 3.63D-03

 Cycle   5  Pass 0  IDiag  1:
 RMSU=  5.12D-06    CP:  1.00D+00  1.08D+00  5.70D-01  5.78D-01
 E= -1682.54387458369     Delta-E=       -0.000017405449 Rises=F Damp=F
 DIIS: error= 4.41D-05 at cycle   5 NSaved=   5.
 NSaved= 5 IEnMin= 5 EnMin= -1682.54387458369     IErMin= 5 ErrMin= 4.41D-05
 ErrMax= 4.41D-05  0.00D+00 EMaxC= 1.00D-01 BMatC= 3.81D-06 BMatP= 7.43D-05
 IDIUse=1 WtCom= 1.00D+00 WtEn= 0.00D+00
 Coeff-Com: -0.402D-02 0.210D-01 0.178D+00 0.333D+00 0.472D+00
 Coeff:     -0.402D-02 0.210D-01 0.178D+00 0.333D+00 0.472D+00
 Gap=     0.092 Goal=   None    Shift=    0.000
 Gap=     0.080 Goal=   None    Shift=    0.000
 RMSDP=2.74D-06 MaxDP=2.23D-04 DE=-1.74D-05 OVMax= 4.26D-04

 Initial convergence to 1.0D-05 achieved.  Increase integral accuracy.
 Cycle   6  Pass 1  IDiag  1:
 E= -1682.54391205267     Delta-E=       -0.000037468977 Rises=F Damp=F
 DIIS: error= 1.16D-04 at cycle   1 NSaved=   1.
 NSaved= 1 IEnMin= 1 EnMin= -1682.54391205267     IErMin= 1 ErrMin= 1.16D-04
 ErrMax= 1.16D-04  0.00D+00 EMaxC= 1.00D-01 BMatC= 1.18D-05 BMatP= 1.18D-05
 IDIUse=3 WtCom= 9.99D-01 WtEn= 1.16D-03
 Coeff-Com:  0.100D+01
 Coeff-En:   0.100D+01
 Coeff:      0.100D+01
 Gap=     0.092 Goal=   None    Shift=    0.000
 Gap=     0.080 Goal=   None    Shift=    0.000
 RMSDP=2.74D-06 MaxDP=2.23D-04 DE=-3.75D-05 OVMax= 5.83D-04

 Cycle   7  Pass 1  IDiag  1:
 RMSU=  6.92D-05    CP:  1.00D+00
 E= -1682.54391418954     Delta-E=       -0.000002136874 Rises=F Damp=F
 DIIS: error= 2.47D-05 at cycle   2 NSaved=   2.
 NSaved= 2 IEnMin= 2 EnMin= -1682.54391418954     IErMin= 2 ErrMin= 2.47D-05
 ErrMax= 2.47D-05  0.00D+00 EMaxC= 1.00D-01 BMatC= 1.42D-06 BMatP= 1.18D-05
 IDIUse=1 WtCom= 1.00D+00 WtEn= 0.00D+00
 Coeff-Com:  0.133D+00 0.867D+00
 Coeff:      0.133D+00 0.867D+00
 Gap=     0.092 Goal=   None    Shift=    0.000
 Gap=     0.080 Goal=   None    Shift=    0.000
 RMSDP=4.06D-06 MaxDP=2.00D-04 DE=-2.14D-06 OVMax= 5.99D-04

 Cycle   8  Pass 1  IDiag  1:
 RMSU=  4.03D-06    CP:  1.00D+00  1.01D+00
 E= -1682.54391312986     Delta-E=        0.000001059680 Rises=F Damp=F
 DIIS: error= 5.12D-05 at cycle   3 NSaved=   3.
 NSaved= 3 IEnMin= 2 EnMin= -1682.54391418954     IErMin= 2 ErrMin= 2.47D-05
 ErrMax= 5.12D-05  0.00D+00 EMaxC= 1.00D-01 BMatC= 5.24D-06 BMatP= 1.42D-06
 IDIUse=1 WtCom= 1.00D+00 WtEn= 0.00D+00
 Coeff-Com: -0.335D-02 0.662D+00 0.341D+00
 Coeff:     -0.335D-02 0.662D+00 0.341D+00
 Gap=     0.092 Goal=   None    Shift=    0.000
 Gap=     0.080 Goal=   None    Shift=    0.000
 RMSDP=2.70D-06 MaxDP=1.61D-04 DE= 1.06D-06 OVMax= 4.74D-04

 Cycle   9  Pass 1  IDiag  1:
 RMSU=  8.01D-07    CP:  1.00D+00  1.01D+00  3.63D-01
 E= -1682.54391463700     Delta-E=       -0.000001507138 Rises=F Damp=F
 DIIS: error= 8.10D-06 at cycle   4 NSaved=   4.
 NSaved= 4 IEnMin= 4 EnMin= -1682.54391463700     IErMin= 4 ErrMin= 8.10D-06
 ErrMax= 8.10D-06  0.00D+00 EMaxC= 1.00D-01 BMatC= 7.04D-08 BMatP= 1.42D-06
 IDIUse=1 WtCom= 1.00D+00 WtEn= 0.00D+00
 Coeff-Com: -0.468D-02 0.397D+00 0.215D+00 0.392D+00
 Coeff:     -0.468D-02 0.397D+00 0.215D+00 0.392D+00
 Gap=     0.092 Goal=   None    Shift=    0.000
 Gap=     0.080 Goal=   None    Shift=    0.000
 RMSDP=3.42D-07 MaxDP=4.23D-05 DE=-1.51D-06 OVMax= 6.71D-05

 Cycle  10  Pass 1  IDiag  1:
 RMSU=  3.31D-07    CP:  1.00D+00  1.01D+00  3.71D-01  8.95D-01
 E= -1682.54391465973     Delta-E=       -0.000000022730 Rises=F Damp=F
 DIIS: error= 2.49D-06 at cycle   5 NSaved=   5.
 NSaved= 5 IEnMin= 5 EnMin= -1682.54391465973     IErMin= 5 ErrMin= 2.49D-06
 ErrMax= 2.49D-06  0.00D+00 EMaxC= 1.00D-01 BMatC= 9.50D-09 BMatP= 7.04D-08
 IDIUse=1 WtCom= 1.00D+00 WtEn= 0.00D+00
 Coeff-Com: -0.428D-03-0.128D+00-0.562D-01 0.123D+00 0.106D+01
 Coeff:     -0.428D-03-0.128D+00-0.562D-01 0.123D+00 0.106D+01
 Gap=     0.092 Goal=   None    Shift=    0.000
 Gap=     0.080 Goal=   None    Shift=    0.000
 RMSDP=4.25D-07 MaxDP=4.84D-05 DE=-2.27D-08 OVMax= 1.66D-04

 Cycle  11  Pass 1  IDiag  1:
 RMSU=  2.13D-07    CP:  1.00D+00  1.01D+00  3.89D-01  1.30D+00  1.46D+00
 E= -1682.54391467480     Delta-E=       -0.000000015071 Rises=F Damp=F
 DIIS: error= 1.87D-06 at cycle   6 NSaved=   6.
 NSaved= 6 IEnMin= 6 EnMin= -1682.54391467480     IErMin= 6 ErrMin= 1.87D-06
 ErrMax= 1.87D-06  0.00D+00 EMaxC= 1.00D-01 BMatC= 4.96D-09 BMatP= 9.50D-09
 IDIUse=1 WtCom= 1.00D+00 WtEn= 0.00D+00
 Coeff-Com:  0.240D-02-0.310D+00-0.158D+00-0.145D+00 0.710D+00 0.901D+00
 Coeff:      0.240D-02-0.310D+00-0.158D+00-0.145D+00 0.710D+00 0.901D+00
 Gap=     0.092 Goal=   None    Shift=    0.000
 Gap=     0.080 Goal=   None    Shift=    0.000
 RMSDP=3.89D-07 MaxDP=3.66D-05 DE=-1.51D-08 OVMax= 1.40D-04

 Cycle  12  Pass 1  IDiag  1:
 RMSU=  1.30D-07    CP:  1.00D+00  1.01D+00  4.03D-01  1.66D+00  2.11D+00
                    CP:  1.17D+00
 E= -1682.54391468143     Delta-E=       -0.000000006631 Rises=F Damp=F
 DIIS: error= 9.84D-07 at cycle   7 NSaved=   7.
 NSaved= 7 IEnMin= 7 EnMin= -1682.54391468143     IErMin= 7 ErrMin= 9.84D-07
 ErrMax= 9.84D-07  0.00D+00 EMaxC= 1.00D-01 BMatC= 2.79D-09 BMatP= 4.96D-09
 IDIUse=1 WtCom= 1.00D+00 WtEn= 0.00D+00
 Coeff-Com:  0.188D-02-0.207D+00-0.107D+00-0.131D+00 0.329D+00 0.669D+00
 Coeff-Com:  0.446D+00
 Coeff:      0.188D-02-0.207D+00-0.107D+00-0.131D+00 0.329D+00 0.669D+00
 Coeff:      0.446D+00
 Gap=     0.092 Goal=   None    Shift=    0.000
 Gap=     0.080 Goal=   None    Shift=    0.000
 RMSDP=1.09D-07 MaxDP=9.56D-06 DE=-6.63D-09 OVMax= 3.25D-05

 Cycle  13  Pass 1  IDiag  1:
 RMSU=  5.60D-08    CP:  1.00D+00  1.01D+00  4.07D-01  1.75D+00  2.23D+00
                    CP:  1.32D+00  7.52D-01
 E= -1682.54391468245     Delta-E=       -0.000000001020 Rises=F Damp=F
 DIIS: error= 3.10D-07 at cycle   8 NSaved=   8.
 NSaved= 8 IEnMin= 8 EnMin= -1682.54391468245     IErMin= 8 ErrMin= 3.10D-07
 ErrMax= 3.10D-07  0.00D+00 EMaxC= 1.00D-01 BMatC= 2.24D-10 BMatP= 2.79D-09
 IDIUse=1 WtCom= 1.00D+00 WtEn= 0.00D+00
 Coeff-Com:  0.626D-03-0.627D-01-0.329D-01-0.441D-01 0.744D-01 0.215D+00
 Coeff-Com:  0.236D+00 0.614D+00
 Coeff:      0.626D-03-0.627D-01-0.329D-01-0.441D-01 0.744D-01 0.215D+00
 Coeff:      0.236D+00 0.614D+00
 Gap=     0.092 Goal=   None    Shift=    0.000
 Gap=     0.080 Goal=   None    Shift=    0.000
 RMSDP=3.03D-08 MaxDP=2.19D-06 DE=-1.02D-09 OVMax= 6.70D-06

 Cycle  14  Pass 1  IDiag  1:
 RMSU=  2.60D-08    CP:  1.00D+00  1.01D+00  4.06D-01  1.76D+00  2.25D+00
                    CP:  1.34D+00  8.37D-01  9.27D-01
 E= -1682.54391468258     Delta-E=       -0.000000000132 Rises=F Damp=F
 DIIS: error= 1.94D-07 at cycle   9 NSaved=   9.
 NSaved= 9 IEnMin= 9 EnMin= -1682.54391468258     IErMin= 9 ErrMin= 1.94D-07
 ErrMax= 1.94D-07  0.00D+00 EMaxC= 1.00D-01 BMatC= 1.04D-10 BMatP= 2.24D-10
 IDIUse=1 WtCom= 1.00D+00 WtEn= 0.00D+00
 Coeff-Com: -0.385D-03 0.471D-01 0.238D-01 0.271D-01-0.933D-01-0.153D+00
 Coeff-Com: -0.320D-01 0.447D+00 0.733D+00
 Coeff:     -0.385D-03 0.471D-01 0.238D-01 0.271D-01-0.933D-01-0.153D+00
 Coeff:     -0.320D-01 0.447D+00 0.733D+00
 Gap=     0.092 Goal=   None    Shift=    0.000
 Gap=     0.080 Goal=   None    Shift=    0.000
 RMSDP=2.55D-08 MaxDP=2.20D-06 DE=-1.32D-10 OVMax= 4.56D-06

 Cycle  15  Pass 1  IDiag  1:
 RMSU=  2.09D-08    CP:  1.00D+00  1.01D+00  4.07D-01  1.76D+00  2.26D+00
                    CP:  1.36D+00  8.85D-01  1.13D+00  1.06D+00
 E= -1682.54391468274     Delta-E=       -0.000000000156 Rises=F Damp=F
 DIIS: error= 1.27D-07 at cycle  10 NSaved=  10.
 NSaved=10 IEnMin=10 EnMin= -1682.54391468274     IErMin=10 ErrMin= 1.27D-07
 ErrMax= 1.27D-07  0.00D+00 EMaxC= 1.00D-01 BMatC= 3.48D-11 BMatP= 1.04D-10
 IDIUse=1 WtCom= 1.00D+00 WtEn= 0.00D+00
 Coeff-Com: -0.498D-03 0.555D-01 0.285D-01 0.352D-01-0.882D-01-0.183D+00
 Coeff-Com: -0.112D+00 0.480D-01 0.485D+00 0.731D+00
 Coeff:     -0.498D-03 0.555D-01 0.285D-01 0.352D-01-0.882D-01-0.183D+00
 Coeff:     -0.112D+00 0.480D-01 0.485D+00 0.731D+00
 Gap=     0.092 Goal=   None    Shift=    0.000
 Gap=     0.080 Goal=   None    Shift=    0.000
 RMSDP=1.61D-08 MaxDP=1.34D-06 DE=-1.56D-10 OVMax= 3.55D-06

 Cycle  16  Pass 1  IDiag  1:
 RMSU=  1.01D-08    CP:  1.00D+00  1.01D+00  4.07D-01  1.76D+00  2.27D+00
                    CP:  1.37D+00  9.15D-01  1.24D+00  1.41D+00  1.19D+00
 E= -1682.54391468271     Delta-E=        0.000000000028 Rises=F Damp=F
 DIIS: error= 6.16D-08 at cycle  11 NSaved=  11.
 NSaved=11 IEnMin=10 EnMin= -1682.54391468274     IErMin=11 ErrMin= 6.16D-08
 ErrMax= 6.16D-08  0.00D+00 EMaxC= 1.00D-01 BMatC= 8.50D-12 BMatP= 3.48D-11
 IDIUse=1 WtCom= 1.00D+00 WtEn= 0.00D+00
 Coeff-Com: -0.184D-03 0.195D-01 0.999D-02 0.128D-01-0.255D-01-0.651D-01
 Coeff-Com: -0.571D-01-0.949D-01 0.863D-01 0.419D+00 0.695D+00
 Coeff:     -0.184D-03 0.195D-01 0.999D-02 0.128D-01-0.255D-01-0.651D-01
 Coeff:     -0.571D-01-0.949D-01 0.863D-01 0.419D+00 0.695D+00
 Gap=     0.092 Goal=   None    Shift=    0.000
 Gap=     0.080 Goal=   None    Shift=    0.000
 RMSDP=8.72D-09 MaxDP=7.79D-07 DE= 2.82D-11 OVMax= 2.17D-06

 SCF Done:  E(UB3LYP) =  -1682.54391468     A.U. after   16 cycles
            NFock= 16  Conv=0.87D-08     -V/T= 2.0082
 <Sx>= 0.0000 <Sy>= 0.0000 <Sz>= 1.0000 <S**2>= 2.0368 S= 1.0122
 <L.S>= 0.000000000000E+00
 KE= 1.668882395262D+03 PE=-1.006712856056D+04 EE= 3.643124171388D+03
 Annihilation of the first spin contaminant:
 S**2 before annihilation     2.0368,   after     2.0009
 Leave Link  502 at Thu Mar 14 09:25:14 2024, MaxMem= 32212254720 cpu:            1192.5 elap:              39.8
 (Enter /home/<user>/g16/l701.exe)
 ... and contract with generalized density number  0.
 Compute integral first derivatives.
 Leave Link  701 at Thu Mar 14 09:25:14 2024, MaxMem= 32212254720 cpu:               5.0 elap:               0.2
 (Enter /home/<user>/g16/l702.exe)
 L702 exits ... SP integral derivatives will be done elsewhere.
 Leave Link  702 at Thu Mar 14 09:25:14 2024, MaxMem= 32212254720 cpu:               0.7 elap:               0.0
 (Enter /home/<user>/g16/l703.exe)
 Integral derivatives from FoFJK, PRISM(SPDF).
 Compute integral first derivatives, UseDBF=F ICtDFT=           0.
 Calling FoFJK, ICntrl=      2127 FMM=F ISym2X=0 I1Cent= 0 IOpClX= 1 NMat=1 NMatS=1 NMatT=0.
 FoFJK:  IHMeth= 1 ICntrl=    2127 DoSepK=F KAlg= 0 I1Cent=           0 FoldK=F
 IRaf=         0 NMat=       1 IRICut=       1 DoRegI=T DoRafI=F ISym2E= 0 IDoP0=0 IntGTp=1.
 FoFCou: FMM=F IPFlag=           0 FMFlag=      100000 FMFlg1=         800
         NFxFlg=           0 DoJE=F BraDBF=F KetDBF=F FulRan=T
         wScrn=  0.000000 ICntrl=      2127 IOpCl=  1 I1Cent=           0 NGrid=           0
         NMat0=    1 NMatS0=      1 NMatT0=    0 NMatD0=    1 NMtDS0=    0 NMtDT0=    0
 Symmetry not used in FoFCou.
 Leave Link  703 at Thu Mar 14 09:25:21 2024, MaxMem= 32212254720 cpu:             198.5 elap:               6.6
 (Enter /home/<user>/g16/l716.exe)
 Dipole        =-4.61757635D-01-9.85594314D-01 5.17579104D-02
 ***** Axes restored to original set *****
 -------------------------------------------------------------------
 Center     Atomic                   Forces (Hartrees/Bohr)
 Number     Number              X              Y              Z
 -------------------------------------------------------------------
      1        6          -0.000188220    0.000352456   -0.000136930
      2        6          -0.000290972    0.000208017    0.000240213
      3        6           0.000010233   -0.000255687    0.000010471
      4        6          -0.000016706   -0.000077483    0.000039239
      5        6          -0.000091222    0.000017056    0.000056761
      6        6          -0.000080426   -0.000005646   -0.000039167
      7        1          -0.000247455   -0.000277629   -0.000016331
      8        1           0.000140488    0.000094504   -0.000130495
      9        1          -0.000035441   -0.000042523    0.000001456
     10        6          -0.000030538    0.000100281    0.000098238
     11        6          -0.000088201   -0.000047338    0.000000511
     12        6           0.000014611    0.000015719   -0.000004387
     13        6          -0.000032143   -0.000000743   -0.000003240
     14        6          -0.000002393   -0.000006993   -0.000001393
     15        6          -0.000019507    0.000025367    0.000004544
     16        6           0.000138941   -0.000045928   -0.000024686
     17        1          -0.000003263    0.000003219   -0.000000663
     18        1          -0.000004475    0.000000040    0.000003964
     19        1           0.000000400   -0.000003994    0.000002209
     20        1           0.000007961   -0.000012550   -0.000003343
     21        6           0.000005446    0.000028034   -0.000038975
     22        1          -0.000002400   -0.000000049   -0.000011672
     23        1           0.000001678   -0.000000104   -0.000002589
     24        1           0.000001275   -0.000006618   -0.000001645
     25        6          -0.000003971    0.000017200   -0.000015062
     26        1           0.000004033    0.000000342   -0.000000761
     27        1          -0.000001099    0.000000225    0.000000525
     28        1          -0.000003342   -0.000005194    0.000002159
     29        6           0.000725098   -0.000703909   -0.000222971
     30        6           0.000190200   -0.000398662   -0.000080917
     31        6           0.000201707   -0.000033045    0.000071259
     32        6          -0.000273294   -0.000086275    0.000145310
     33        6          -0.000326680    0.000057170    0.000074253
     34        1           0.000030160   -0.000054445   -0.000043550
     35        6          -0.000920117   -0.000421935   -0.000077760
     36        1          -0.000143741    0.000020444   -0.000087938
     37        7           0.001377471    0.001008961    0.000144120
     38        7          -0.000616682    0.001050183    0.000037877
     39       16           0.000051488   -0.000684153   -0.000052903
     40        6           0.000402383    0.000193954    0.000034003
     41        6          -0.000071539    0.000189622   -0.000015180
     42        6          -0.000025847   -0.000186780    0.000054604
     43        6           0.000078461   -0.000006242   -0.000008511
     44        1          -0.000000116   -0.000095946    0.000008899
     45        6           0.000157120   -0.000003619    0.000045431
     46        1          -0.000010720    0.000135342   -0.000066337
     47        6          -0.000121140   -0.000023518   -0.000011733
     48        1           0.000022786   -0.000044495   -0.000001187
     49        1           0.000070997    0.000023675    0.000024040
     50        6          -0.000016063   -0.000000808   -0.000003619
     51        1           0.000003743   -0.000002003    0.000000831
     52        1           0.000007413   -0.000008319    0.000006177
     53        6           0.000013807    0.000001698   -0.000013715
     54        1          -0.000002641   -0.000000623    0.000003384
     55        1          -0.000001574    0.000000397   -0.000004259
     56        7           0.000010548    0.000003338    0.000009186
     57        1          -0.000003502   -0.000001405    0.000002715
     58        1           0.000006982   -0.000002583   -0.000000460
 -------------------------------------------------------------------
 Cartesian Forces:  Max     0.001377471 RMS     0.000221958
 Leave Link  716 at Thu Mar 14 09:25:21 2024, MaxMem= 32212254720 cpu:               0.7 elap:               0.0
 (Enter /home/<user>/g16/l103.exe)

 GradGradGradGradGradGradGradGradGradGradGradGradGradGradGradGradGradGrad
 Berny optimization.
 Using GEDIIS/GDIIS optimizer.
 FormGI is forming the generalized inverse of G from B-inverse, IUseBI=4.
 Internal  Forces:  Max     0.001161619 RMS     0.000187651
 Search for a local minimum.
 Step number   6 out of a maximum of  346
 All quantities printed in internal units (Hartrees-Bohrs-Radians)
 RMS Force = .18765D-03 SwitMx=.10000D-02 MixMth= 2
 Mixed Optimization -- En-DIIS/RFO-DIIS
 Swapping is turned off.
 Update second derivatives using D2CorX and points    3    4    5    6
 DE= -3.95D-05 DEPred=-5.92D-05 R= 6.68D-01
 TightC=F SS=  1.41D+00  RLast= 8.24D-02 DXNew= 1.4270D+00 2.4708D-01
 Trust test= 6.68D-01 RLast= 8.24D-02 DXMaxT set to 8.49D-01
 ITU=  1  1  1  1  1  0
     Eigenvalues ---    0.00230   0.00230   0.00250   0.00564   0.00614
     Eigenvalues ---    0.00756   0.00811   0.01032   0.01254   0.01455
     Eigenvalues ---    0.01465   0.01577   0.01602   0.01628   0.01634
     Eigenvalues ---    0.01667   0.01712   0.01724   0.01743   0.01809
     Eigenvalues ---    0.01834   0.01887   0.02023   0.02037   0.02044
     Eigenvalues ---    0.02072   0.02086   0.02089   0.02090   0.02094
     Eigenvalues ---    0.02112   0.02114   0.02119   0.02123   0.02124
     Eigenvalues ---    0.02134   0.02142   0.02145   0.02148   0.02155
     Eigenvalues ---    0.02161   0.02169   0.02215   0.02360   0.04049
     Eigenvalues ---    0.04279   0.04388   0.04469   0.05425   0.05428
     Eigenvalues ---    0.05433   0.05499   0.05500   0.05559   0.05993
     Eigenvalues ---    0.08023   0.08960   0.09275   0.11591   0.12605
     Eigenvalues ---    0.12823   0.14122   0.15802   0.15966   0.15991
     Eigenvalues ---    0.16000   0.16000   0.16000   0.16000   0.16000
     Eigenvalues ---    0.16000   0.16000   0.16000   0.16000   0.16000
     Eigenvalues ---    0.16000   0.16000   0.16000   0.16001   0.16011
     Eigenvalues ---    0.16013   0.16075   0.18993   0.20496   0.21875
     Eigenvalues ---    0.21954   0.21999   0.22006   0.22436   0.22461
     Eigenvalues ---    0.22617   0.22938   0.23632   0.24113   0.24532
     Eigenvalues ---    0.24592   0.24732   0.24973   0.24981   0.24996
     Eigenvalues ---    0.24999   0.25022   0.25074   0.28053   0.28061
     Eigenvalues ---    0.28478   0.28609   0.28962   0.29129   0.31179
     Eigenvalues ---    0.33128   0.33302   0.33785   0.34027   0.34090
     Eigenvalues ---    0.34100   0.34104   0.34105   0.34131   0.34276
     Eigenvalues ---    0.34289   0.34535   0.34743   0.35025   0.35039
     Eigenvalues ---    0.35058   0.35084   0.35116   0.35151   0.35159
     Eigenvalues ---    0.35187   0.35189   0.35249   0.35295   0.35421
     Eigenvalues ---    0.35557   0.35944   0.36149   0.36830   0.37702
     Eigenvalues ---    0.38192   0.40535   0.40744   0.41470   0.41650
     Eigenvalues ---    0.41917   0.42125   0.42666   0.42966   0.43390
     Eigenvalues ---    0.44364   0.44498   0.44523   0.44623   0.44965
     Eigenvalues ---    0.45024   0.45798   0.45945   0.46029   0.46079
     Eigenvalues ---    0.46496   0.46913   0.47059   0.47193   0.47923
     Eigenvalues ---    0.54428   0.57330   0.61327
 En-DIIS/RFO-DIIS/Sim-DIIS IScMMF=       -3 using points:     6    5    4    3
 RFO step:  Lambda=-3.21628606D-05.
 NNeg= 0 NGDIIS= 4 SimSw=  2.50D-01 Rises=F DC= -3.95D-05 SmlDif=  1.00D-05
 NRisDI= 0 DoIntr=F SqrtH=F CThrHd= 10.0 CDAdj=  3.0
 RMS Error=  0.1086739243D-02 NUsed= 4 OKEnD=T EnDIS=F
 InvSVX:  RCond= 5.00D-05 Info=           0 Equed=N FErr=  1.68D-14 BErr=  8.87D-17
 DidBck=F Rises=F RFO-DIIS coefs:    1.02343    0.04092   -0.11558    0.05122
 Iteration  1 RMS(Cart)=  0.01211927 RMS(Int)=  0.00001147
 Iteration  2 RMS(Cart)=  0.00006586 RMS(Int)=  0.00000182
 Iteration  3 RMS(Cart)=  0.00000000 RMS(Int)=  0.00000182
 ITry= 1 IFail=0 DXMaxC= 5.05D-02 DCOld= 1.00D+10 DXMaxT= 8.49D-01 DXLimC= 3.00D+00 Rises=F
 Variable       Old X    -DE/DX   Delta X   Delta X   Delta X     New X
                                 (Linear)    (Quad)   (Total)
    R1        2.69853   0.00037  -0.00015   0.00092   0.00077   2.69929
    R2        2.61775   0.00014   0.00004   0.00016   0.00019   2.61795
    R3        2.04319  -0.00036   0.00006  -0.00070  -0.00065   2.04255
    R4        2.70279   0.00012  -0.00034   0.00080   0.00045   2.70324
    R5        2.72746   0.00082  -0.00032   0.00198   0.00166   2.72912
    R6        2.60338   0.00010   0.00003   0.00009   0.00012   2.60351
    R7        2.04969  -0.00005   0.00020  -0.00044  -0.00024   2.04945
    R8        2.67352  -0.00002   0.00008  -0.00004   0.00004   2.67356
    R9        2.89147   0.00001   0.00000   0.00006   0.00006   2.89153
   R10        2.64796  -0.00001   0.00008  -0.00002   0.00006   2.64802
   R11        2.75536  -0.00006   0.00003  -0.00022  -0.00019   2.75517
   R12        2.05418  -0.00002   0.00000  -0.00004  -0.00004   2.05414
   R13        2.88881   0.00001   0.00000   0.00001   0.00001   2.88883
   R14        2.92049  -0.00006   0.00001  -0.00018  -0.00017   2.92031
   R15        2.91966  -0.00000  -0.00002  -0.00004  -0.00006   2.91960
   R16        2.62583   0.00001  -0.00000   0.00000  -0.00000   2.62583
   R17        2.66913  -0.00003   0.00002  -0.00003  -0.00001   2.66912
   R18        2.64659   0.00001   0.00001   0.00003   0.00004   2.64663
   R19        2.05507  -0.00000  -0.00000  -0.00001  -0.00001   2.05506
   R20        2.64609  -0.00000   0.00000   0.00000   0.00000   2.64609
   R21        2.05351   0.00000  -0.00000   0.00001   0.00001   2.05352
   R22        2.63574   0.00002   0.00000   0.00003   0.00003   2.63577
   R23        2.05343  -0.00000  -0.00000  -0.00001  -0.00001   2.05342
   R24        2.64440   0.00003  -0.00001   0.00007   0.00007   2.64447
   R25        2.05389  -0.00001   0.00000  -0.00003  -0.00002   2.05386
   R26        2.07140  -0.00000  -0.00000  -0.00000  -0.00000   2.07139
   R27        2.07142   0.00000   0.00000   0.00001   0.00001   2.07143
   R28        2.06844  -0.00001   0.00000  -0.00001  -0.00001   2.06843
   R29        2.07149   0.00000  -0.00001   0.00001   0.00000   2.07149
   R30        2.07136   0.00000  -0.00000  -0.00000  -0.00000   2.07136
   R31        2.06857  -0.00000   0.00000  -0.00001  -0.00001   2.06856
   R32        2.73156   0.00084   0.00014   0.00187   0.00201   2.73357
   R33        2.74799  -0.00010  -0.00064  -0.00027  -0.00090   2.74708
   R34        2.77891  -0.00046   0.00001  -0.00070  -0.00069   2.77822
   R35        2.51176   0.00065  -0.00011   0.00074   0.00063   2.51239
   R36        2.56930  -0.00059  -0.00001  -0.00094  -0.00095   2.56835
   R37        2.04663   0.00003   0.00020  -0.00024  -0.00004   2.04659
   R38        2.72442   0.00006   0.00010   0.00068   0.00078   2.72521
   R39        2.51440   0.00049  -0.00012   0.00059   0.00047   2.51487
   R40        2.73957  -0.00013  -0.00058  -0.00052  -0.00110   2.73847
   R41        2.04764  -0.00006   0.00014  -0.00025  -0.00011   2.04753
   R42        2.74282   0.00048  -0.00029   0.00130   0.00101   2.74383
   R43        3.17842  -0.00064  -0.00067  -0.00178  -0.00245   3.17597
   R44        3.17627  -0.00090  -0.00069  -0.00217  -0.00286   3.17341
   R45        2.68324   0.00005  -0.00016   0.00039   0.00023   2.68347
   R46        2.68550   0.00011  -0.00025   0.00054   0.00029   2.68578
   R47        2.62182   0.00010   0.00002   0.00015   0.00017   2.62199
   R48        2.04363  -0.00009   0.00008  -0.00031  -0.00023   2.04341
   R49        2.61946   0.00014   0.00004   0.00020   0.00024   2.61971
   R50        2.04942  -0.00011   0.00014  -0.00039  -0.00024   2.04917
   R51        2.65325  -0.00001   0.00006  -0.00007  -0.00001   2.65325
   R52        2.05623  -0.00002   0.00000  -0.00003  -0.00003   2.05621
   R53        2.65431  -0.00009   0.00008  -0.00020  -0.00012   2.65418
   R54        2.05580   0.00001   0.00000   0.00003   0.00003   2.05583
   R55        2.85205   0.00002  -0.00002   0.00001  -0.00001   2.85204
   R56        2.07100   0.00000   0.00000   0.00001   0.00001   2.07100
   R57        2.07672  -0.00001   0.00000  -0.00001  -0.00001   2.07671
   R58        2.91111   0.00001  -0.00001   0.00005   0.00004   2.91114
   R59        2.08788   0.00000   0.00000   0.00000   0.00001   2.08789
   R60        2.07268  -0.00000  -0.00000  -0.00001  -0.00001   2.07267
   R61        2.77066   0.00001   0.00000   0.00003   0.00004   2.77070
   R62        1.92711  -0.00000  -0.00000  -0.00001  -0.00001   1.92710
   R63        1.92525   0.00000  -0.00000   0.00000   0.00000   1.92525
    A1        2.12665  -0.00003  -0.00022   0.00037   0.00015   2.12680
    A2        2.06768   0.00008   0.00014  -0.00009   0.00005   2.06773
    A3        2.08884  -0.00005   0.00007  -0.00028  -0.00020   2.08864
    A4        2.04463  -0.00018   0.00045  -0.00113  -0.00067   2.04396
    A5        2.13329   0.00116   0.00033   0.00221   0.00255   2.13584
    A6        2.10524  -0.00099  -0.00080  -0.00108  -0.00188   2.10336
    A7        2.10887   0.00015  -0.00024   0.00065   0.00041   2.10928
    A8        2.09429  -0.00026  -0.00007  -0.00056  -0.00064   2.09365
    A9        2.07908   0.00011   0.00034  -0.00013   0.00021   2.07929
   A10        2.10729  -0.00003   0.00001   0.00009   0.00010   2.10739
   A11        2.24396   0.00007  -0.00008   0.00023   0.00015   2.24411
   A12        1.93192  -0.00005   0.00007  -0.00031  -0.00024   1.93168
   A13        2.08907   0.00002   0.00005  -0.00029  -0.00024   2.08883
   A14        1.89811   0.00002  -0.00007   0.00017   0.00010   1.89821
   A15        2.29598  -0.00004   0.00002   0.00013   0.00014   2.29612
   A16        2.08976   0.00007  -0.00006   0.00031   0.00026   2.09002
   A17        2.08611   0.00002  -0.00006   0.00006  -0.00000   2.08611
   A18        2.10731  -0.00009   0.00012  -0.00037  -0.00026   2.10706
   A19        1.76373   0.00004  -0.00006   0.00028   0.00022   1.76395
   A20        1.94470  -0.00002   0.00004   0.00004   0.00008   1.94478
   A21        1.94539  -0.00002  -0.00000  -0.00018  -0.00018   1.94521
   A22        1.94239   0.00000   0.00000   0.00011   0.00011   1.94250
   A23        1.94400  -0.00003   0.00001  -0.00021  -0.00021   1.94380
   A24        1.91954   0.00002   0.00001  -0.00002  -0.00001   1.91953
   A25        2.24884   0.00004  -0.00004   0.00022   0.00018   2.24902
   A26        1.93726  -0.00006   0.00005  -0.00029  -0.00024   1.93702
   A27        2.09709   0.00002  -0.00001   0.00007   0.00006   2.09714
   A28        2.07975   0.00001   0.00000   0.00004   0.00004   2.07979
   A29        2.11025  -0.00000  -0.00001   0.00000  -0.00001   2.11024
   A30        2.09319  -0.00001   0.00001  -0.00004  -0.00004   2.09315
   A31        2.10589  -0.00002   0.00001  -0.00008  -0.00008   2.10581
   A32        2.08872   0.00001  -0.00000   0.00005   0.00005   2.08877
   A33        2.08858   0.00001  -0.00000   0.00003   0.00003   2.08861
   A34        2.10426   0.00000  -0.00000   0.00003   0.00003   2.10428
   A35        2.08881  -0.00001   0.00001  -0.00004  -0.00003   2.08879
   A36        2.09012   0.00000  -0.00001   0.00001   0.00000   2.09012
   A37        2.07378   0.00001  -0.00000   0.00006   0.00005   2.07384
   A38        2.10125   0.00000  -0.00001   0.00004   0.00004   2.10129
   A39        2.10815  -0.00002   0.00001  -0.00010  -0.00009   2.10805
   A40        1.89372   0.00005   0.00001   0.00015   0.00015   1.89388
   A41        2.28385  -0.00002  -0.00002  -0.00003  -0.00005   2.28380
   A42        2.10561  -0.00002   0.00001  -0.00011  -0.00011   2.10551
   A43        1.93142  -0.00002   0.00000  -0.00010  -0.00010   1.93132
   A44        1.93192  -0.00000   0.00001   0.00000   0.00001   1.93193
   A45        1.93972   0.00001   0.00000   0.00006   0.00007   1.93978
   A46        1.88214   0.00001  -0.00002  -0.00001  -0.00002   1.88212
   A47        1.88872   0.00001  -0.00000   0.00003   0.00003   1.88874
   A48        1.88809  -0.00000   0.00000   0.00002   0.00002   1.88811
   A49        1.93149  -0.00000  -0.00000  -0.00000  -0.00001   1.93149
   A50        1.93176  -0.00000  -0.00001  -0.00003  -0.00005   1.93171
   A51        1.94004   0.00001   0.00001   0.00004   0.00005   1.94008
   A52        1.88176   0.00000   0.00002   0.00001   0.00003   1.88179
   A53        1.88835  -0.00000  -0.00000  -0.00000  -0.00001   1.88834
   A54        1.88859  -0.00000  -0.00000  -0.00001  -0.00001   1.88858
   A55        2.18034   0.00099   0.00003   0.00157   0.00160   2.18194
   A56        2.09975  -0.00102  -0.00047  -0.00093  -0.00141   2.09835
   A57        2.00305   0.00003   0.00045  -0.00062  -0.00017   2.00288
   A58        2.11685  -0.00025  -0.00035  -0.00021  -0.00056   2.11629
   A59        2.18445   0.00096   0.00012   0.00228   0.00239   2.18685
   A60        1.98135  -0.00071   0.00023  -0.00210  -0.00187   1.97948
   A61        2.16033   0.00008  -0.00013   0.00060   0.00047   2.16080
   A62        2.06461   0.00001   0.00056   0.00071   0.00127   2.06587
   A63        2.05622  -0.00010  -0.00035  -0.00136  -0.00171   2.05451
   A64        2.11891  -0.00004  -0.00026   0.00010  -0.00016   2.11875
   A65        1.98256  -0.00000   0.00029  -0.00051  -0.00021   1.98234
   A66        2.18118   0.00004  -0.00003   0.00041   0.00038   2.18157
   A67        2.15895  -0.00007  -0.00013   0.00016   0.00003   2.15898
   A68        2.05922  -0.00010  -0.00046  -0.00119  -0.00166   2.05756
   A69        2.06320   0.00016   0.00066   0.00097   0.00163   2.06483
   A70        2.00732   0.00024   0.00040  -0.00014   0.00027   2.00759
   A71        2.17754  -0.00057  -0.00033  -0.00127  -0.00161   2.17593
   A72        2.09829   0.00033  -0.00007   0.00142   0.00135   2.09965
   A73        1.87772   0.00062  -0.00076   0.00245   0.00169   1.87941
   A74        1.87660   0.00034  -0.00079   0.00170   0.00091   1.87750
   A75        1.70648  -0.00024   0.00103  -0.00153  -0.00050   1.70597
   A76        2.14282  -0.00005   0.00001   0.00008   0.00009   2.14291
   A77        2.10653   0.00006  -0.00040   0.00050   0.00010   2.10663
   A78        2.03376  -0.00001   0.00038  -0.00056  -0.00018   2.03358
   A79        2.11478  -0.00003  -0.00017   0.00015  -0.00002   2.11476
   A80        2.07734  -0.00001   0.00008  -0.00024  -0.00016   2.07718
   A81        2.09104   0.00005   0.00009   0.00008   0.00017   2.09121
   A82        2.12301  -0.00000  -0.00021   0.00030   0.00009   2.12310
   A83        2.09569  -0.00010  -0.00001  -0.00030  -0.00031   2.09539
   A84        2.06376   0.00010   0.00024  -0.00005   0.00019   2.06395
   A85        2.12669   0.00001  -0.00005   0.00015   0.00010   2.12679
   A86        2.07550   0.00004  -0.00005   0.00013   0.00008   2.07558
   A87        2.08097  -0.00005   0.00011  -0.00029  -0.00018   2.08079
   A88        2.11869  -0.00004  -0.00000  -0.00003  -0.00003   2.11866
   A89        2.08130   0.00009  -0.00009   0.00037   0.00028   2.08157
   A90        2.08320  -0.00005   0.00009  -0.00034  -0.00025   2.08295
   A91        2.04936   0.00007   0.00005  -0.00003   0.00002   2.04938
   A92        2.11991  -0.00002  -0.00002   0.00007   0.00004   2.11996
   A93        2.11332  -0.00005  -0.00002  -0.00005  -0.00007   2.11324
   A94        1.93311  -0.00000  -0.00001   0.00001   0.00000   1.93311
   A95        1.91479   0.00000   0.00001   0.00006   0.00007   1.91486
   A96        1.96618   0.00002  -0.00001   0.00010   0.00010   1.96627
   A97        1.86559   0.00000  -0.00001  -0.00003  -0.00004   1.86555
   A98        1.88368  -0.00001   0.00001  -0.00007  -0.00006   1.88361
   A99        1.89731  -0.00001   0.00001  -0.00008  -0.00007   1.89724
   A100       1.89962  -0.00000   0.00000  -0.00000   0.00000   1.89962
   A101       1.90059  -0.00001   0.00001  -0.00007  -0.00006   1.90052
   A102       1.92190   0.00002  -0.00000   0.00010   0.00009   1.92199
   A103       1.85889   0.00000  -0.00001  -0.00003  -0.00003   1.85886
   A104       1.99727  -0.00001  -0.00000  -0.00001  -0.00001   1.99726
   A105       1.88265  -0.00000   0.00000  -0.00000   0.00000   1.88265
   A106       1.91236  -0.00000   0.00001  -0.00001   0.00000   1.91236
   A107       1.91483   0.00001  -0.00000   0.00009   0.00009   1.91491
   A108       1.84832  -0.00000   0.00000   0.00000   0.00001   1.84833
    D1       -0.01376   0.00005   0.00070   0.00034   0.00103  -0.01273
    D2        3.12066  -0.00002  -0.00067   0.00057  -0.00010   3.12056
    D3        3.13178   0.00008   0.00043   0.00171   0.00213   3.13391
    D4       -0.01698   0.00001  -0.00094   0.00194   0.00100  -0.01598
    D5        0.01033   0.00001  -0.00046   0.00108   0.00062   0.01095
    D6       -3.12886   0.00001  -0.00051   0.00057   0.00006  -3.12880
    D7       -3.13526  -0.00002  -0.00018  -0.00031  -0.00049  -3.13576
    D8        0.00874  -0.00003  -0.00024  -0.00082  -0.00106   0.00768
    D9        0.00542  -0.00008  -0.00047  -0.00168  -0.00215   0.00327
   D10       -3.08910  -0.00008  -0.00112  -0.00064  -0.00176  -3.09086
   D11       -3.12912  -0.00002   0.00086  -0.00193  -0.00107  -3.13019
   D12        0.05955  -0.00002   0.00021  -0.00089  -0.00067   0.05887
   D13        0.28534   0.00017   0.00122   0.00413   0.00535   0.29069
   D14       -2.84525   0.00007  -0.00022   0.00135   0.00113  -2.84412
   D15       -2.86367   0.00011  -0.00017   0.00437   0.00420  -2.85948
   D16        0.28892   0.00000  -0.00162   0.00160  -0.00003   0.28890
   D17        0.00611   0.00006   0.00002   0.00162   0.00164   0.00774
   D18       -3.12863   0.00005  -0.00004   0.00138   0.00134  -3.12729
   D19        3.10103   0.00004   0.00065   0.00057   0.00123   3.10226
   D20       -0.03371   0.00004   0.00059   0.00034   0.00093  -0.03278
   D21       -0.00986   0.00000   0.00024  -0.00017   0.00007  -0.00979
   D22        3.13891  -0.00002   0.00009  -0.00099  -0.00089   3.13802
   D23        3.12600   0.00001   0.00029   0.00003   0.00032   3.12632
   D24       -0.00841  -0.00001   0.00014  -0.00079  -0.00064  -0.00905
   D25       -3.13935   0.00002  -0.00010   0.00080   0.00070  -3.13865
   D26        1.07912  -0.00000  -0.00009   0.00051   0.00042   1.07954
   D27       -1.07247  -0.00000  -0.00013   0.00063   0.00050  -1.07196
   D28        0.00854   0.00001  -0.00016   0.00059   0.00043   0.00897
   D29       -2.05617  -0.00001  -0.00015   0.00029   0.00015  -2.05602
   D30        2.07542  -0.00001  -0.00018   0.00042   0.00023   2.07566
   D31        0.00165  -0.00004  -0.00002  -0.00117  -0.00119   0.00045
   D32        3.14080  -0.00003   0.00003  -0.00066  -0.00062   3.14018
   D33        3.13416  -0.00001   0.00016  -0.00014   0.00002   3.13418
   D34       -0.00988  -0.00000   0.00021   0.00038   0.00059  -0.00928
   D35        0.00447   0.00001  -0.00006   0.00066   0.00060   0.00507
   D36       -3.13770   0.00001  -0.00001   0.00049   0.00048  -3.13722
   D37       -3.12879  -0.00002  -0.00023  -0.00029  -0.00052  -3.12931
   D38        0.01222  -0.00002  -0.00017  -0.00046  -0.00064   0.01159
   D39        3.13706  -0.00001   0.00004  -0.00033  -0.00028   3.13677
   D40       -0.00577  -0.00000   0.00012  -0.00018  -0.00005  -0.00583
   D41       -1.07974  -0.00000   0.00006  -0.00008  -0.00003  -1.07977
   D42        2.06062   0.00000   0.00014   0.00007   0.00020   2.06082
   D43        1.06917   0.00000   0.00007  -0.00018  -0.00011   1.06907
   D44       -2.07365   0.00001   0.00015  -0.00003   0.00012  -2.07353
   D45        3.07340   0.00002   0.00003   0.00035   0.00037   3.07378
   D46       -1.12413   0.00002   0.00001   0.00027   0.00028  -1.12385
   D47        0.97440   0.00002   0.00002   0.00034   0.00036   0.97477
   D48        1.11933  -0.00002   0.00007  -0.00008  -0.00000   1.11933
   D49       -3.07821  -0.00002   0.00006  -0.00015  -0.00009  -3.07830
   D50       -0.97967  -0.00002   0.00007  -0.00009  -0.00002  -0.97968
   D51       -1.04352   0.00000   0.00006   0.00013   0.00019  -1.04333
   D52        1.04212  -0.00000   0.00004   0.00006   0.00010   1.04222
   D53        3.14066   0.00000   0.00006   0.00012   0.00018   3.14084
   D54        1.12490  -0.00001   0.00008  -0.00049  -0.00042   1.12448
   D55       -3.07317  -0.00001   0.00008  -0.00050  -0.00041  -3.07359
   D56       -0.97390  -0.00002   0.00008  -0.00051  -0.00043  -0.97433
   D57        3.08030   0.00001   0.00001  -0.00038  -0.00037   3.07993
   D58       -1.11777   0.00001   0.00002  -0.00039  -0.00037  -1.11814
   D59        0.98151   0.00001   0.00001  -0.00040  -0.00039   0.98112
   D60       -1.04096   0.00000   0.00002  -0.00040  -0.00038  -1.04134
   D61        1.04415   0.00000   0.00003  -0.00041  -0.00038   1.04377
   D62       -3.13976   0.00000   0.00002  -0.00042  -0.00040  -3.14016
   D63        3.14009   0.00001   0.00005   0.00016   0.00020   3.14029
   D64       -0.00108   0.00000   0.00005   0.00014   0.00019  -0.00089
   D65       -0.00017   0.00000  -0.00004  -0.00001  -0.00005  -0.00022
   D66       -3.14134  -0.00000  -0.00003  -0.00002  -0.00006  -3.14140
   D67        0.00120  -0.00001  -0.00005  -0.00028  -0.00032   0.00088
   D68       -3.13989  -0.00001  -0.00009  -0.00013  -0.00022  -3.14011
   D69       -3.14151  -0.00000   0.00003  -0.00014  -0.00011   3.14156
   D70        0.00059  -0.00000  -0.00002   0.00001  -0.00001   0.00058
   D71       -0.00022   0.00000   0.00005   0.00003   0.00008  -0.00014
   D72        3.14159   0.00000   0.00002   0.00008   0.00010  -3.14150
   D73        3.14095   0.00000   0.00004   0.00004   0.00009   3.14104
   D74       -0.00043   0.00000   0.00001   0.00009   0.00011  -0.00032
   D75        0.00020  -0.00000  -0.00001  -0.00005  -0.00006   0.00014
   D76       -3.14144  -0.00000  -0.00002   0.00001  -0.00002  -3.14146
   D77        3.14158  -0.00000   0.00003  -0.00010  -0.00007   3.14151
   D78       -0.00006  -0.00000   0.00001  -0.00004  -0.00003  -0.00009
   D79        0.00021   0.00000  -0.00005   0.00005  -0.00000   0.00021
   D80       -3.14152  -0.00000  -0.00001  -0.00004  -0.00005  -3.14158
   D81       -3.14133  -0.00000  -0.00004  -0.00001  -0.00004  -3.14138
   D82        0.00011  -0.00000   0.00000  -0.00010  -0.00009   0.00002
   D83       -3.14156   0.00000   0.00001   0.00016   0.00017  -3.14140
   D84       -0.00061   0.00000   0.00007  -0.00003   0.00004  -0.00057
   D85        0.00017   0.00000  -0.00003   0.00025   0.00022   0.00039
   D86        3.14113   0.00000   0.00003   0.00006   0.00009   3.14122
   D87        3.11982  -0.00010  -0.00139  -0.00482  -0.00621   3.11360
   D88        0.01563  -0.00002  -0.00128  -0.00345  -0.00473   0.01089
   D89       -0.03224  -0.00001  -0.00000  -0.00219  -0.00220  -0.03444
   D90       -3.13643   0.00007   0.00010  -0.00082  -0.00072  -3.13715
   D91       -3.11864   0.00010   0.00129   0.00450   0.00578  -3.11286
   D92        0.09290   0.00010   0.00002   0.00540   0.00540   0.09830
   D93        0.03289   0.00000  -0.00003   0.00198   0.00196   0.03485
   D94       -3.03876   0.00000  -0.00130   0.00288   0.00158  -3.03718
   D95        0.00021   0.00000  -0.00001   0.00039   0.00038   0.00059
   D96       -3.10784   0.00000  -0.00016   0.00027   0.00011  -3.10773
   D97        3.10846  -0.00004  -0.00011  -0.00075  -0.00086   3.10760
   D98        0.00041  -0.00004  -0.00026  -0.00087  -0.00113  -0.00072
   D99        3.11397  -0.00003   0.00034  -0.00120  -0.00086   3.11311
   D100       0.00724   0.00004   0.00045   0.00005   0.00050   0.00774
   D101       0.00029   0.00001   0.00009   0.00018   0.00027   0.00055
   D102      -3.07536   0.00002  -0.00104   0.00129   0.00026  -3.07510
   D103       3.07225   0.00002   0.00140  -0.00064   0.00075   3.07300
   D104      -0.00340   0.00003   0.00027   0.00047   0.00074  -0.00266
   D105       0.03219   0.00001   0.00006   0.00173   0.00179   0.03399
   D106      -3.11826   0.00004   0.00097   0.00282   0.00380  -3.11446
   D107       3.13627   0.00002   0.00023   0.00185   0.00208   3.13835
   D108      -0.01418   0.00005   0.00115   0.00293   0.00408  -0.01010
   D109      -0.00783   0.00002  -0.00007   0.00121   0.00114  -0.00670
   D110      -3.11448   0.00002  -0.00023   0.00109   0.00087  -3.11362
   D111      -0.03328  -0.00003  -0.00010  -0.00207  -0.00217  -0.03546
   D112       3.11673  -0.00005  -0.00098  -0.00309  -0.00407   3.11266
   D113       3.04222  -0.00005   0.00098  -0.00326  -0.00228   3.03994
   D114      -0.09095  -0.00007   0.00010  -0.00428  -0.00417  -0.09512
   D115      -0.33559  -0.00005  -0.00080  -0.00119  -0.00200  -0.33759
   D116       2.81940  -0.00009   0.00004  -0.00341  -0.00337   2.81603
   D117       2.79671  -0.00002   0.00015  -0.00006   0.00009   2.79681
   D118      -0.33148  -0.00006   0.00100  -0.00228  -0.00128  -0.33275
   D119      -0.01040  -0.00003  -0.00044   0.00057   0.00012  -0.01027
   D120       0.01061   0.00000   0.00030  -0.00106  -0.00076   0.00985
   D121      -3.11788  -0.00002   0.00045  -0.00132  -0.00088  -3.11876
   D122       0.01553  -0.00004   0.00070  -0.00215  -0.00146   0.01407
   D123       0.01083   0.00001  -0.00038   0.00082   0.00044   0.01127
   D124      -3.13895  -0.00000  -0.00013  -0.00001  -0.00014  -3.13909
   D125       3.12762   0.00005  -0.00062   0.00248   0.00186   3.12948
   D126      -0.05553   0.00003  -0.00006   0.00116   0.00111  -0.05442
   D127      -0.00138   0.00002   0.00019   0.00039   0.00057  -0.00081
   D128       3.09866  -0.00000   0.00075  -0.00093  -0.00018   3.09848
   D129      -0.01115  -0.00003   0.00031  -0.00111  -0.00080  -0.01195
   D130       3.12264  -0.00002   0.00035  -0.00071  -0.00036   3.12227
   D131       3.13870  -0.00001   0.00006  -0.00028  -0.00021   3.13848
   D132      -0.01071  -0.00000   0.00009   0.00013   0.00022  -0.01049
   D133      -0.00814  -0.00004   0.00009  -0.00135  -0.00127  -0.00941
   D134       3.13159  -0.00003   0.00023  -0.00109  -0.00086   3.13074
   D135      -3.10891  -0.00001  -0.00046  -0.00005  -0.00051  -3.10943
   D136       0.03082  -0.00000  -0.00032   0.00021  -0.00010   0.03072
   D137       0.00149   0.00001  -0.00003   0.00016   0.00013   0.00161
   D138      -3.10329   0.00001  -0.00020   0.00047   0.00027  -3.10303
   D139      -3.13227  -0.00000  -0.00006  -0.00025  -0.00031  -3.13258
   D140       0.04613   0.00000  -0.00024   0.00007  -0.00017   0.04596
   D141       0.00807   0.00002  -0.00017   0.00106   0.00089   0.00896
   D142       3.11299   0.00002   0.00001   0.00075   0.00076   3.11375
   D143      -3.13167   0.00002  -0.00031   0.00080   0.00048  -3.13118
   D144      -0.02674   0.00001  -0.00014   0.00048   0.00035  -0.02639
   D145      -2.62408  -0.00000   0.00007  -0.00044  -0.00037  -2.62446
   D146      -0.56870  -0.00000   0.00005  -0.00043  -0.00038  -0.56908
   D147       1.54743  -0.00000   0.00007  -0.00043  -0.00036   1.54707
   D148       0.55567  -0.00000  -0.00012  -0.00011  -0.00023   0.55543
   D149       2.61105   0.00000  -0.00013  -0.00011  -0.00024   2.61081
   D150      -1.55601  -0.00000  -0.00012  -0.00010  -0.00022  -1.55622
   D151      -0.98322   0.00000   0.00004   0.00039   0.00043  -0.98279
   D152       1.03662  -0.00000   0.00004   0.00032   0.00036   1.03698
   D153       3.09755  -0.00000   0.00005   0.00033   0.00038   3.09792
   D154      -3.12289  -0.00000   0.00005   0.00036   0.00041  -3.12248
   D155      -1.10305  -0.00000   0.00005   0.00029   0.00034  -1.10271
   D156       0.95788  -0.00000   0.00006   0.00030   0.00036   0.95823
   D157       1.14284   0.00001   0.00006   0.00048   0.00053   1.14337
   D158      -3.12051   0.00000   0.00005   0.00041   0.00046  -3.12005
   D159      -1.05958   0.00001   0.00006   0.00042   0.00048  -1.05910
   D160       1.19717   0.00000   0.00002   0.00027   0.00029   1.19746
   D161      -3.06380   0.00000   0.00003   0.00032   0.00034  -3.06345
   D162      -0.94902  -0.00000   0.00002   0.00020   0.00022  -0.94880
   D163       1.07320  -0.00000   0.00003   0.00025   0.00028   1.07347
   D164      -3.01406   0.00000   0.00003   0.00024   0.00027  -3.01379
   D165      -0.99185   0.00000   0.00004   0.00029   0.00032  -0.99152
         Item               Value     Threshold  Converged?
 Maximum Force            0.001162     0.000450     NO 
 RMS     Force            0.000188     0.000300     YES
 Maximum Displacement     0.050492     0.001800     NO 
 RMS     Displacement     0.012140     0.001200     NO 
 Predicted change in Energy=-1.608179D-05
 Lowest energy point so far.  Saving SCF results.
 GradGradGradGradGradGradGradGradGradGradGradGradGradGradGradGradGradGrad

 Leave Link  103 at Thu Mar 14 09:25:21 2024, MaxMem= 32212254720 cpu:               2.4 elap:               0.1
 (Enter /home/<user>/g16/l202.exe)
 Stoichiometry    C29H25N3S(3)
 Framework group  C1[X(C29H25N3S)]
 Deg. of freedom   168
 Full point group                 C1      NOp   1
 RotChk:  IX=0 Diff= 2.84D-03
 Largest Abelian subgroup         C1      NOp   1
 Largest concise Abelian subgroup C1      NOp   1
                         Standard orientation:                         
 ---------------------------------------------------------------------
 Center     Atomic      Atomic             Coordinates (Angstroms)
 Number     Number       Type             X           Y           Z
 ---------------------------------------------------------------------
      1          6           0       -2.481354    1.686403   -0.247693
      2          6           0       -1.781639    0.443934   -0.163972
      3          6           0       -2.571221   -0.740829   -0.025373
      4          6           0       -3.946471   -0.672071    0.020024
      5          6           0       -4.612058    0.572456   -0.078810
      6          6           0       -3.864795    1.750265   -0.212689
      7          1           0       -1.906052    2.596202   -0.345542
      8          1           0       -2.086623   -1.704208    0.089764
      9          1           0       -4.358656    2.715406   -0.291319
     10          6           0       -4.954076   -1.812449    0.179937
     11          6           0       -6.275089   -1.043952    0.144383
     12          6           0       -7.571770   -1.534308    0.239068
     13          6           0       -8.646243   -0.637691    0.183486
     14          6           0       -8.422379    0.736513    0.034642
     15          6           0       -7.124162    1.237400   -0.061183
     16          6           0       -6.049911    0.342267   -0.006179
     17          1           0       -7.759175   -2.599193    0.355404
     18          1           0       -9.663754   -1.012071    0.256802
     19          1           0       -9.267743    1.417992   -0.006496
     20          1           0       -6.953611    2.304564   -0.176643
     21          6           0       -4.767491   -2.545889    1.527303
     22          1           0       -5.538000   -3.314278    1.659230
     23          1           0       -3.789974   -3.040295    1.567034
     24          1           0       -4.831994   -1.848633    2.368580
     25          6           0       -4.857207   -2.819891   -0.987390
     26          1           0       -3.881317   -3.319156   -0.987553
     27          1           0       -5.629295   -3.592647   -0.896848
     28          1           0       -4.985410   -2.319743   -1.952609
     29          6           0       -0.341058    0.362102   -0.224885
     30          6           0        0.562460    1.475059   -0.031334
     31          6           0        0.308566   -0.907524   -0.506422
     32          6           0        2.020330    1.290928   -0.077268
     33          6           0        1.656767   -1.074083   -0.548833
     34          1           0       -0.312233   -1.758435   -0.758349
     35          6           0        2.606741   -0.004498   -0.317465
     36          1           0        2.038494   -2.048494   -0.829542
     37          7           0        0.195940    2.723766    0.240639
     38          7           0        2.705597    2.406663    0.160643
     39         16           0        1.594301    3.638589    0.420293
     40          6           0        4.033394   -0.273001   -0.345521
     41          6           0        5.003917    0.746057   -0.535517
     42          6           0        4.525541   -1.597784   -0.194828
     43          6           0        6.358172    0.447983   -0.583416
     44          1           0        4.674109    1.769219   -0.652267
     45          6           0        5.882640   -1.878222   -0.232688
     46          1           0        3.837611   -2.414604   -0.006600
     47          6           0        6.833835   -0.864473   -0.433328
     48          1           0        7.069078    1.254961   -0.748812
     49          1           0        6.217309   -2.905189   -0.102852
     50          6           0        8.311350   -1.172245   -0.437783
     51          1           0        8.497185   -2.179263   -0.828215
     52          1           0        8.834159   -0.470566   -1.102614
     53          6           0        8.940084   -1.084485    0.965842
     54          1           0        8.744212   -0.080065    1.382367
     55          1           0        8.435121   -1.799691    1.626514
     56          7           0       10.358613   -1.450567    0.906914
     57          1           0       10.875578   -0.733596    0.398343
     58          1           0       10.749863   -1.462499    1.847516
 ---------------------------------------------------------------------
 Rotational constants (GHZ):           0.3478470           0.0397410           0.0363077
 Leave Link  202 at Thu Mar 14 09:25:21 2024, MaxMem= 32212254720 cpu:               0.1 elap:               0.0
 (Enter /home/<user>/g16/l301.exe)
 Standard basis: 6-31G(d) (6D, 7F)
 Ernie: Thresh=  0.10000D-02 Tol=  0.10000D-05 Strict=F.
 There are   549 symmetry adapted cartesian basis functions of A   symmetry.
 There are   549 symmetry adapted basis functions of A   symmetry.
   549 basis functions,  1048 primitive gaussians,   549 cartesian basis functions
   119 alpha electrons      117 beta electrons
       nuclear repulsion energy      3072.4046032161 Hartrees.
 IExCor=  402 DFT=T Ex+Corr=B3LYP ExCW=0 ScaHFX=  0.200000
 ScaDFX=  0.800000  0.720000  1.000000  0.810000 ScalE2=  1.000000  1.000000
 IRadAn=      5 IRanWt=     -1 IRanGd=            0 ICorTp=0 IEmpDi=  4
 NAtoms=   58 NActive=   58 NUniq=   58 SFac= 1.00D+00 NAtFMM=   60 NAOKFM=F Big=F
 Integral buffers will be    131072 words long.
 Raffenetti 2 integral format.
 Two-electron integral symmetry is turned on.
 Leave Link  301 at Thu Mar 14 09:25:21 2024, MaxMem= 32212254720 cpu:               0.8 elap:               0.0
 (Enter /home/<user>/g16/l302.exe)
 NPDir=0 NMtPBC=     1 NCelOv=     1 NCel=       1 NClECP=     1 NCelD=      1
         NCelK=      1 NCelE2=     1 NClLst=     1 CellRange=     0.0.
 One-electron integrals computed using PRISM.
 One-electron integral symmetry used in STVInt
 NBasis=   549 RedAO= T EigKep=  2.73D-04  NBF=   549
 NBsUse=   549 1.00D-06 EigRej= -1.00D+00 NBFU=   549
 Precomputing XC quadrature grid using
 IXCGrd= 4 IRadAn=           5 IRanWt=          -1 IRanGd=           0 AccXCQ= 0.00D+00.
 Generated NRdTot=       0 NPtTot=           0 NUsed=           0 NTot=          32
 NSgBfM=   512   512   512   512   512 MxSgAt=    58 MxSgA2=    58.
 Leave Link  302 at Thu Mar 14 09:25:22 2024, MaxMem= 32212254720 cpu:              14.2 elap:               0.5
 (Enter /home/<user>/g16/l303.exe)
 DipDrv:  MaxL=1.
 Leave Link  303 at Thu Mar 14 09:25:22 2024, MaxMem= 32212254720 cpu:               1.4 elap:               0.1
 (Enter /home/<user>/g16/l401.exe)
 Initial guess from the checkpoint file:  "FBTP_T1opt.chk"
 B after Tr=    -0.000000    0.000000    0.000000
         Rot=    1.000000   -0.000450   -0.000027    0.000046 Ang=  -0.05 deg.
 Guess basis will be translated and rotated to current coordinates.
 JPrj=2 DoOrth=T DoCkMO=T.
 Initial guess <Sx>= 0.0000 <Sy>= 0.0000 <Sz>= 1.0000 <S**2>= 2.0369 S= 1.0122
 Generating alternative initial guess.
 ExpMin= 1.17D-01 ExpMax= 2.19D+04 ExpMxC= 3.30D+03 IAcc=3 IRadAn=         5 AccDes= 0.00D+00
 Harris functional with IExCor=  402 and IRadAn=       5 diagonalized for initial guess.
 HarFok:  IExCor=  402 AccDes= 0.00D+00 IRadAn=         5 IDoV= 1 UseB2=F ITyADJ=14
 ICtDFT=  3500011 ScaDFX=  1.000000  1.000000  1.000000  1.000000
 FoFCou: FMM=F IPFlag=           0 FMFlag=      100000 FMFlg1=           0
         NFxFlg=           0 DoJE=T BraDBF=F KetDBF=T FulRan=T
         wScrn=  0.000000 ICntrl=       500 IOpCl=  0 I1Cent=   200000004 NGrid=           0
         NMat0=    1 NMatS0=      1 NMatT0=    0 NMatD0=    1 NMtDS0=    0 NMtDT0=    0
 Petite list used in FoFCou.
 Harris En= -1682.50340975156    
 Leave Link  401 at Thu Mar 14 09:25:23 2024, MaxMem= 32212254720 cpu:              47.2 elap:               1.6
 (Enter /home/<user>/g16/l502.exe)
 Integral symmetry usage will be decided dynamically.
 UHF open shell SCF:
 Using DIIS extrapolation, IDIIS=  1040.
 NGot= 32212254720 LenX= 32211628124 LenY= 32211326174
 Requested convergence on RMS density matrix=1.00D-08 within 128 cycles.
 Requested convergence on MAX density matrix=1.00D-06.
 Requested convergence on             energy=1.00D-06.
 No special actions if energy rises.
 Fock matrices will be formed incrementally for  20 cycles.
 Integral accuracy reduced to 1.0D-05 until final iterations.

 Cycle   1  Pass 0  IDiag  1:
 FoFJK:  IHMeth= 1 ICntrl=       0 DoSepK=F KAlg= 0 I1Cent=           0 FoldK=F
 IRaf= 550000000 NMat=       1 IRICut=       1 DoRegI=T DoRafI=F ISym2E= 0 IDoP0=0 IntGTp=1.
 FoFCou: FMM=F IPFlag=           0 FMFlag=      100000 FMFlg1=           0
         NFxFlg=           0 DoJE=F BraDBF=F KetDBF=F FulRan=T
         wScrn=  0.000000 ICntrl=         0 IOpCl=  1 I1Cent=           0 NGrid=           0
         NMat0=    1 NMatS0=      1 NMatT0=    0 NMatD0=    1 NMtDS0=    0 NMtDT0=    0
 Symmetry not used in FoFCou.
 E= -1682.54362304224    
 DIIS: error= 3.24D-04 at cycle   1 NSaved=   1.
 NSaved= 1 IEnMin= 1 EnMin= -1682.54362304224     IErMin= 1 ErrMin= 3.24D-04
 ErrMax= 3.24D-04  0.00D+00 EMaxC= 1.00D-01 BMatC= 5.70D-04 BMatP= 5.70D-04
 IDIUse=3 WtCom= 9.97D-01 WtEn= 3.24D-03
 Coeff-Com:  0.100D+01
 Coeff-En:   0.100D+01
 Coeff:      0.100D+01
 Gap=     1.902 Goal=   None    Shift=    0.000
 Gap=     1.983 Goal=   None    Shift=    0.000
 RMSDP=7.82D-05 MaxDP=2.41D-03              OVMax= 2.30D-03

 Cycle   2  Pass 0  IDiag  1:
 RMSU=  7.82D-05    CP:  1.00D+00
 E= -1682.54388420060     Delta-E=       -0.000261158363 Rises=F Damp=F
 DIIS: error= 3.93D-05 at cycle   2 NSaved=   2.
 NSaved= 2 IEnMin= 2 EnMin= -1682.54388420060     IErMin= 2 ErrMin= 3.93D-05
 ErrMax= 3.93D-05  0.00D+00 EMaxC= 1.00D-01 BMatC= 9.97D-06 BMatP= 5.70D-04
 IDIUse=1 WtCom= 1.00D+00 WtEn= 0.00D+00
 Coeff-Com: -0.632D-01 0.106D+01
 Coeff:     -0.632D-01 0.106D+01
 Gap=     0.092 Goal=   None    Shift=    0.000
 Gap=     0.080 Goal=   None    Shift=    0.000
 RMSDP=8.66D-06 MaxDP=3.67D-04 DE=-2.61D-04 OVMax= 7.79D-04

 Initial convergence to 1.0D-05 achieved.  Increase integral accuracy.
 Cycle   3  Pass 1  IDiag  1:
 E= -1682.54392249425     Delta-E=       -0.000038293647 Rises=F Damp=F
 DIIS: error= 1.15D-04 at cycle   1 NSaved=   1.
 NSaved= 1 IEnMin= 1 EnMin= -1682.54392249425     IErMin= 1 ErrMin= 1.15D-04
 ErrMax= 1.15D-04  0.00D+00 EMaxC= 1.00D-01 BMatC= 2.79D-05 BMatP= 2.79D-05
 IDIUse=3 WtCom= 9.99D-01 WtEn= 1.15D-03
 Coeff-Com:  0.100D+01
 Coeff-En:   0.100D+01
 Coeff:      0.100D+01
 Gap=     0.092 Goal=   None    Shift=    0.000
 Gap=     0.080 Goal=   None    Shift=    0.000
 RMSDP=8.66D-06 MaxDP=3.67D-04 DE=-3.83D-05 OVMax= 1.59D-03

 Cycle   4  Pass 1  IDiag  1:
 RMSU=  7.01D-05    CP:  1.00D+00
 E= -1682.54390972417     Delta-E=        0.000012770081 Rises=F Damp=F
 DIIS: error= 1.80D-04 at cycle   2 NSaved=   2.
 NSaved= 2 IEnMin= 1 EnMin= -1682.54392249425     IErMin= 1 ErrMin= 1.15D-04
 ErrMax= 1.80D-04  0.00D+00 EMaxC= 1.00D-01 BMatC= 7.55D-05 BMatP= 2.79D-05
 IDIUse=3 WtCom= 4.27D-01 WtEn= 5.73D-01
 Coeff-Com:  0.639D+00 0.361D+00
 Coeff-En:   0.727D+00 0.273D+00
 Coeff:      0.690D+00 0.310D+00
 Gap=     0.092 Goal=   None    Shift=    0.000
 Gap=     0.080 Goal=   None    Shift=    0.000
 RMSDP=9.84D-06 MaxDP=7.11D-04 DE= 1.28D-05 OVMax= 1.23D-03

 Cycle   5  Pass 1  IDiag  1:
 RMSU=  9.68D-06    CP:  1.00D+00  9.74D-01
 E= -1682.54392862805     Delta-E=       -0.000018903880 Rises=F Damp=F
 DIIS: error= 2.58D-05 at cycle   3 NSaved=   3.
 NSaved= 3 IEnMin= 3 EnMin= -1682.54392862805     IErMin= 3 ErrMin= 2.58D-05
 ErrMax= 2.58D-05  0.00D+00 EMaxC= 1.00D-01 BMatC= 1.78D-06 BMatP= 2.79D-05
 IDIUse=1 WtCom= 1.00D+00 WtEn= 0.00D+00
 Coeff-Com:  0.173D+00 0.120D+00 0.707D+00
 Coeff:      0.173D+00 0.120D+00 0.707D+00
 Gap=     0.092 Goal=   None    Shift=    0.000
 Gap=     0.080 Goal=   None    Shift=    0.000
 RMSDP=2.96D-06 MaxDP=1.85D-04 DE=-1.89D-05 OVMax= 4.04D-04

 Cycle   6  Pass 1  IDiag  1:
 RMSU=  2.81D-06    CP:  1.00D+00  9.81D-01  9.18D-01
 E= -1682.54392865068     Delta-E=       -0.000000022634 Rises=F Damp=F
 DIIS: error= 1.94D-05 at cycle   4 NSaved=   4.
 NSaved= 4 IEnMin= 4 EnMin= -1682.54392865068     IErMin= 4 ErrMin= 1.94D-05
 ErrMax= 1.94D-05  0.00D+00 EMaxC= 1.00D-01 BMatC= 1.68D-06 BMatP= 1.78D-06
 IDIUse=1 WtCom= 1.00D+00 WtEn= 0.00D+00
 Coeff-Com:  0.409D-02 0.164D-01 0.494D+00 0.486D+00
 Coeff:      0.409D-02 0.164D-01 0.494D+00 0.486D+00
 Gap=     0.092 Goal=   None    Shift=    0.000
 Gap=     0.080 Goal=   None    Shift=    0.000
 RMSDP=1.52D-06 MaxDP=1.01D-04 DE=-2.26D-08 OVMax= 2.35D-04

 Cycle   7  Pass 1  IDiag  1:
 RMSU=  4.83D-07    CP:  1.00D+00  9.83D-01  9.53D-01  5.02D-01
 E= -1682.54392910026     Delta-E=       -0.000000449585 Rises=F Damp=F
 DIIS: error= 4.19D-06 at cycle   5 NSaved=   5.
 NSaved= 5 IEnMin= 5 EnMin= -1682.54392910026     IErMin= 5 ErrMin= 4.19D-06
 ErrMax= 4.19D-06  0.00D+00 EMaxC= 1.00D-01 BMatC= 4.22D-08 BMatP= 1.68D-06
 IDIUse=1 WtCom= 1.00D+00 WtEn= 0.00D+00
 Coeff-Com: -0.149D-02 0.701D-02 0.280D+00 0.291D+00 0.423D+00
 Coeff:     -0.149D-02 0.701D-02 0.280D+00 0.291D+00 0.423D+00
 Gap=     0.092 Goal=   None    Shift=    0.000
 Gap=     0.080 Goal=   None    Shift=    0.000
 RMSDP=2.77D-07 MaxDP=1.77D-05 DE=-4.50D-07 OVMax= 3.50D-05

 Cycle   8  Pass 1  IDiag  1:
 RMSU=  1.51D-07    CP:  1.00D+00  9.83D-01  9.54D-01  5.12D-01  5.24D-01
 E= -1682.54392911167     Delta-E=       -0.000000011404 Rises=F Damp=F
 DIIS: error= 1.11D-06 at cycle   6 NSaved=   6.
 NSaved= 6 IEnMin= 6 EnMin= -1682.54392911167     IErMin= 6 ErrMin= 1.11D-06
 ErrMax= 1.11D-06  0.00D+00 EMaxC= 1.00D-01 BMatC= 2.42D-09 BMatP= 4.22D-08
 IDIUse=1 WtCom= 1.00D+00 WtEn= 0.00D+00
 Coeff-Com: -0.116D-02 0.267D-02 0.120D+00 0.127D+00 0.241D+00 0.509D+00
 Coeff:     -0.116D-02 0.267D-02 0.120D+00 0.127D+00 0.241D+00 0.509D+00
 Gap=     0.092 Goal=   None    Shift=    0.000
 Gap=     0.080 Goal=   None    Shift=    0.000
 RMSDP=7.36D-08 MaxDP=5.89D-06 DE=-1.14D-08 OVMax= 1.20D-05

 Cycle   9  Pass 1  IDiag  1:
 RMSU=  6.34D-08    CP:  1.00D+00  9.83D-01  9.54D-01  5.09D-01  5.46D-01
                    CP:  7.66D-01
 E= -1682.54392911244     Delta-E=       -0.000000000767 Rises=F Damp=F
 DIIS: error= 4.36D-07 at cycle   7 NSaved=   7.
 NSaved= 7 IEnMin= 7 EnMin= -1682.54392911244     IErMin= 7 ErrMin= 4.36D-07
 ErrMax= 4.36D-07  0.00D+00 EMaxC= 1.00D-01 BMatC= 2.62D-10 BMatP= 2.42D-09
 IDIUse=1 WtCom= 1.00D+00 WtEn= 0.00D+00
 Coeff-Com: -0.305D-03 0.210D-03 0.155D-01 0.179D-01 0.523D-01 0.229D+00
 Coeff-Com:  0.685D+00
 Coeff:     -0.305D-03 0.210D-03 0.155D-01 0.179D-01 0.523D-01 0.229D+00
 Coeff:      0.685D+00
 Gap=     0.092 Goal=   None    Shift=    0.000
 Gap=     0.080 Goal=   None    Shift=    0.000
 RMSDP=4.27D-08 MaxDP=4.80D-06 DE=-7.67D-10 OVMax= 1.59D-05

 Cycle  10  Pass 1  IDiag  1:
 RMSU=  3.37D-08    CP:  1.00D+00  9.83D-01  9.54D-01  5.08D-01  5.60D-01
                    CP:  9.24D-01  1.12D+00
 E= -1682.54392911262     Delta-E=       -0.000000000186 Rises=F Damp=F
 DIIS: error= 4.53D-07 at cycle   8 NSaved=   8.
 NSaved= 8 IEnMin= 8 EnMin= -1682.54392911262     IErMin= 7 ErrMin= 4.36D-07
 ErrMax= 4.53D-07  0.00D+00 EMaxC= 1.00D-01 BMatC= 2.05D-10 BMatP= 2.62D-10
 IDIUse=1 WtCom= 1.00D+00 WtEn= 0.00D+00
 Coeff-Com:  0.402D-03-0.136D-02-0.562D-01-0.580D-01-0.931D-01-0.887D-01
 Coeff-Com:  0.598D+00 0.699D+00
 Coeff:      0.402D-03-0.136D-02-0.562D-01-0.580D-01-0.931D-01-0.887D-01
 Coeff:      0.598D+00 0.699D+00
 Gap=     0.092 Goal=   None    Shift=    0.000
 Gap=     0.080 Goal=   None    Shift=    0.000
 RMSDP=3.54D-08 MaxDP=4.08D-06 DE=-1.86D-10 OVMax= 1.11D-05

 Cycle  11  Pass 1  IDiag  1:
 RMSU=  2.20D-08    CP:  1.00D+00  9.83D-01  9.54D-01  5.09D-01  5.79D-01
                    CP:  1.02D+00  1.46D+00  1.00D+00
 E= -1682.54392911268     Delta-E=       -0.000000000056 Rises=F Damp=F
 DIIS: error= 1.83D-07 at cycle   9 NSaved=   9.
 NSaved= 9 IEnMin= 9 EnMin= -1682.54392911268     IErMin= 9 ErrMin= 1.83D-07
 ErrMax= 1.83D-07  0.00D+00 EMaxC= 1.00D-01 BMatC= 3.62D-11 BMatP= 2.05D-10
 IDIUse=1 WtCom= 1.00D+00 WtEn= 0.00D+00
 Coeff-Com:  0.317D-03-0.883D-03-0.382D-01-0.397D-01-0.686D-01-0.106D+00
 Coeff-Com:  0.228D+00 0.429D+00 0.596D+00
 Coeff:      0.317D-03-0.883D-03-0.382D-01-0.397D-01-0.686D-01-0.106D+00
 Coeff:      0.228D+00 0.429D+00 0.596D+00
 Gap=     0.092 Goal=   None    Shift=    0.000
 Gap=     0.080 Goal=   None    Shift=    0.000
 RMSDP=1.73D-08 MaxDP=2.22D-06 DE=-5.64D-11 OVMax= 7.34D-06

 Cycle  12  Pass 1  IDiag  1:
 RMSU=  9.72D-09    CP:  1.00D+00  9.83D-01  9.54D-01  5.08D-01  5.85D-01
                    CP:  1.07D+00  1.61D+00  1.23D+00  9.96D-01
 E= -1682.54392911275     Delta-E=       -0.000000000073 Rises=F Damp=F
 DIIS: error= 1.06D-07 at cycle  10 NSaved=  10.
 NSaved=10 IEnMin=10 EnMin= -1682.54392911275     IErMin=10 ErrMin= 1.06D-07
 ErrMax= 1.06D-07  0.00D+00 EMaxC= 1.00D-01 BMatC= 9.98D-12 BMatP= 3.62D-11
 IDIUse=1 WtCom= 1.00D+00 WtEn= 0.00D+00
 Coeff-Com:  0.921D-04-0.182D-03-0.906D-02-0.948D-02-0.186D-01-0.449D-01
 Coeff-Com: -0.133D-01 0.762D-01 0.376D+00 0.643D+00
 Coeff:      0.921D-04-0.182D-03-0.906D-02-0.948D-02-0.186D-01-0.449D-01
 Coeff:     -0.133D-01 0.762D-01 0.376D+00 0.643D+00
 Gap=     0.092 Goal=   None    Shift=    0.000
 Gap=     0.080 Goal=   None    Shift=    0.000
 RMSDP=7.73D-09 MaxDP=8.96D-07 DE=-7.28D-11 OVMax= 2.08D-06

 SCF Done:  E(UB3LYP) =  -1682.54392911     A.U. after   12 cycles
            NFock= 12  Conv=0.77D-08     -V/T= 2.0082
 <Sx>= 0.0000 <Sy>= 0.0000 <Sz>= 1.0000 <S**2>= 2.0368 S= 1.0122
 <L.S>= 0.000000000000E+00
 KE= 1.668877503334D+03 PE=-1.006677432187D+04 EE= 3.642948286210D+03
 Annihilation of the first spin contaminant:
 S**2 before annihilation     2.0368,   after     2.0009
 Leave Link  502 at Thu Mar 14 09:25:56 2024, MaxMem= 32212254720 cpu:             979.1 elap:              32.7
 (Enter /home/<user>/g16/l701.exe)
 ... and contract with generalized density number  0.
 Compute integral first derivatives.
 Leave Link  701 at Thu Mar 14 09:25:56 2024, MaxMem= 32212254720 cpu:               5.2 elap:               0.2
 (Enter /home/<user>/g16/l702.exe)
 L702 exits ... SP integral derivatives will be done elsewhere.
 Leave Link  702 at Thu Mar 14 09:25:56 2024, MaxMem= 32212254720 cpu:               0.7 elap:               0.0
 (Enter /home/<user>/g16/l703.exe)
 Integral derivatives from FoFJK, PRISM(SPDF).
 Compute integral first derivatives, UseDBF=F ICtDFT=           0.
 Calling FoFJK, ICntrl=      2127 FMM=F ISym2X=0 I1Cent= 0 IOpClX= 1 NMat=1 NMatS=1 NMatT=0.
 FoFJK:  IHMeth= 1 ICntrl=    2127 DoSepK=F KAlg= 0 I1Cent=           0 FoldK=F
 IRaf=         0 NMat=       1 IRICut=       1 DoRegI=T DoRafI=F ISym2E= 0 IDoP0=0 IntGTp=1.
 FoFCou: FMM=F IPFlag=           0 FMFlag=      100000 FMFlg1=         800
         NFxFlg=           0 DoJE=F BraDBF=F KetDBF=F FulRan=T
         wScrn=  0.000000 ICntrl=      2127 IOpCl=  1 I1Cent=           0 NGrid=           0
         NMat0=    1 NMatS0=      1 NMatT0=    0 NMatD0=    1 NMtDS0=    0 NMtDT0=    0
 Symmetry not used in FoFCou.
 Leave Link  703 at Thu Mar 14 09:26:03 2024, MaxMem= 32212254720 cpu:             194.9 elap:               6.5
 (Enter /home/<user>/g16/l716.exe)
 Dipole        =-4.66742962D-01-9.84848645D-01 5.45432308D-02
 ***** Axes restored to original set *****
 -------------------------------------------------------------------
 Center     Atomic                   Forces (Hartrees/Bohr)
 Number     Number              X              Y              Z
 -------------------------------------------------------------------
      1        6           0.000188789   -0.000042077   -0.000009317
      2        6          -0.000158898    0.000160327    0.000037945
      3        6          -0.000011638   -0.000062446    0.000056347
      4        6          -0.000052616   -0.000025231    0.000041221
      5        6           0.000074896   -0.000033583   -0.000016412
      6        6          -0.000001033    0.000037189    0.000016693
      7        1           0.000074909    0.000040761    0.000001185
      8        1           0.000087621    0.000045493   -0.000049636
      9        1          -0.000015056   -0.000019342   -0.000013652
     10        6          -0.000012047    0.000057025    0.000028162
     11        6          -0.000019982   -0.000011857   -0.000010173
     12        6           0.000007518    0.000010781    0.000002628
     13        6          -0.000001299    0.000001400   -0.000003021
     14        6           0.000006931   -0.000001177   -0.000001423
     15        6          -0.000008638    0.000007629    0.000006830
     16        6           0.000027613    0.000003822    0.000008494
     17        1          -0.000000428   -0.000000136    0.000001320
     18        1           0.000002847   -0.000000580    0.000000404
     19        1          -0.000000008    0.000000450   -0.000000361
     20        1          -0.000000963    0.000000062   -0.000001829
     21        6           0.000012570    0.000005318   -0.000014420
     22        1          -0.000005865    0.000001273   -0.000002072
     23        1          -0.000000024    0.000004624   -0.000001647
     24        1           0.000002363   -0.000002183    0.000001208
     25        6          -0.000002315   -0.000012786   -0.000018962
     26        1           0.000001280   -0.000006219   -0.000000453
     27        1           0.000001779   -0.000006017   -0.000004028
     28        1          -0.000002158   -0.000000837    0.000001954
     29        6           0.000221551    0.000189851    0.000040631
     30        6           0.000036897   -0.000212714   -0.000015506
     31        6           0.000021090   -0.000251216    0.000018521
     32        6          -0.000081671   -0.000226148   -0.000020763
     33        6          -0.000029956   -0.000205028    0.000027893
     34        1          -0.000108106    0.000058665   -0.000076755
     35        6          -0.000196377    0.000148859    0.000005797
     36        1           0.000147777    0.000001623   -0.000043354
     37        7          -0.000028529    0.000369517    0.000022165
     38        7          -0.000118938    0.000406023    0.000097349
     39       16          -0.000123382   -0.000503767   -0.000096684
     40        6           0.000255202    0.000085805    0.000050431
     41        6          -0.000070289    0.000017445   -0.000062913
     42        6          -0.000030757   -0.000032706    0.000038517
     43        6           0.000019292    0.000010073    0.000016280
     44        1           0.000017829   -0.000032663   -0.000001424
     45        6           0.000045941   -0.000022186   -0.000014180
     46        1          -0.000116578    0.000044107   -0.000054964
     47        6          -0.000119068    0.000009975    0.000015575
     48        1           0.000013946   -0.000023899   -0.000012993
     49        1           0.000028205    0.000017632    0.000011193
     50        6           0.000018857   -0.000004176    0.000006233
     51        1           0.000000888    0.000001452   -0.000003986
     52        1           0.000001520   -0.000001974   -0.000001158
     53        6           0.000005499    0.000007785   -0.000000472
     54        1           0.000000683   -0.000001214    0.000000803
     55        1          -0.000000166   -0.000001295    0.000001174
     56        7          -0.000002466   -0.000002251   -0.000002223
     57        1          -0.000001755    0.000000198   -0.000000607
     58        1          -0.000003282    0.000000546   -0.000001565
 -------------------------------------------------------------------
 Cartesian Forces:  Max     0.000503767 RMS     0.000085652
 Leave Link  716 at Thu Mar 14 09:26:03 2024, MaxMem= 32212254720 cpu:               0.7 elap:               0.0
 (Enter /home/<user>/g16/l103.exe)

 GradGradGradGradGradGradGradGradGradGradGradGradGradGradGradGradGradGrad
 Berny optimization.
 Using GEDIIS/GDIIS optimizer.
 FormGI is forming the generalized inverse of G from B-inverse, IUseBI=4.
 GSVD:  received Info=                   1 from GESDD.
 Internal  Forces:  Max     0.000623066 RMS     0.000079969
 Search for a local minimum.
 Step number   7 out of a maximum of  346
 All quantities printed in internal units (Hartrees-Bohrs-Radians)
 RMS Force = .79969D-04 SwitMx=.10000D-02 MixMth= 2
 Mixed Optimization -- En-DIIS/RFO-DIIS
 Swapping is turned off.
 Update second derivatives using D2CorX and points    3    4    5    6    7
 DE= -1.44D-05 DEPred=-1.61D-05 R= 8.97D-01
 TightC=F SS=  1.41D+00  RLast= 2.03D-02 DXNew= 1.4270D+00 6.0899D-02
 Trust test= 8.97D-01 RLast= 2.03D-02 DXMaxT set to 8.49D-01
 ITU=  1  1  1  1  1  1  0
     Eigenvalues ---    0.00230   0.00230   0.00250   0.00606   0.00640
     Eigenvalues ---    0.00756   0.00811   0.01032   0.01254   0.01418
     Eigenvalues ---    0.01457   0.01468   0.01604   0.01628   0.01634
     Eigenvalues ---    0.01667   0.01714   0.01724   0.01743   0.01771
     Eigenvalues ---    0.01833   0.01886   0.02022   0.02036   0.02042
     Eigenvalues ---    0.02073   0.02083   0.02089   0.02091   0.02094
     Eigenvalues ---    0.02107   0.02112   0.02118   0.02119   0.02125
     Eigenvalues ---    0.02134   0.02142   0.02145   0.02148   0.02156
     Eigenvalues ---    0.02161   0.02164   0.02194   0.02376   0.04048
     Eigenvalues ---    0.04278   0.04389   0.04468   0.05425   0.05427
     Eigenvalues ---    0.05433   0.05499   0.05500   0.05559   0.05992
     Eigenvalues ---    0.08022   0.08961   0.09276   0.11594   0.12605
     Eigenvalues ---    0.12823   0.15345   0.15942   0.15969   0.15991
     Eigenvalues ---    0.16000   0.16000   0.16000   0.16000   0.16000
     Eigenvalues ---    0.16000   0.16000   0.16000   0.16000   0.16000
     Eigenvalues ---    0.16000   0.16000   0.16000   0.16003   0.16008
     Eigenvalues ---    0.16039   0.16330   0.18982   0.20263   0.21876
     Eigenvalues ---    0.21953   0.22001   0.22007   0.22442   0.22462
     Eigenvalues ---    0.22617   0.22953   0.23623   0.23891   0.24139
     Eigenvalues ---    0.24537   0.24731   0.24970   0.24981   0.24988
     Eigenvalues ---    0.24999   0.25009   0.25732   0.28042   0.28073
     Eigenvalues ---    0.28462   0.28608   0.28931   0.29084   0.31180
     Eigenvalues ---    0.33003   0.33129   0.33785   0.34027   0.34090
     Eigenvalues ---    0.34100   0.34104   0.34105   0.34131   0.34276
     Eigenvalues ---    0.34289   0.34345   0.34577   0.34923   0.35033
     Eigenvalues ---    0.35050   0.35084   0.35139   0.35151   0.35159
     Eigenvalues ---    0.35187   0.35189   0.35249   0.35278   0.35449
     Eigenvalues ---    0.35549   0.36062   0.36166   0.37076   0.37642
     Eigenvalues ---    0.38241   0.40418   0.40749   0.41519   0.41633
     Eigenvalues ---    0.42105   0.42544   0.42914   0.43122   0.44249
     Eigenvalues ---    0.44364   0.44485   0.44523   0.44681   0.44966
     Eigenvalues ---    0.45297   0.45796   0.45946   0.46023   0.46082
     Eigenvalues ---    0.46206   0.46912   0.47086   0.47255   0.47879
     Eigenvalues ---    0.54517   0.60592   0.69902
 En-DIIS/RFO-DIIS/Sim-DIIS IScMMF=       -3 using points:     7    6    5    4    3
 RFO step:  Lambda=-7.11061926D-06.
 NNeg= 0 NGDIIS= 5 SimSw=  2.50D-01 Rises=F DC= -1.44D-05 SmlDif=  1.00D-05
 NRisDI= 0 DoIntr=F SqrtH=F CThrHd= 10.0 CDAdj=  3.0
 RMS Error=  0.7318099678D-03 NUsed= 5 OKEnD=T EnDIS=F
 InvSVX:  RCond= 1.84D-05 Info=           0 Equed=N FErr=  9.90D-15 BErr=  1.03D-16
 DidBck=F Rises=F RFO-DIIS coefs:    1.24568   -0.21801   -0.08133    0.01947    0.03418
 Iteration  1 RMS(Cart)=  0.00405607 RMS(Int)=  0.00000287
 Iteration  2 RMS(Cart)=  0.00001246 RMS(Int)=  0.00000129
 Iteration  3 RMS(Cart)=  0.00000000 RMS(Int)=  0.00000129
 ITry= 1 IFail=0 DXMaxC= 2.49D-02 DCOld= 1.00D+10 DXMaxT= 8.49D-01 DXLimC= 3.00D+00 Rises=F
 Variable       Old X    -DE/DX   Delta X   Delta X   Delta X     New X
                                 (Linear)    (Quad)   (Total)
    R1        2.69929  -0.00018  -0.00009  -0.00036  -0.00044   2.69885
    R2        2.61795  -0.00003   0.00016  -0.00011   0.00005   2.61799
    R3        2.04255   0.00007  -0.00013   0.00018   0.00005   2.04260
    R4        2.70324  -0.00005  -0.00017  -0.00017  -0.00033   2.70291
    R5        2.72912  -0.00018   0.00079  -0.00071   0.00008   2.72920
    R6        2.60351   0.00002   0.00018  -0.00005   0.00014   2.60364
    R7        2.04945  -0.00001  -0.00002   0.00006   0.00004   2.04949
    R8        2.67356   0.00002  -0.00000   0.00001   0.00001   2.67357
    R9        2.89153  -0.00002  -0.00003  -0.00006  -0.00008   2.89145
   R10        2.64802   0.00002   0.00000   0.00001   0.00001   2.64803
   R11        2.75517  -0.00002   0.00005  -0.00004   0.00001   2.75518
   R12        2.05414  -0.00001  -0.00002  -0.00000  -0.00003   2.05411
   R13        2.88883   0.00000   0.00000  -0.00001  -0.00001   2.88882
   R14        2.92031  -0.00002  -0.00006  -0.00002  -0.00008   2.92023
   R15        2.91960   0.00003  -0.00002   0.00013   0.00011   2.91971
   R16        2.62583  -0.00001   0.00001  -0.00002  -0.00001   2.62582
   R17        2.66912  -0.00001  -0.00003  -0.00000  -0.00004   2.66908
   R18        2.64663  -0.00000   0.00001  -0.00001  -0.00000   2.64663
   R19        2.05506   0.00000  -0.00000   0.00000   0.00000   2.05506
   R20        2.64609  -0.00000  -0.00001  -0.00000  -0.00001   2.64608
   R21        2.05352  -0.00000   0.00001  -0.00001  -0.00000   2.05351
   R22        2.63577  -0.00001   0.00003  -0.00003  -0.00000   2.63577
   R23        2.05342   0.00000  -0.00000   0.00000   0.00000   2.05342
   R24        2.64447   0.00001  -0.00001   0.00001  -0.00000   2.64447
   R25        2.05386   0.00000  -0.00001   0.00001  -0.00000   2.05386
   R26        2.07139   0.00000  -0.00000   0.00001   0.00001   2.07140
   R27        2.07143  -0.00000   0.00000  -0.00001  -0.00001   2.07143
   R28        2.06843  -0.00000  -0.00001   0.00000  -0.00000   2.06843
   R29        2.07149   0.00000   0.00000   0.00001   0.00001   2.07151
   R30        2.07136   0.00000  -0.00000   0.00001   0.00001   2.07137
   R31        2.06856  -0.00000  -0.00000  -0.00001  -0.00001   2.06856
   R32        2.73357  -0.00042   0.00015  -0.00090  -0.00075   2.73282
   R33        2.74708   0.00017  -0.00048   0.00034  -0.00014   2.74694
   R34        2.77822  -0.00023  -0.00048  -0.00043  -0.00091   2.77731
   R35        2.51239   0.00015   0.00031   0.00024   0.00055   2.51294
   R36        2.56835   0.00012  -0.00037   0.00079   0.00042   2.56877
   R37        2.04659   0.00002   0.00004   0.00012   0.00016   2.04675
   R38        2.72521  -0.00004   0.00001  -0.00023  -0.00022   2.72499
   R39        2.51487   0.00015   0.00024   0.00025   0.00049   2.51536
   R40        2.73847   0.00018  -0.00048   0.00043  -0.00005   2.73842
   R41        2.04753   0.00006   0.00004   0.00013   0.00016   2.04770
   R42        2.74383   0.00005   0.00053  -0.00007   0.00046   2.74429
   R43        3.17597  -0.00035  -0.00084  -0.00021  -0.00105   3.17492
   R44        3.17341  -0.00023  -0.00090  -0.00001  -0.00091   3.17250
   R45        2.68347  -0.00005  -0.00014  -0.00012  -0.00026   2.68321
   R46        2.68578  -0.00007  -0.00016  -0.00012  -0.00029   2.68550
   R47        2.62199   0.00000   0.00012  -0.00006   0.00007   2.62206
   R48        2.04341  -0.00004  -0.00005  -0.00003  -0.00008   2.04333
   R49        2.61971   0.00001   0.00016  -0.00007   0.00010   2.61980
   R50        2.04917   0.00003   0.00000   0.00007   0.00007   2.04924
   R51        2.65325  -0.00000   0.00000  -0.00001  -0.00001   2.65324
   R52        2.05621  -0.00000  -0.00002  -0.00000  -0.00002   2.05618
   R53        2.65418  -0.00003  -0.00005  -0.00004  -0.00009   2.65409
   R54        2.05583  -0.00000   0.00001  -0.00002  -0.00001   2.05582
   R55        2.85204   0.00002   0.00004   0.00005   0.00009   2.85213
   R56        2.07100  -0.00000   0.00000  -0.00000   0.00000   2.07100
   R57        2.07671   0.00000  -0.00000   0.00000  -0.00000   2.07671
   R58        2.91114  -0.00000  -0.00001  -0.00001  -0.00002   2.91113
   R59        2.08789  -0.00000   0.00000  -0.00000  -0.00000   2.08788
   R60        2.07267   0.00000  -0.00000   0.00001   0.00000   2.07268
   R61        2.77070  -0.00001   0.00002  -0.00003  -0.00001   2.77069
   R62        1.92710  -0.00000  -0.00000   0.00000  -0.00000   1.92710
   R63        1.92525  -0.00000   0.00000  -0.00001  -0.00000   1.92525
    A1        2.12680  -0.00008  -0.00016  -0.00034  -0.00050   2.12630
    A2        2.06773  -0.00000   0.00011   0.00005   0.00015   2.06789
    A3        2.08864   0.00009   0.00005   0.00029   0.00034   2.08898
    A4        2.04396   0.00020   0.00026   0.00062   0.00088   2.04484
    A5        2.13584  -0.00036   0.00033  -0.00075  -0.00042   2.13541
    A6        2.10336   0.00016  -0.00060   0.00014  -0.00046   2.10290
    A7        2.10928  -0.00010  -0.00011  -0.00027  -0.00038   2.10890
    A8        2.09365  -0.00006  -0.00039  -0.00036  -0.00076   2.09290
    A9        2.07929   0.00016   0.00049   0.00065   0.00115   2.08044
   A10        2.10739  -0.00007  -0.00008  -0.00022  -0.00030   2.10708
   A11        2.24411   0.00007   0.00013   0.00017   0.00030   2.24441
   A12        1.93168   0.00000  -0.00004   0.00005   0.00001   1.93168
   A13        2.08883   0.00008   0.00011   0.00031   0.00042   2.08925
   A14        1.89821  -0.00001  -0.00002  -0.00004  -0.00006   1.89815
   A15        2.29612  -0.00007  -0.00010  -0.00027  -0.00036   2.29576
   A16        2.09002  -0.00003  -0.00004  -0.00009  -0.00012   2.08990
   A17        2.08611   0.00004   0.00009   0.00013   0.00022   2.08633
   A18        2.10706  -0.00000  -0.00006  -0.00004  -0.00010   2.10696
   A19        1.76395   0.00000   0.00009  -0.00003   0.00005   1.76400
   A20        1.94478  -0.00001   0.00002  -0.00010  -0.00008   1.94470
   A21        1.94521   0.00000  -0.00008   0.00008  -0.00000   1.94521
   A22        1.94250   0.00001   0.00006   0.00002   0.00008   1.94258
   A23        1.94380  -0.00001  -0.00007   0.00003  -0.00004   1.94376
   A24        1.91953   0.00000  -0.00001  -0.00000  -0.00001   1.91952
   A25        2.24902   0.00001   0.00006   0.00000   0.00006   2.24908
   A26        1.93702  -0.00001  -0.00008   0.00001  -0.00007   1.93695
   A27        2.09714  -0.00000   0.00002  -0.00001   0.00001   2.09715
   A28        2.07979   0.00000   0.00001  -0.00001   0.00001   2.07980
   A29        2.11024  -0.00000  -0.00000   0.00000  -0.00000   2.11024
   A30        2.09315  -0.00000  -0.00001   0.00000  -0.00001   2.09315
   A31        2.10581   0.00000  -0.00003   0.00002  -0.00001   2.10580
   A32        2.08877  -0.00000   0.00002  -0.00002  -0.00000   2.08877
   A33        2.08861   0.00000   0.00001   0.00000   0.00002   2.08862
   A34        2.10428  -0.00000   0.00001  -0.00001   0.00000   2.10429
   A35        2.08879   0.00000  -0.00000   0.00001   0.00001   2.08879
   A36        2.09012  -0.00000  -0.00000  -0.00000  -0.00001   2.09011
   A37        2.07384  -0.00000   0.00002  -0.00002   0.00000   2.07384
   A38        2.10129  -0.00000  -0.00000  -0.00001  -0.00001   2.10128
   A39        2.10805   0.00000  -0.00002   0.00002   0.00001   2.10806
   A40        1.89388   0.00001   0.00005   0.00001   0.00007   1.89394
   A41        2.28380  -0.00001  -0.00003  -0.00003  -0.00006   2.28374
   A42        2.10551   0.00000  -0.00003   0.00002  -0.00001   2.10550
   A43        1.93132  -0.00001  -0.00004  -0.00000  -0.00004   1.93128
   A44        1.93193  -0.00000   0.00000  -0.00002  -0.00002   1.93191
   A45        1.93978   0.00000   0.00002   0.00000   0.00003   1.93981
   A46        1.88212   0.00001  -0.00000   0.00005   0.00005   1.88216
   A47        1.88874   0.00000   0.00001  -0.00001   0.00000   1.88875
   A48        1.88811  -0.00000   0.00001  -0.00002  -0.00001   1.88809
   A49        1.93149   0.00000  -0.00001   0.00003   0.00002   1.93151
   A50        1.93171   0.00001  -0.00003   0.00007   0.00004   1.93176
   A51        1.94008  -0.00000   0.00002  -0.00003  -0.00001   1.94008
   A52        1.88179  -0.00001   0.00001  -0.00005  -0.00004   1.88174
   A53        1.88834  -0.00000   0.00001  -0.00000   0.00001   1.88835
   A54        1.88858  -0.00000  -0.00001  -0.00002  -0.00003   1.88855
   A55        2.18194  -0.00062  -0.00041  -0.00115  -0.00156   2.18038
   A56        2.09835   0.00037  -0.00018   0.00055   0.00037   2.09872
   A57        2.00288   0.00026   0.00060   0.00059   0.00119   2.00407
   A58        2.11629   0.00003  -0.00038   0.00007  -0.00031   2.11598
   A59        2.18685  -0.00020   0.00052  -0.00048   0.00003   2.18688
   A60        1.97948   0.00017  -0.00014   0.00040   0.00026   1.97974
   A61        2.16080  -0.00023  -0.00025  -0.00063  -0.00087   2.15993
   A62        2.06587  -0.00001   0.00058  -0.00085  -0.00027   2.06560
   A63        2.05451   0.00023  -0.00032   0.00143   0.00111   2.05562
   A64        2.11875  -0.00006  -0.00036  -0.00005  -0.00041   2.11834
   A65        1.98234  -0.00014   0.00017  -0.00048  -0.00030   1.98204
   A66        2.18157   0.00019   0.00019   0.00052   0.00071   2.18227
   A67        2.15898  -0.00014  -0.00029  -0.00033  -0.00062   2.15836
   A68        2.05756   0.00021  -0.00033   0.00130   0.00097   2.05853
   A69        2.06483  -0.00007   0.00063  -0.00100  -0.00038   2.06445
   A70        2.00759   0.00014   0.00065   0.00029   0.00096   2.00854
   A71        2.17593   0.00004  -0.00091   0.00041  -0.00050   2.17543
   A72        2.09965  -0.00019   0.00026  -0.00071  -0.00045   2.09920
   A73        1.87941  -0.00018  -0.00022  -0.00014  -0.00036   1.87905
   A74        1.87750  -0.00004  -0.00036   0.00031  -0.00005   1.87746
   A75        1.70597   0.00019   0.00054  -0.00012   0.00042   1.70640
   A76        2.14291   0.00019  -0.00005   0.00052   0.00048   2.14339
   A77        2.10663  -0.00030  -0.00027  -0.00084  -0.00111   2.10552
   A78        2.03358   0.00011   0.00031   0.00031   0.00062   2.03420
   A79        2.11476  -0.00008  -0.00018  -0.00024  -0.00042   2.11433
   A80        2.07718   0.00005   0.00006   0.00020   0.00026   2.07744
   A81        2.09121   0.00003   0.00012   0.00004   0.00016   2.09137
   A82        2.12310  -0.00002  -0.00013  -0.00006  -0.00019   2.12291
   A83        2.09539  -0.00011  -0.00032  -0.00049  -0.00081   2.09458
   A84        2.06395   0.00014   0.00045   0.00056   0.00101   2.06496
   A85        2.12679  -0.00001  -0.00005  -0.00003  -0.00008   2.12672
   A86        2.07558   0.00003   0.00011   0.00012   0.00022   2.07580
   A87        2.08079  -0.00002  -0.00005  -0.00009  -0.00014   2.08065
   A88        2.11866  -0.00006  -0.00010  -0.00020  -0.00030   2.11836
   A89        2.08157   0.00006   0.00017   0.00021   0.00038   2.08196
   A90        2.08295  -0.00000  -0.00007  -0.00001  -0.00008   2.08287
   A91        2.04938   0.00007   0.00015   0.00022   0.00037   2.04976
   A92        2.11996  -0.00004  -0.00006  -0.00014  -0.00020   2.11976
   A93        2.11324  -0.00003  -0.00009  -0.00007  -0.00016   2.11308
   A94        1.93311  -0.00000   0.00000  -0.00000   0.00000   1.93311
   A95        1.91486   0.00000   0.00002  -0.00002   0.00000   1.91487
   A96        1.96627   0.00000   0.00002  -0.00000   0.00002   1.96630
   A97        1.86555  -0.00000  -0.00003  -0.00002  -0.00005   1.86550
   A98        1.88361   0.00000  -0.00001   0.00005   0.00003   1.88365
   A99        1.89724  -0.00000  -0.00001  -0.00001  -0.00002   1.89722
   A100       1.89962   0.00000   0.00000   0.00002   0.00002   1.89964
   A101       1.90052   0.00000  -0.00002   0.00002   0.00000   1.90052
   A102       1.92199  -0.00001   0.00004  -0.00005  -0.00002   1.92198
   A103       1.85886  -0.00000  -0.00002   0.00001  -0.00001   1.85885
   A104       1.99726   0.00000  -0.00000   0.00001   0.00001   1.99727
   A105       1.88265   0.00000   0.00000  -0.00001  -0.00001   1.88264
   A106       1.91236  -0.00000  -0.00001  -0.00002  -0.00002   1.91234
   A107       1.91491  -0.00000   0.00003  -0.00005  -0.00002   1.91489
   A108       1.84833   0.00000  -0.00001   0.00001   0.00000   1.84833
    D1       -0.01273  -0.00000   0.00035   0.00031   0.00065  -0.01208
    D2        3.12056   0.00002  -0.00011   0.00063   0.00052   3.12109
    D3        3.13391  -0.00001   0.00061  -0.00009   0.00051   3.13443
    D4       -0.01598   0.00001   0.00015   0.00024   0.00039  -0.01559
    D5        0.01095   0.00001   0.00035  -0.00025   0.00010   0.01104
    D6       -3.12880   0.00001   0.00011   0.00010   0.00021  -3.12859
    D7       -3.13576   0.00001   0.00009   0.00014   0.00023  -3.13552
    D8        0.00768   0.00001  -0.00016   0.00050   0.00034   0.00803
    D9        0.00327  -0.00001  -0.00088  -0.00021  -0.00109   0.00218
   D10       -3.09086  -0.00001  -0.00076  -0.00070  -0.00146  -3.09231
   D11       -3.13019  -0.00002  -0.00044  -0.00052  -0.00096  -3.13115
   D12        0.05887  -0.00003  -0.00032  -0.00101  -0.00133   0.05754
   D13        0.29069  -0.00002   0.00435  -0.00120   0.00315   0.29384
   D14       -2.84412   0.00000   0.00287  -0.00006   0.00282  -2.84130
   D15       -2.85948   0.00000   0.00389  -0.00087   0.00303  -2.85645
   D16        0.28890   0.00002   0.00241   0.00028   0.00269   0.29159
   D17        0.00774   0.00001   0.00072   0.00007   0.00079   0.00853
   D18       -3.12729   0.00000   0.00065  -0.00026   0.00040  -3.12689
   D19        3.10226   0.00001   0.00058   0.00052   0.00110   3.10336
   D20       -0.03278   0.00001   0.00051   0.00020   0.00071  -0.03206
   D21       -0.00979  -0.00000   0.00000  -0.00001  -0.00000  -0.00979
   D22        3.13802  -0.00000  -0.00036   0.00029  -0.00008   3.13794
   D23        3.12632  -0.00000   0.00005   0.00027   0.00032   3.12665
   D24       -0.00905   0.00000  -0.00031   0.00056   0.00025  -0.00880
   D25       -3.13865   0.00000   0.00029  -0.00021   0.00008  -3.13857
   D26        1.07954  -0.00000   0.00016  -0.00017  -0.00001   1.07953
   D27       -1.07196  -0.00000   0.00022  -0.00015   0.00006  -1.07190
   D28        0.00897  -0.00000   0.00023  -0.00051  -0.00028   0.00869
   D29       -2.05602  -0.00001   0.00010  -0.00047  -0.00037  -2.05639
   D30        2.07566  -0.00001   0.00016  -0.00045  -0.00030   2.07536
   D31        0.00045  -0.00000  -0.00053   0.00009  -0.00044   0.00001
   D32        3.14018  -0.00000  -0.00029  -0.00026  -0.00055   3.13963
   D33        3.13418  -0.00001  -0.00007  -0.00027  -0.00034   3.13384
   D34       -0.00928  -0.00001   0.00018  -0.00063  -0.00045  -0.00974
   D35        0.00507  -0.00000   0.00026  -0.00037  -0.00011   0.00496
   D36       -3.13722  -0.00000   0.00021  -0.00030  -0.00010  -3.13732
   D37       -3.12931   0.00000  -0.00016  -0.00003  -0.00020  -3.12951
   D38        0.01159   0.00000  -0.00022   0.00003  -0.00019   0.01140
   D39        3.13677   0.00000  -0.00015   0.00035   0.00020   3.13697
   D40       -0.00583   0.00000  -0.00007   0.00028   0.00021  -0.00561
   D41       -1.07977  -0.00000  -0.00005   0.00022   0.00017  -1.07960
   D42        2.06082  -0.00000   0.00003   0.00015   0.00018   2.06100
   D43        1.06907  -0.00000  -0.00007   0.00026   0.00018   1.06925
   D44       -2.07353  -0.00000   0.00001   0.00019   0.00020  -2.07333
   D45        3.07378  -0.00000   0.00017  -0.00027  -0.00011   3.07367
   D46       -1.12385   0.00000   0.00014  -0.00023  -0.00009  -1.12394
   D47        0.97477   0.00000   0.00016  -0.00027  -0.00010   0.97466
   D48        1.11933  -0.00000   0.00001  -0.00019  -0.00018   1.11915
   D49       -3.07830  -0.00000  -0.00001  -0.00014  -0.00016  -3.07845
   D50       -0.97968  -0.00000   0.00001  -0.00018  -0.00017  -0.97985
   D51       -1.04333  -0.00000   0.00007  -0.00024  -0.00017  -1.04351
   D52        1.04222   0.00000   0.00004  -0.00019  -0.00015   1.04207
   D53        3.14084   0.00000   0.00007  -0.00023  -0.00017   3.14067
   D54        1.12448  -0.00000  -0.00014  -0.00004  -0.00018   1.12431
   D55       -3.07359  -0.00000  -0.00015  -0.00004  -0.00019  -3.07378
   D56       -0.97433  -0.00000  -0.00016  -0.00004  -0.00020  -0.97453
   D57        3.07993   0.00000  -0.00013  -0.00001  -0.00013   3.07980
   D58       -1.11814  -0.00000  -0.00013  -0.00001  -0.00015  -1.11829
   D59        0.98112  -0.00000  -0.00015  -0.00001  -0.00016   0.98096
   D60       -1.04134   0.00000  -0.00010   0.00004  -0.00006  -1.04141
   D61        1.04377   0.00000  -0.00011   0.00004  -0.00007   1.04369
   D62       -3.14016   0.00000  -0.00013   0.00004  -0.00009  -3.14024
   D63        3.14029   0.00000   0.00006   0.00008   0.00013   3.14042
   D64       -0.00089  -0.00000   0.00007  -0.00001   0.00007  -0.00082
   D65       -0.00022   0.00000  -0.00004   0.00015   0.00011  -0.00011
   D66       -3.14140   0.00000  -0.00002   0.00007   0.00005  -3.14135
   D67        0.00088  -0.00000  -0.00011   0.00003  -0.00008   0.00080
   D68       -3.14011   0.00000  -0.00006  -0.00002  -0.00009  -3.14019
   D69        3.14156  -0.00000  -0.00004  -0.00003  -0.00006   3.14150
   D70        0.00058  -0.00000   0.00001  -0.00009  -0.00007   0.00051
   D71       -0.00014  -0.00000   0.00004  -0.00010  -0.00006  -0.00020
   D72       -3.14150  -0.00000   0.00005  -0.00010  -0.00005  -3.14155
   D73        3.14104  -0.00000   0.00002  -0.00001   0.00000   3.14105
   D74       -0.00032  -0.00000   0.00004  -0.00002   0.00002  -0.00031
   D75        0.00014  -0.00000  -0.00001  -0.00002  -0.00003   0.00011
   D76       -3.14146  -0.00000   0.00000  -0.00002  -0.00001  -3.14147
   D77        3.14151  -0.00000  -0.00003  -0.00002  -0.00005   3.14146
   D78       -0.00009  -0.00000  -0.00001  -0.00001  -0.00003  -0.00012
   D79        0.00021   0.00000  -0.00001   0.00009   0.00008   0.00029
   D80       -3.14158  -0.00000  -0.00001  -0.00002  -0.00003   3.14158
   D81       -3.14138   0.00000  -0.00003   0.00008   0.00005  -3.14132
   D82        0.00002  -0.00000  -0.00002  -0.00002  -0.00005  -0.00003
   D83       -3.14140  -0.00000   0.00007  -0.00011  -0.00003  -3.14143
   D84       -0.00057  -0.00000   0.00001  -0.00003  -0.00002  -0.00059
   D85        0.00039   0.00000   0.00007   0.00000   0.00007   0.00046
   D86        3.14122   0.00000   0.00001   0.00007   0.00008   3.14130
   D87        3.11360  -0.00002  -0.00134  -0.00025  -0.00159   3.11202
   D88        0.01089  -0.00003  -0.00108  -0.00001  -0.00109   0.00980
   D89       -0.03444  -0.00004   0.00007  -0.00134  -0.00127  -0.03571
   D90       -3.13715  -0.00005   0.00033  -0.00110  -0.00077  -3.13792
   D91       -3.11286   0.00002   0.00116   0.00020   0.00136  -3.11151
   D92        0.09830   0.00004   0.00089   0.00105   0.00194   0.10023
   D93        0.03485   0.00004  -0.00018   0.00124   0.00106   0.03591
   D94       -3.03718   0.00006  -0.00045   0.00209   0.00164  -3.03553
   D95        0.00059   0.00001   0.00014   0.00045   0.00059   0.00118
   D96       -3.10773   0.00002   0.00010   0.00072   0.00082  -3.10691
   D97        3.10760   0.00001  -0.00008   0.00023   0.00015   3.10775
   D98       -0.00072   0.00002  -0.00012   0.00049   0.00037  -0.00035
   D99        3.11311   0.00002  -0.00035   0.00072   0.00037   3.11348
   D100       0.00774   0.00001  -0.00011   0.00095   0.00084   0.00858
   D101       0.00055  -0.00001   0.00008  -0.00020  -0.00012   0.00043
   D102      -3.07510   0.00002  -0.00020   0.00055   0.00035  -3.07475
   D103       3.07300  -0.00004   0.00038  -0.00113  -0.00075   3.07225
   D104      -0.00266  -0.00001   0.00010  -0.00038  -0.00028  -0.00293
   D105       0.03399   0.00002  -0.00024   0.00060   0.00037   0.03436
   D106      -3.11446   0.00002   0.00083   0.00009   0.00092  -3.11354
   D107       3.13835   0.00001  -0.00019   0.00029   0.00010   3.13845
   D108      -0.01010   0.00001   0.00087  -0.00022   0.00065  -0.00945
   D109      -0.00670  -0.00003   0.00027  -0.00166  -0.00138  -0.00808
   D110      -3.11362  -0.00002   0.00025  -0.00137  -0.00112  -3.11474
   D111      -0.03546  -0.00002   0.00013  -0.00074  -0.00061  -0.03606
   D112       3.11266  -0.00002  -0.00088  -0.00025  -0.00113   3.11153
   D113       3.03994  -0.00003   0.00037  -0.00141  -0.00104   3.03890
   D114      -0.09512  -0.00004  -0.00064  -0.00093  -0.00157  -0.09669
   D115      -0.33759  -0.00004  -0.00356  -0.00144  -0.00500  -0.34260
   D116       2.81603  -0.00002  -0.00339  -0.00091  -0.00430   2.81173
   D117       2.79681  -0.00003  -0.00245  -0.00197  -0.00442   2.79239
   D118      -0.33275  -0.00002  -0.00227  -0.00144  -0.00372  -0.33647
   D119      -0.01027  -0.00003   0.00023  -0.00168  -0.00145  -0.01172
   D120       0.00985   0.00004  -0.00029   0.00195   0.00166   0.01151
   D121      -3.11876  -0.00000   0.00001  -0.00020  -0.00019  -3.11895
   D122       0.01407   0.00000  -0.00010  -0.00004  -0.00014   0.01393
   D123       0.01127  -0.00002  -0.00016  -0.00071  -0.00088   0.01040
   D124      -3.13909  -0.00002  -0.00028  -0.00055  -0.00083  -3.13991
   D125       3.12948   0.00001   0.00043   0.00012   0.00054   3.13002
   D126      -0.05442   0.00002   0.00035   0.00052   0.00087  -0.05355
   D127      -0.00081   0.00002   0.00060   0.00061   0.00120   0.00040
   D128       3.09848   0.00003   0.00052   0.00101   0.00153   3.10000
   D129      -0.01195   0.00000  -0.00023   0.00024   0.00001  -0.01194
   D130       3.12227  -0.00000  -0.00009  -0.00009  -0.00018   3.12209
   D131       3.13848   0.00000  -0.00011   0.00007  -0.00004   3.13844
   D132      -0.01049  -0.00000   0.00003  -0.00026  -0.00023  -0.01071
   D133      -0.00941  -0.00001  -0.00065  -0.00002  -0.00067  -0.01008
   D134       3.13074  -0.00001  -0.00042  -0.00028  -0.00070   3.13003
   D135      -3.10943  -0.00002  -0.00056  -0.00039  -0.00095  -3.11037
   D136       0.03072  -0.00002  -0.00033  -0.00065  -0.00098   0.02974
   D137       0.00161   0.00001   0.00019   0.00037   0.00056   0.00218
   D138      -3.10303   0.00000   0.00010   0.00005   0.00016  -3.10287
   D139      -3.13258   0.00002   0.00005   0.00070   0.00075  -3.13183
   D140       0.04596   0.00001  -0.00004   0.00038   0.00035   0.04631
   D141       0.00896  -0.00001   0.00024  -0.00048  -0.00024   0.00872
   D142       3.11375   0.00000   0.00033  -0.00016   0.00017   3.11392
   D143      -3.13118  -0.00000   0.00001  -0.00021  -0.00020  -3.13139
   D144      -0.02639   0.00000   0.00010   0.00010   0.00020  -0.02619
   D145      -2.62446   0.00001   0.00006   0.00007   0.00012  -2.62433
   D146      -0.56908   0.00000   0.00004   0.00003   0.00007  -0.56901
   D147       1.54707   0.00000   0.00006   0.00001   0.00006   1.54714
   D148       0.55543  -0.00000  -0.00004  -0.00027  -0.00031   0.55512
   D149       2.61081  -0.00001  -0.00006  -0.00030  -0.00037   2.61045
   D150      -1.55622  -0.00001  -0.00004  -0.00033  -0.00037  -1.55659
   D151      -0.98279  -0.00000   0.00017  -0.00021  -0.00005  -0.98283
   D152       1.03698   0.00000   0.00013  -0.00017  -0.00004   1.03694
   D153       3.09792  -0.00000   0.00014  -0.00020  -0.00006   3.09786
   D154      -3.12248  -0.00000   0.00016  -0.00024  -0.00008  -3.12256
   D155      -1.10271  -0.00000   0.00013  -0.00021  -0.00008  -1.10279
   D156       0.95823  -0.00000   0.00014  -0.00024  -0.00010   0.95814
   D157       1.14337   0.00000   0.00020  -0.00024  -0.00004   1.14333
   D158      -3.12005   0.00000   0.00017  -0.00020  -0.00003  -3.12008
   D159      -1.05910   0.00000   0.00018  -0.00023  -0.00005  -1.05916
   D160       1.19746   0.00000  -0.00004  -0.00000  -0.00004   1.19742
   D161      -3.06345  -0.00000  -0.00003  -0.00003  -0.00007  -3.06352
   D162      -0.94880   0.00000  -0.00007   0.00000  -0.00006  -0.94886
   D163       1.07347  -0.00000  -0.00006  -0.00003  -0.00009   1.07338
   D164      -3.01379   0.00000  -0.00004  -0.00001  -0.00006  -3.01385
   D165      -0.99152  -0.00000  -0.00004  -0.00004  -0.00008  -0.99161
         Item               Value     Threshold  Converged?
 Maximum Force            0.000623     0.000450     NO 
 RMS     Force            0.000080     0.000300     YES
 Maximum Displacement     0.024854     0.001800     NO 
 RMS     Displacement     0.004060     0.001200     NO 
 Predicted change in Energy=-3.536175D-06
 Lowest energy point so far.  Saving SCF results.
 GradGradGradGradGradGradGradGradGradGradGradGradGradGradGradGradGradGrad

 Leave Link  103 at Thu Mar 14 09:26:03 2024, MaxMem= 32212254720 cpu:               2.7 elap:               0.1
 (Enter /home/<user>/g16/l202.exe)
 Stoichiometry    C29H25N3S(3)
 Framework group  C1[X(C29H25N3S)]
 Deg. of freedom   168
 Full point group                 C1      NOp   1
 RotChk:  IX=0 Diff= 4.60D-04
 Largest Abelian subgroup         C1      NOp   1
 Largest concise Abelian subgroup C1      NOp   1
                         Standard orientation:                         
 ---------------------------------------------------------------------
 Center     Atomic      Atomic             Coordinates (Angstroms)
 Number     Number       Type             X           Y           Z
 ---------------------------------------------------------------------
      1          6           0       -2.479533    1.685471   -0.251589
      2          6           0       -1.780778    0.442709   -0.168187
      3          6           0       -2.569978   -0.742013   -0.028893
      4          6           0       -3.945201   -0.672821    0.018768
      5          6           0       -4.610197    0.572082   -0.079367
      6          6           0       -3.862936    1.749719   -0.214841
      7          1           0       -1.903783    2.594907   -0.350440
      8          1           0       -2.084404   -1.705123    0.084573
      9          1           0       -4.356853    2.714815   -0.293435
     10          6           0       -4.953216   -1.812562    0.180209
     11          6           0       -6.273857   -1.043342    0.146731
     12          6           0       -7.570674   -1.532884    0.243621
     13          6           0       -8.644696   -0.635639    0.189523
     14          6           0       -8.420229    0.738389    0.040030
     15          6           0       -7.121858    1.238469   -0.057891
     16          6           0       -6.048067    0.342693   -0.004419
     17          1           0       -7.758539   -2.597631    0.360478
     18          1           0       -9.662310   -1.009397    0.264523
     19          1           0       -9.265238    1.420379    0.000050
     20          1           0       -6.950849    2.305503   -0.173874
     21          6           0       -4.764810   -2.546137    1.527200
     22          1           0       -5.535628   -3.314003    1.660396
     23          1           0       -3.787549   -3.041174    1.565226
     24          1           0       -4.827399   -1.848880    2.368619
     25          6           0       -4.858777   -2.820055   -0.987353
     26          1           0       -3.883126   -3.319796   -0.989188
     27          1           0       -5.631056   -3.592480   -0.895570
     28          1           0       -4.988389   -2.319817   -1.952333
     29          6           0       -0.340231    0.360413   -0.230274
     30          6           0        0.561898    1.473458   -0.033726
     31          6           0        0.309106   -0.908444   -0.515533
     32          6           0        2.019433    1.290309   -0.078805
     33          6           0        1.657647   -1.074195   -0.557436
     34          1           0       -0.312085   -1.758086   -0.771120
     35          6           0        2.606192   -0.004296   -0.321868
     36          1           0        2.041110   -2.047120   -0.841252
     37          7           0        0.194029    2.721465    0.241036
     38          7           0        2.703654    2.406160    0.162996
     39         16           0        1.591329    3.636473    0.422771
     40          6           0        4.033265   -0.272067   -0.348217
     41          6           0        5.003757    0.746622   -0.539322
     42          6           0        4.524490   -1.596772   -0.195271
     43          6           0        6.358013    0.448055   -0.585112
     44          1           0        4.674220    1.769544   -0.658534
     45          6           0        5.881618   -1.877643   -0.230667
     46          1           0        3.835146   -2.412565   -0.007561
     47          6           0        6.833031   -0.864250   -0.431722
     48          1           0        7.069492    1.254288   -0.751599
     49          1           0        6.216219   -2.904334   -0.098549
     50          6           0        8.310547   -1.172263   -0.433732
     51          1           0        8.496716   -2.180064   -0.821981
     52          1           0        8.834293   -0.471991   -1.099306
     53          6           0        8.937580   -1.081808    0.970475
     54          1           0        8.741413   -0.076521    1.384763
     55          1           0        8.431672   -1.795592    1.631964
     56          7           0       10.356095   -1.448307    0.913992
     57          1           0       10.873799   -0.732476    0.404567
     58          1           0       10.746202   -1.458361    1.855088
 ---------------------------------------------------------------------
 Rotational constants (GHZ):           0.3478913           0.0397556           0.0363251
 Leave Link  202 at Thu Mar 14 09:26:03 2024, MaxMem= 32212254720 cpu:               0.0 elap:               0.0
 (Enter /home/<user>/g16/l301.exe)
 Standard basis: 6-31G(d) (6D, 7F)
 Ernie: Thresh=  0.10000D-02 Tol=  0.10000D-05 Strict=F.
 There are   549 symmetry adapted cartesian basis functions of A   symmetry.
 There are   549 symmetry adapted basis functions of A   symmetry.
   549 basis functions,  1048 primitive gaussians,   549 cartesian basis functions
   119 alpha electrons      117 beta electrons
       nuclear repulsion energy      3072.7207116627 Hartrees.
 IExCor=  402 DFT=T Ex+Corr=B3LYP ExCW=0 ScaHFX=  0.200000
 ScaDFX=  0.800000  0.720000  1.000000  0.810000 ScalE2=  1.000000  1.000000
 IRadAn=      5 IRanWt=     -1 IRanGd=            0 ICorTp=0 IEmpDi=  4
 NAtoms=   58 NActive=   58 NUniq=   58 SFac= 1.00D+00 NAtFMM=   60 NAOKFM=F Big=F
 Integral buffers will be    131072 words long.
 Raffenetti 2 integral format.
 Two-electron integral symmetry is turned on.
 Leave Link  301 at Thu Mar 14 09:26:03 2024, MaxMem= 32212254720 cpu:               0.8 elap:               0.0
 (Enter /home/<user>/g16/l302.exe)
 NPDir=0 NMtPBC=     1 NCelOv=     1 NCel=       1 NClECP=     1 NCelD=      1
         NCelK=      1 NCelE2=     1 NClLst=     1 CellRange=     0.0.
 One-electron integrals computed using PRISM.
 One-electron integral symmetry used in STVInt
 NBasis=   549 RedAO= T EigKep=  2.73D-04  NBF=   549
 NBsUse=   549 1.00D-06 EigRej= -1.00D+00 NBFU=   549
 Precomputing XC quadrature grid using
 IXCGrd= 4 IRadAn=           5 IRanWt=          -1 IRanGd=           0 AccXCQ= 0.00D+00.
 Generated NRdTot=       0 NPtTot=           0 NUsed=           0 NTot=          32
 NSgBfM=   512   512   512   512   512 MxSgAt=    58 MxSgA2=    58.
 Leave Link  302 at Thu Mar 14 09:26:04 2024, MaxMem= 32212254720 cpu:              12.4 elap:               0.4
 (Enter /home/<user>/g16/l303.exe)
 DipDrv:  MaxL=1.
 Leave Link  303 at Thu Mar 14 09:26:04 2024, MaxMem= 32212254720 cpu:               1.4 elap:               0.1
 (Enter /home/<user>/g16/l401.exe)
 Initial guess from the checkpoint file:  "FBTP_T1opt.chk"
 B after Tr=     0.000000   -0.000000   -0.000000
         Rot=    1.000000    0.000049    0.000002   -0.000019 Ang=   0.01 deg.
 Guess basis will be translated and rotated to current coordinates.
 JPrj=2 DoOrth=T DoCkMO=T.
 Initial guess <Sx>= 0.0000 <Sy>= 0.0000 <Sz>= 1.0000 <S**2>= 2.0368 S= 1.0122
 Generating alternative initial guess.
 ExpMin= 1.17D-01 ExpMax= 2.19D+04 ExpMxC= 3.30D+03 IAcc=3 IRadAn=         5 AccDes= 0.00D+00
 Harris functional with IExCor=  402 and IRadAn=       5 diagonalized for initial guess.
 HarFok:  IExCor=  402 AccDes= 0.00D+00 IRadAn=         5 IDoV= 1 UseB2=F ITyADJ=14
 ICtDFT=  3500011 ScaDFX=  1.000000  1.000000  1.000000  1.000000
 FoFCou: FMM=F IPFlag=           0 FMFlag=      100000 FMFlg1=           0
         NFxFlg=           0 DoJE=T BraDBF=F KetDBF=T FulRan=T
         wScrn=  0.000000 ICntrl=       500 IOpCl=  0 I1Cent=   200000004 NGrid=           0
         NMat0=    1 NMatS0=      1 NMatT0=    0 NMatD0=    1 NMtDS0=    0 NMtDT0=    0
 Petite list used in FoFCou.
 Harris En= -1682.50339317933    
 Leave Link  401 at Thu Mar 14 09:26:05 2024, MaxMem= 32212254720 cpu:              46.8 elap:               1.6
 (Enter /home/<user>/g16/l502.exe)
 Integral symmetry usage will be decided dynamically.
 UHF open shell SCF:
 Using DIIS extrapolation, IDIIS=  1040.
 NGot= 32212254720 LenX= 32211628124 LenY= 32211326174
 Requested convergence on RMS density matrix=1.00D-08 within 128 cycles.
 Requested convergence on MAX density matrix=1.00D-06.
 Requested convergence on             energy=1.00D-06.
 No special actions if energy rises.
 Fock matrices will be formed incrementally for  20 cycles.
 Integral accuracy reduced to 1.0D-05 until final iterations.

 Cycle   1  Pass 0  IDiag  1:
 FoFJK:  IHMeth= 1 ICntrl=       0 DoSepK=F KAlg= 0 I1Cent=           0 FoldK=F
 IRaf= 550000000 NMat=       1 IRICut=       1 DoRegI=T DoRafI=F ISym2E= 0 IDoP0=0 IntGTp=1.
 FoFCou: FMM=F IPFlag=           0 FMFlag=      100000 FMFlg1=           0
         NFxFlg=           0 DoJE=F BraDBF=F KetDBF=F FulRan=T
         wScrn=  0.000000 ICntrl=         0 IOpCl=  1 I1Cent=           0 NGrid=           0
         NMat0=    1 NMatS0=      1 NMatT0=    0 NMatD0=    1 NMtDS0=    0 NMtDT0=    0
 Symmetry not used in FoFCou.
 E= -1682.54386787315    
 DIIS: error= 1.28D-04 at cycle   1 NSaved=   1.
 NSaved= 1 IEnMin= 1 EnMin= -1682.54386787315     IErMin= 1 ErrMin= 1.28D-04
 ErrMax= 1.28D-04  0.00D+00 EMaxC= 1.00D-01 BMatC= 9.68D-05 BMatP= 9.68D-05
 IDIUse=3 WtCom= 9.99D-01 WtEn= 1.28D-03
 Coeff-Com:  0.100D+01
 Coeff-En:   0.100D+01
 Coeff:      0.100D+01
 Gap=     1.902 Goal=   None    Shift=    0.000
 Gap=     1.983 Goal=   None    Shift=    0.000
 RMSDP=7.08D-05 MaxDP=2.42D-03              OVMax= 1.15D-03

 Cycle   2  Pass 0  IDiag  1:
 RMSU=  7.08D-05    CP:  1.00D+00
 E= -1682.54389226293     Delta-E=       -0.000024389778 Rises=F Damp=F
 DIIS: error= 1.71D-05 at cycle   2 NSaved=   2.
 NSaved= 2 IEnMin= 2 EnMin= -1682.54389226293     IErMin= 2 ErrMin= 1.71D-05
 ErrMax= 1.71D-05  0.00D+00 EMaxC= 1.00D-01 BMatC= 1.57D-06 BMatP= 9.68D-05
 IDIUse=1 WtCom= 1.00D+00 WtEn= 0.00D+00
 Coeff-Com: -0.628D-01 0.106D+01
 Coeff:     -0.628D-01 0.106D+01
 Gap=     0.092 Goal=   None    Shift=    0.000
 Gap=     0.080 Goal=   None    Shift=    0.000
 RMSDP=3.67D-06 MaxDP=1.69D-04 DE=-2.44D-05 OVMax= 3.93D-04

 Initial convergence to 1.0D-05 achieved.  Increase integral accuracy.
 Cycle   3  Pass 1  IDiag  1:
 E= -1682.54393051050     Delta-E=       -0.000038247574 Rises=F Damp=F
 DIIS: error= 1.13D-04 at cycle   1 NSaved=   1.
 NSaved= 1 IEnMin= 1 EnMin= -1682.54393051050     IErMin= 1 ErrMin= 1.13D-04
 ErrMax= 1.13D-04  0.00D+00 EMaxC= 1.00D-01 BMatC= 1.36D-05 BMatP= 1.36D-05
 IDIUse=3 WtCom= 9.99D-01 WtEn= 1.13D-03
 Coeff-Com:  0.100D+01
 Coeff-En:   0.100D+01
 Coeff:      0.100D+01
 Gap=     0.092 Goal=   None    Shift=    0.000
 Gap=     0.080 Goal=   None    Shift=    0.000
 RMSDP=3.67D-06 MaxDP=1.69D-04 DE=-3.82D-05 OVMax= 7.18D-04

 Cycle   4  Pass 1  IDiag  1:
 RMSU=  6.87D-05    CP:  1.00D+00
 E= -1682.54393015454     Delta-E=        0.000000355963 Rises=F Damp=F
 DIIS: error= 7.25D-05 at cycle   2 NSaved=   2.
 NSaved= 2 IEnMin= 1 EnMin= -1682.54393051050     IErMin= 2 ErrMin= 7.25D-05
 ErrMax= 7.25D-05  0.00D+00 EMaxC= 1.00D-01 BMatC= 1.23D-05 BMatP= 1.36D-05
 IDIUse=1 WtCom= 1.00D+00 WtEn= 0.00D+00
 Coeff-Com:  0.483D+00 0.517D+00
 Coeff:      0.483D+00 0.517D+00
 Gap=     0.092 Goal=   None    Shift=    0.000
 Gap=     0.080 Goal=   None    Shift=    0.000
 RMSDP=7.09D-06 MaxDP=5.73D-04 DE= 3.56D-07 OVMax= 9.95D-04

 Cycle   5  Pass 1  IDiag  1:
 RMSU=  7.09D-06    CP:  1.00D+00  9.99D-01
 E= -1682.54393115632     Delta-E=       -0.000001001782 Rises=F Damp=F
 DIIS: error= 6.41D-05 at cycle   3 NSaved=   3.
 NSaved= 3 IEnMin= 3 EnMin= -1682.54393115632     IErMin= 3 ErrMin= 6.41D-05
 ErrMax= 6.41D-05  0.00D+00 EMaxC= 1.00D-01 BMatC= 8.56D-06 BMatP= 1.23D-05
 IDIUse=1 WtCom= 1.00D+00 WtEn= 0.00D+00
 Coeff-Com:  0.197D-01 0.449D+00 0.531D+00
 Coeff:      0.197D-01 0.449D+00 0.531D+00
 Gap=     0.092 Goal=   None    Shift=    0.000
 Gap=     0.080 Goal=   None    Shift=    0.000
 RMSDP=3.42D-06 MaxDP=2.95D-04 DE=-1.00D-06 OVMax= 5.27D-04

 Cycle   6  Pass 1  IDiag  1:
 RMSU=  1.09D-06    CP:  1.00D+00  1.01D+00  5.50D-01
 E= -1682.54393331597     Delta-E=       -0.000002159652 Rises=F Damp=F
 DIIS: error= 8.58D-06 at cycle   4 NSaved=   4.
 NSaved= 4 IEnMin= 4 EnMin= -1682.54393331597     IErMin= 4 ErrMin= 8.58D-06
 ErrMax= 8.58D-06  0.00D+00 EMaxC= 1.00D-01 BMatC= 3.47D-07 BMatP= 8.56D-06
 IDIUse=1 WtCom= 1.00D+00 WtEn= 0.00D+00
 Coeff-Com: -0.226D-02 0.275D+00 0.344D+00 0.383D+00
 Coeff:     -0.226D-02 0.275D+00 0.344D+00 0.383D+00
 Gap=     0.092 Goal=   None    Shift=    0.000
 Gap=     0.080 Goal=   None    Shift=    0.000
 RMSDP=6.99D-07 MaxDP=3.53D-05 DE=-2.16D-06 OVMax= 1.03D-04

 Cycle   7  Pass 1  IDiag  1:
 RMSU=  2.54D-07    CP:  1.00D+00  1.01D+00  5.60D-01  4.07D-01
 E= -1682.54393340690     Delta-E=       -0.000000090927 Rises=F Damp=F
 DIIS: error= 1.38D-06 at cycle   5 NSaved=   5.
 NSaved= 5 IEnMin= 5 EnMin= -1682.54393340690     IErMin= 5 ErrMin= 1.38D-06
 ErrMax= 1.38D-06  0.00D+00 EMaxC= 1.00D-01 BMatC= 6.79D-09 BMatP= 3.47D-07
 IDIUse=1 WtCom= 1.00D+00 WtEn= 0.00D+00
 Coeff-Com: -0.192D-02 0.139D+00 0.174D+00 0.216D+00 0.473D+00
 Coeff:     -0.192D-02 0.139D+00 0.174D+00 0.216D+00 0.473D+00
 Gap=     0.092 Goal=   None    Shift=    0.000
 Gap=     0.080 Goal=   None    Shift=    0.000
 RMSDP=1.17D-07 MaxDP=7.68D-06 DE=-9.09D-08 OVMax= 1.56D-05

 Cycle   8  Pass 1  IDiag  1:
 RMSU=  9.41D-08    CP:  1.00D+00  1.01D+00  5.59D-01  4.31D-01  7.44D-01
 E= -1682.54393340873     Delta-E=       -0.000000001827 Rises=F Damp=F
 DIIS: error= 7.09D-07 at cycle   6 NSaved=   6.
 NSaved= 6 IEnMin= 6 EnMin= -1682.54393340873     IErMin= 6 ErrMin= 7.09D-07
 ErrMax= 7.09D-07  0.00D+00 EMaxC= 1.00D-01 BMatC= 8.22D-10 BMatP= 6.79D-09
 IDIUse=1 WtCom= 1.00D+00 WtEn= 0.00D+00
 Coeff-Com: -0.836D-03 0.494D-01 0.620D-01 0.833D-01 0.272D+00 0.534D+00
 Coeff:     -0.836D-03 0.494D-01 0.620D-01 0.833D-01 0.272D+00 0.534D+00
 Gap=     0.092 Goal=   None    Shift=    0.000
 Gap=     0.080 Goal=   None    Shift=    0.000
 RMSDP=4.82D-08 MaxDP=3.77D-06 DE=-1.83D-09 OVMax= 9.10D-06

 Cycle   9  Pass 1  IDiag  1:
 RMSU=  4.40D-08    CP:  1.00D+00  1.01D+00  5.59D-01  4.28D-01  8.19D-01
                    CP:  1.01D+00
 E= -1682.54393340922     Delta-E=       -0.000000000492 Rises=F Damp=F
 DIIS: error= 4.37D-07 at cycle   7 NSaved=   7.
 NSaved= 7 IEnMin= 7 EnMin= -1682.54393340922     IErMin= 7 ErrMin= 4.37D-07
 ErrMax= 4.37D-07  0.00D+00 EMaxC= 1.00D-01 BMatC= 2.40D-10 BMatP= 8.22D-10
 IDIUse=1 WtCom= 1.00D+00 WtEn= 0.00D+00
 Coeff-Com:  0.402D-03-0.348D-01-0.438D-01-0.478D-01-0.470D-01 0.295D+00
 Coeff-Com:  0.878D+00
 Coeff:      0.402D-03-0.348D-01-0.438D-01-0.478D-01-0.470D-01 0.295D+00
 Coeff:      0.878D+00
 Gap=     0.092 Goal=   None    Shift=    0.000
 Gap=     0.080 Goal=   None    Shift=    0.000
 RMSDP=5.95D-08 MaxDP=6.22D-06 DE=-4.92D-10 OVMax= 2.29D-05

 Cycle  10  Pass 1  IDiag  1:
 RMSU=  3.75D-08    CP:  1.00D+00  1.01D+00  5.60D-01  4.31D-01  9.11D-01
                    CP:  1.42D+00  1.19D+00
 E= -1682.54393340947     Delta-E=       -0.000000000251 Rises=F Damp=F
 DIIS: error= 4.22D-07 at cycle   8 NSaved=   8.
 NSaved= 8 IEnMin= 8 EnMin= -1682.54393340947     IErMin= 8 ErrMin= 4.22D-07
 ErrMax= 4.22D-07  0.00D+00 EMaxC= 1.00D-01 BMatC= 2.17D-10 BMatP= 2.40D-10
 IDIUse=1 WtCom= 1.00D+00 WtEn= 0.00D+00
 Coeff-Com:  0.808D-03-0.579D-01-0.729D-01-0.869D-01-0.187D+00-0.385D-01
 Coeff-Com:  0.802D+00 0.641D+00
 Coeff:      0.808D-03-0.579D-01-0.729D-01-0.869D-01-0.187D+00-0.385D-01
 Coeff:      0.802D+00 0.641D+00
 Gap=     0.092 Goal=   None    Shift=    0.000
 Gap=     0.080 Goal=   None    Shift=    0.000
 RMSDP=4.29D-08 MaxDP=3.85D-06 DE=-2.51D-10 OVMax= 1.09D-05

 Cycle  11  Pass 1  IDiag  1:
 RMSU=  2.03D-08    CP:  1.00D+00  1.01D+00  5.60D-01  4.36D-01  9.85D-01
                    CP:  1.66D+00  1.70D+00  1.16D+00
 E= -1682.54393340957     Delta-E=       -0.000000000104 Rises=F Damp=F
 DIIS: error= 9.18D-08 at cycle   9 NSaved=   9.
 NSaved= 9 IEnMin= 9 EnMin= -1682.54393340957     IErMin= 9 ErrMin= 9.18D-08
 ErrMax= 9.18D-08  0.00D+00 EMaxC= 1.00D-01 BMatC= 2.12D-11 BMatP= 2.17D-10
 IDIUse=1 WtCom= 1.00D+00 WtEn= 0.00D+00
 Coeff-Com:  0.264D-03-0.174D-01-0.219D-01-0.269D-01-0.729D-01-0.940D-01
 Coeff-Com:  0.162D+00 0.293D+00 0.778D+00
 Coeff:      0.264D-03-0.174D-01-0.219D-01-0.269D-01-0.729D-01-0.940D-01
 Coeff:      0.162D+00 0.293D+00 0.778D+00
 Gap=     0.092 Goal=   None    Shift=    0.000
 Gap=     0.080 Goal=   None    Shift=    0.000
 RMSDP=1.73D-08 MaxDP=1.74D-06 DE=-1.04D-10 OVMax= 5.58D-06

 Cycle  12  Pass 1  IDiag  1:
 RMSU=  7.97D-09    CP:  1.00D+00  1.01D+00  5.60D-01  4.37D-01  1.01D+00
                    CP:  1.75D+00  1.88D+00  1.37D+00  1.03D+00
 E= -1682.54393340962     Delta-E=       -0.000000000042 Rises=F Damp=F
 DIIS: error= 6.29D-08 at cycle  10 NSaved=  10.
 NSaved=10 IEnMin=10 EnMin= -1682.54393340962     IErMin=10 ErrMin= 6.29D-08
 ErrMax= 6.29D-08  0.00D+00 EMaxC= 1.00D-01 BMatC= 1.14D-11 BMatP= 2.12D-11
 IDIUse=1 WtCom= 1.00D+00 WtEn= 0.00D+00
 Coeff-Com: -0.530D-04 0.481D-02 0.604D-02 0.665D-02 0.335D-02-0.526D-01
 Coeff-Com: -0.121D+00 0.218D-01 0.530D+00 0.601D+00
 Coeff:     -0.530D-04 0.481D-02 0.604D-02 0.665D-02 0.335D-02-0.526D-01
 Coeff:     -0.121D+00 0.218D-01 0.530D+00 0.601D+00
 Gap=     0.092 Goal=   None    Shift=    0.000
 Gap=     0.080 Goal=   None    Shift=    0.000
 RMSDP=7.45D-09 MaxDP=5.79D-07 DE=-4.18D-11 OVMax= 1.57D-06

 SCF Done:  E(UB3LYP) =  -1682.54393341     A.U. after   12 cycles
            NFock= 12  Conv=0.74D-08     -V/T= 2.0082
 <Sx>= 0.0000 <Sy>= 0.0000 <Sz>= 1.0000 <S**2>= 2.0367 S= 1.0122
 <L.S>= 0.000000000000E+00
 KE= 1.668879807084D+03 PE=-1.006740992286D+04 EE= 3.643265470704D+03
 Annihilation of the first spin contaminant:
 S**2 before annihilation     2.0367,   after     2.0009
 Leave Link  502 at Thu Mar 14 09:26:38 2024, MaxMem= 32212254720 cpu:             976.7 elap:              32.6
 (Enter /home/<user>/g16/l701.exe)
 ... and contract with generalized density number  0.
 Compute integral first derivatives.
 Leave Link  701 at Thu Mar 14 09:26:38 2024, MaxMem= 32212254720 cpu:               5.0 elap:               0.2
 (Enter /home/<user>/g16/l702.exe)
 L702 exits ... SP integral derivatives will be done elsewhere.
 Leave Link  702 at Thu Mar 14 09:26:38 2024, MaxMem= 32212254720 cpu:               0.7 elap:               0.0
 (Enter /home/<user>/g16/l703.exe)
 Integral derivatives from FoFJK, PRISM(SPDF).
 Compute integral first derivatives, UseDBF=F ICtDFT=           0.
 Calling FoFJK, ICntrl=      2127 FMM=F ISym2X=0 I1Cent= 0 IOpClX= 1 NMat=1 NMatS=1 NMatT=0.
 FoFJK:  IHMeth= 1 ICntrl=    2127 DoSepK=F KAlg= 0 I1Cent=           0 FoldK=F
 IRaf=         0 NMat=       1 IRICut=       1 DoRegI=T DoRafI=F ISym2E= 0 IDoP0=0 IntGTp=1.
 FoFCou: FMM=F IPFlag=           0 FMFlag=      100000 FMFlg1=         800
         NFxFlg=           0 DoJE=F BraDBF=F KetDBF=F FulRan=T
         wScrn=  0.000000 ICntrl=      2127 IOpCl=  1 I1Cent=           0 NGrid=           0
         NMat0=    1 NMatS0=      1 NMatT0=    0 NMatD0=    1 NMtDS0=    0 NMtDT0=    0
 Symmetry not used in FoFCou.
 Leave Link  703 at Thu Mar 14 09:26:45 2024, MaxMem= 32212254720 cpu:             201.0 elap:               6.7
 (Enter /home/<user>/g16/l716.exe)
 Dipole        =-4.65768695D-01-9.84069890D-01 5.05131594D-02
 ***** Axes restored to original set *****
 -------------------------------------------------------------------
 Center     Atomic                   Forces (Hartrees/Bohr)
 Number     Number              X              Y              Z
 -------------------------------------------------------------------
      1        6          -0.000004336   -0.000002317   -0.000001933
      2        6           0.000025654    0.000022858   -0.000018031
      3        6          -0.000087289   -0.000028982    0.000024382
      4        6           0.000007344   -0.000042432   -0.000002405
      5        6           0.000030754   -0.000008914    0.000005303
      6        6           0.000010044    0.000002516    0.000021305
      7        1           0.000008775    0.000000938    0.000002415
      8        1          -0.000001527    0.000027600    0.000003080
      9        1          -0.000012238   -0.000007423   -0.000011322
     10        6          -0.000005842    0.000025306    0.000010936
     11        6          -0.000003417   -0.000005624   -0.000006232
     12        6           0.000002117    0.000000121   -0.000001066
     13        6           0.000001442   -0.000001600    0.000000308
     14        6           0.000005474    0.000004549    0.000000187
     15        6          -0.000008151    0.000002505   -0.000001398
     16        6           0.000006509    0.000010272   -0.000000054
     17        1          -0.000000488   -0.000000492    0.000001131
     18        1           0.000001092   -0.000000487    0.000000395
     19        1          -0.000000646    0.000000271    0.000000507
     20        1          -0.000000885    0.000001040    0.000001459
     21        6           0.000003192   -0.000007964   -0.000001911
     22        1          -0.000000874   -0.000000150    0.000002979
     23        1          -0.000000110    0.000002183   -0.000000505
     24        1           0.000000197   -0.000000188    0.000001169
     25        6           0.000001191   -0.000003891   -0.000008056
     26        1           0.000000511   -0.000000343    0.000001794
     27        1           0.000000093    0.000000365    0.000000577
     28        1          -0.000000838    0.000002057    0.000000535
     29        6          -0.000052669    0.000264466    0.000056377
     30        6           0.000008904   -0.000111768   -0.000000429
     31        6           0.000238719   -0.000236756    0.000006234
     32        6          -0.000035444   -0.000084603   -0.000001237
     33        6          -0.000262089   -0.000154914    0.000018093
     34        1          -0.000027461    0.000060564   -0.000054915
     35        6           0.000055227    0.000233471    0.000048133
     36        1           0.000058518    0.000042266   -0.000041988
     37        7          -0.000039154    0.000096479   -0.000063700
     38        7           0.000102650    0.000060170   -0.000060593
     39       16          -0.000010646   -0.000181288    0.000050052
     40        6           0.000046720    0.000025253   -0.000021441
     41        6          -0.000050185   -0.000021698    0.000011504
     42        6           0.000041049   -0.000031018    0.000027751
     43        6          -0.000001831    0.000011845    0.000009364
     44        1          -0.000017293    0.000023130    0.000003459
     45        6          -0.000008829   -0.000016467   -0.000004483
     46        1          -0.000009489    0.000022285   -0.000000028
     47        6          -0.000042651    0.000004454   -0.000003194
     48        1           0.000005916   -0.000008069   -0.000006354
     49        1           0.000008206    0.000007226    0.000000094
     50        6           0.000014324    0.000002626    0.000006513
     51        1           0.000000058    0.000001207    0.000000956
     52        1           0.000000757    0.000000419   -0.000002555
     53        6          -0.000001289   -0.000000292   -0.000000800
     54        1          -0.000000140   -0.000000587   -0.000001071
     55        1          -0.000000497   -0.000000274    0.000000984
     56        7          -0.000000425   -0.000000405   -0.000001623
     57        1           0.000001140    0.000000414   -0.000000544
     58        1           0.000000155    0.000000088   -0.000000109
 -------------------------------------------------------------------
 Cartesian Forces:  Max     0.000264466 RMS     0.000052321
 Leave Link  716 at Thu Mar 14 09:26:45 2024, MaxMem= 32212254720 cpu:               0.7 elap:               0.0
 (Enter /home/<user>/g16/l103.exe)

 GradGradGradGradGradGradGradGradGradGradGradGradGradGradGradGradGradGrad
 Berny optimization.
 Using GEDIIS/GDIIS optimizer.
 FormGI is forming the generalized inverse of G from B-inverse, IUseBI=4.
 GSVD:  received Info=                   1 from GESDD.
 Internal  Forces:  Max     0.000225827 RMS     0.000029403
 Search for a local minimum.
 Step number   8 out of a maximum of  346
 All quantities printed in internal units (Hartrees-Bohrs-Radians)
 RMS Force = .29403D-04 SwitMx=.10000D-02 MixMth= 2
 Mixed Optimization -- En-DIIS/RFO-DIIS
 Swapping is turned off.
 Update second derivatives using D2CorX and points    3    4    5    6    7
                                                      8
 DE= -4.30D-06 DEPred=-3.54D-06 R= 1.22D+00
 TightC=F SS=  1.41D+00  RLast= 1.38D-02 DXNew= 1.4270D+00 4.1388D-02
 Trust test= 1.22D+00 RLast= 1.38D-02 DXMaxT set to 8.49D-01
 ITU=  1  1  1  1  1  1  1  0
     Eigenvalues ---    0.00230   0.00230   0.00250   0.00608   0.00651
     Eigenvalues ---    0.00755   0.00810   0.00997   0.01079   0.01255
     Eigenvalues ---    0.01455   0.01469   0.01605   0.01632   0.01637
     Eigenvalues ---    0.01667   0.01713   0.01724   0.01734   0.01771
     Eigenvalues ---    0.01835   0.01887   0.02007   0.02031   0.02042
     Eigenvalues ---    0.02069   0.02073   0.02089   0.02090   0.02094
     Eigenvalues ---    0.02096   0.02112   0.02117   0.02119   0.02125
     Eigenvalues ---    0.02134   0.02143   0.02145   0.02149   0.02155
     Eigenvalues ---    0.02158   0.02161   0.02189   0.02566   0.04048
     Eigenvalues ---    0.04278   0.04389   0.04469   0.05425   0.05427
     Eigenvalues ---    0.05433   0.05500   0.05500   0.05559   0.05992
     Eigenvalues ---    0.08021   0.08961   0.09277   0.11593   0.12605
     Eigenvalues ---    0.12824   0.14791   0.15967   0.15981   0.15988
     Eigenvalues ---    0.15999   0.16000   0.16000   0.16000   0.16000
     Eigenvalues ---    0.16000   0.16000   0.16000   0.16000   0.16000
     Eigenvalues ---    0.16000   0.16000   0.16001   0.16003   0.16016
     Eigenvalues ---    0.16035   0.16209   0.18987   0.20068   0.21875
     Eigenvalues ---    0.21953   0.21997   0.22004   0.22461   0.22471
     Eigenvalues ---    0.22618   0.22950   0.23642   0.24145   0.24354
     Eigenvalues ---    0.24538   0.24764   0.24962   0.24982   0.24992
     Eigenvalues ---    0.25003   0.25012   0.28028   0.28067   0.28453
     Eigenvalues ---    0.28583   0.28626   0.29026   0.30790   0.31180
     Eigenvalues ---    0.33128   0.33607   0.33788   0.33945   0.34028
     Eigenvalues ---    0.34091   0.34100   0.34104   0.34106   0.34131
     Eigenvalues ---    0.34276   0.34289   0.34709   0.34905   0.35033
     Eigenvalues ---    0.35050   0.35084   0.35146   0.35151   0.35160
     Eigenvalues ---    0.35187   0.35189   0.35251   0.35273   0.35449
     Eigenvalues ---    0.35701   0.36125   0.36251   0.37234   0.37827
     Eigenvalues ---    0.38314   0.40211   0.40834   0.41562   0.41759
     Eigenvalues ---    0.42099   0.42531   0.43007   0.43232   0.44196
     Eigenvalues ---    0.44364   0.44509   0.44523   0.44727   0.44970
     Eigenvalues ---    0.45438   0.45690   0.45801   0.45991   0.46080
     Eigenvalues ---    0.46292   0.46911   0.47094   0.47331   0.47970
     Eigenvalues ---    0.54494   0.60146   0.67599
 En-DIIS/RFO-DIIS/Sim-DIIS IScMMF=       -3 using points:     8    7    6    5    4    3
 RFO step:  Lambda=-2.53135342D-06.
 NNeg= 0 NGDIIS= 6 SimSw=  2.50D-01 Rises=F DC= -4.30D-06 SmlDif=  1.00D-05
 NRisDI= 0 DoIntr=F SqrtH=F CThrHd= 10.0 CDAdj=  3.0
 RMS Error=  0.6752923323D-03 NUsed= 6 OKEnD=F EnDIS=F
 InvSVX:  RCond= 3.12D-06 Info=           0 Equed=N FErr=  3.52D-14 BErr=  1.63D-16
 DidBck=F Rises=F RFO-DIIS coefs:    1.26128   -0.01436   -0.15564   -0.18600    0.09809
                  RFO-DIIS coefs:   -0.00338
 Iteration  1 RMS(Cart)=  0.00406217 RMS(Int)=  0.00000211
 Iteration  2 RMS(Cart)=  0.00001047 RMS(Int)=  0.00000055
 Iteration  3 RMS(Cart)=  0.00000000 RMS(Int)=  0.00000055
 ITry= 1 IFail=0 DXMaxC= 2.60D-02 DCOld= 1.00D+10 DXMaxT= 8.49D-01 DXLimC= 3.00D+00 Rises=F
 Variable       Old X    -DE/DX   Delta X   Delta X   Delta X     New X
                                 (Linear)    (Quad)   (Total)
    R1        2.69885  -0.00001   0.00003  -0.00013  -0.00010   2.69875
    R2        2.61799  -0.00001   0.00008  -0.00010  -0.00002   2.61797
    R3        2.04260   0.00000  -0.00011   0.00011  -0.00001   2.04259
    R4        2.70291   0.00006   0.00013  -0.00007   0.00006   2.70297
    R5        2.72920   0.00002   0.00071  -0.00066   0.00005   2.72925
    R6        2.60364  -0.00002   0.00013  -0.00015  -0.00002   2.60362
    R7        2.04949  -0.00002  -0.00017   0.00013  -0.00004   2.04945
    R8        2.67357  -0.00001   0.00000  -0.00000  -0.00000   2.67357
    R9        2.89145  -0.00001  -0.00001  -0.00004  -0.00005   2.89140
   R10        2.64803  -0.00001   0.00000  -0.00001  -0.00000   2.64803
   R11        2.75518  -0.00001  -0.00003  -0.00000  -0.00004   2.75515
   R12        2.05411   0.00000  -0.00003   0.00002  -0.00001   2.05410
   R13        2.88882  -0.00000   0.00000  -0.00000  -0.00000   2.88882
   R14        2.92023   0.00000  -0.00008   0.00006  -0.00002   2.92022
   R15        2.91971   0.00000   0.00000   0.00005   0.00005   2.91976
   R16        2.62582  -0.00000   0.00000  -0.00002  -0.00002   2.62580
   R17        2.66908   0.00000  -0.00003   0.00003   0.00000   2.66908
   R18        2.64663  -0.00000   0.00001  -0.00001   0.00000   2.64663
   R19        2.05506   0.00000  -0.00000   0.00000   0.00000   2.05506
   R20        2.64608   0.00000  -0.00001   0.00001   0.00001   2.64608
   R21        2.05351  -0.00000   0.00000  -0.00001  -0.00000   2.05351
   R22        2.63577  -0.00001   0.00002  -0.00003  -0.00002   2.63575
   R23        2.05342   0.00000  -0.00000   0.00000   0.00000   2.05342
   R24        2.64447   0.00001   0.00002   0.00001   0.00002   2.64449
   R25        2.05386   0.00000  -0.00001   0.00001   0.00000   2.05386
   R26        2.07140   0.00000  -0.00000   0.00001   0.00001   2.07141
   R27        2.07143  -0.00000   0.00000  -0.00001  -0.00001   2.07142
   R28        2.06843   0.00000  -0.00001   0.00001   0.00000   2.06843
   R29        2.07151   0.00000   0.00001  -0.00000   0.00001   2.07151
   R30        2.07137  -0.00000  -0.00000   0.00000   0.00000   2.07137
   R31        2.06856   0.00000  -0.00000   0.00000  -0.00000   2.06856
   R32        2.73282  -0.00009   0.00012  -0.00043  -0.00030   2.73251
   R33        2.74694   0.00023  -0.00027   0.00070   0.00043   2.74737
   R34        2.77731  -0.00002  -0.00054   0.00017  -0.00037   2.77694
   R35        2.51294   0.00003   0.00032  -0.00009   0.00024   2.51318
   R36        2.56877  -0.00008  -0.00018   0.00007  -0.00011   2.56866
   R37        2.04675  -0.00003  -0.00008   0.00009   0.00000   2.04676
   R38        2.72499  -0.00017   0.00020  -0.00065  -0.00045   2.72454
   R39        2.51536   0.00001   0.00029  -0.00011   0.00018   2.51554
   R40        2.73842   0.00016  -0.00034   0.00065   0.00031   2.73872
   R41        2.04770  -0.00001  -0.00001   0.00004   0.00002   2.04772
   R42        2.74429  -0.00002   0.00063  -0.00058   0.00005   2.74434
   R43        3.17492  -0.00005  -0.00106   0.00051  -0.00054   3.17437
   R44        3.17250  -0.00007  -0.00106   0.00048  -0.00058   3.17192
   R45        2.68321  -0.00006   0.00001  -0.00020  -0.00019   2.68303
   R46        2.68550   0.00002   0.00003  -0.00006  -0.00003   2.68546
   R47        2.62206  -0.00001   0.00010  -0.00011  -0.00001   2.62205
   R48        2.04333   0.00003  -0.00012   0.00017   0.00004   2.04337
   R49        2.61980  -0.00001   0.00012  -0.00012  -0.00000   2.61980
   R50        2.04924  -0.00001  -0.00008   0.00007  -0.00001   2.04923
   R51        2.65324  -0.00000  -0.00002   0.00003   0.00001   2.65325
   R52        2.05618  -0.00000  -0.00002   0.00001  -0.00001   2.05618
   R53        2.65409  -0.00000  -0.00009   0.00007  -0.00002   2.65407
   R54        2.05582  -0.00000   0.00001  -0.00002  -0.00001   2.05580
   R55        2.85213   0.00001   0.00003   0.00002   0.00006   2.85219
   R56        2.07100  -0.00000   0.00000  -0.00001  -0.00000   2.07100
   R57        2.07671   0.00000  -0.00000   0.00001   0.00001   2.07671
   R58        2.91113  -0.00000   0.00001  -0.00001  -0.00001   2.91112
   R59        2.08788  -0.00000   0.00000  -0.00000  -0.00000   2.08788
   R60        2.07268   0.00000  -0.00000   0.00001   0.00000   2.07268
   R61        2.77069   0.00000   0.00001  -0.00002  -0.00000   2.77068
   R62        1.92710   0.00000  -0.00000   0.00000   0.00000   1.92710
   R63        1.92525   0.00000   0.00000  -0.00000  -0.00000   1.92525
    A1        2.12630  -0.00000  -0.00003  -0.00015  -0.00018   2.12612
    A2        2.06789  -0.00001  -0.00007   0.00011   0.00003   2.06792
    A3        2.08898   0.00001   0.00010   0.00005   0.00015   2.08913
    A4        2.04484  -0.00001   0.00002   0.00020   0.00021   2.04505
    A5        2.13541  -0.00005  -0.00018   0.00013  -0.00005   2.13536
    A6        2.10290   0.00006   0.00017  -0.00033  -0.00016   2.10274
    A7        2.10890   0.00001  -0.00002  -0.00001  -0.00003   2.10887
    A8        2.09290  -0.00002  -0.00027  -0.00010  -0.00037   2.09252
    A9        2.08044   0.00000   0.00027   0.00013   0.00040   2.08084
   A10        2.10708  -0.00003  -0.00004  -0.00015  -0.00019   2.10689
   A11        2.24441   0.00003   0.00014   0.00005   0.00020   2.24460
   A12        1.93168  -0.00000  -0.00010   0.00010  -0.00001   1.93168
   A13        2.08925   0.00002   0.00005   0.00014   0.00020   2.08945
   A14        1.89815   0.00000   0.00003  -0.00003  -0.00000   1.89815
   A15        2.29576  -0.00003  -0.00008  -0.00011  -0.00020   2.29556
   A16        2.08990   0.00001   0.00001  -0.00002  -0.00001   2.08989
   A17        2.08633   0.00001   0.00010   0.00003   0.00013   2.08646
   A18        2.10696  -0.00002  -0.00011  -0.00001  -0.00012   2.10684
   A19        1.76400   0.00000   0.00012  -0.00009   0.00002   1.76402
   A20        1.94470   0.00000   0.00001  -0.00002  -0.00002   1.94468
   A21        1.94521  -0.00000  -0.00008   0.00005  -0.00003   1.94517
   A22        1.94258   0.00000   0.00007   0.00000   0.00007   1.94266
   A23        1.94376  -0.00000  -0.00009   0.00006  -0.00004   1.94372
   A24        1.91952  -0.00000  -0.00001   0.00000  -0.00001   1.91951
   A25        2.24908   0.00000   0.00009  -0.00006   0.00003   2.24911
   A26        1.93695  -0.00000  -0.00011   0.00008  -0.00003   1.93692
   A27        2.09715  -0.00000   0.00003  -0.00002   0.00000   2.09715
   A28        2.07980  -0.00000   0.00002  -0.00002  -0.00000   2.07979
   A29        2.11024   0.00000  -0.00000   0.00001   0.00001   2.11025
   A30        2.09315   0.00000  -0.00002   0.00001  -0.00000   2.09315
   A31        2.10580   0.00000  -0.00004   0.00004   0.00001   2.10580
   A32        2.08877  -0.00000   0.00002  -0.00003  -0.00001   2.08875
   A33        2.08862  -0.00000   0.00002  -0.00001   0.00000   2.08863
   A34        2.10429  -0.00000   0.00001  -0.00001   0.00000   2.10429
   A35        2.08879  -0.00000  -0.00001   0.00001   0.00000   2.08879
   A36        2.09011   0.00000  -0.00000  -0.00000  -0.00000   2.09011
   A37        2.07384  -0.00000   0.00002  -0.00003  -0.00001   2.07383
   A38        2.10128   0.00000   0.00001  -0.00001  -0.00000   2.10128
   A39        2.10806   0.00000  -0.00003   0.00004   0.00001   2.10807
   A40        1.89394  -0.00000   0.00007  -0.00005   0.00002   1.89396
   A41        2.28374   0.00000  -0.00003   0.00001  -0.00002   2.28373
   A42        2.10550   0.00000  -0.00004   0.00004   0.00000   2.10550
   A43        1.93128   0.00000  -0.00005   0.00006   0.00001   1.93129
   A44        1.93191  -0.00000   0.00000  -0.00002  -0.00002   1.93190
   A45        1.93981   0.00000   0.00003  -0.00002   0.00001   1.93982
   A46        1.88216   0.00000   0.00001   0.00002   0.00003   1.88219
   A47        1.88875  -0.00000   0.00001  -0.00002  -0.00001   1.88874
   A48        1.88809  -0.00000   0.00000  -0.00002  -0.00002   1.88807
   A49        1.93151  -0.00000   0.00000  -0.00000   0.00000   1.93151
   A50        1.93176  -0.00000  -0.00001   0.00002   0.00001   1.93177
   A51        1.94008  -0.00000   0.00002  -0.00003  -0.00001   1.94006
   A52        1.88174   0.00000  -0.00000  -0.00001  -0.00001   1.88173
   A53        1.88835   0.00000   0.00001   0.00001   0.00002   1.88837
   A54        1.88855   0.00000  -0.00001   0.00001  -0.00000   1.88854
   A55        2.18038  -0.00004  -0.00097   0.00057  -0.00040   2.17997
   A56        2.09872   0.00006   0.00070  -0.00062   0.00008   2.09880
   A57        2.00407  -0.00002   0.00028   0.00004   0.00032   2.00439
   A58        2.11598   0.00002  -0.00013   0.00001  -0.00012   2.11586
   A59        2.18688  -0.00002   0.00036  -0.00023   0.00014   2.18701
   A60        1.97974   0.00000  -0.00023   0.00021  -0.00002   1.97972
   A61        2.15993  -0.00003  -0.00018  -0.00012  -0.00029   2.15964
   A62        2.06560  -0.00004   0.00047  -0.00085  -0.00037   2.06523
   A63        2.05562   0.00007  -0.00033   0.00093   0.00061   2.05623
   A64        2.11834   0.00003  -0.00022   0.00015  -0.00007   2.11827
   A65        1.98204   0.00007  -0.00026   0.00045   0.00019   1.98222
   A66        2.18227  -0.00010   0.00048  -0.00059  -0.00011   2.18216
   A67        2.15836  -0.00005  -0.00011  -0.00025  -0.00036   2.15800
   A68        2.05853   0.00009  -0.00027   0.00097   0.00070   2.05923
   A69        2.06445  -0.00005   0.00036  -0.00074  -0.00039   2.06407
   A70        2.00854   0.00003   0.00030   0.00012   0.00041   2.00896
   A71        2.17543  -0.00013  -0.00058  -0.00013  -0.00070   2.17473
   A72        2.09920   0.00010   0.00028   0.00000   0.00029   2.09948
   A73        1.87905  -0.00008   0.00019  -0.00047  -0.00028   1.87878
   A74        1.87746  -0.00010   0.00022  -0.00059  -0.00037   1.87709
   A75        1.70640   0.00011   0.00008   0.00041   0.00049   1.70689
   A76        2.14339  -0.00010   0.00021  -0.00043  -0.00022   2.14317
   A77        2.10552   0.00007  -0.00027   0.00017  -0.00010   2.10543
   A78        2.03420   0.00004   0.00006   0.00027   0.00033   2.03453
   A79        2.11433  -0.00001  -0.00010  -0.00011  -0.00021   2.11413
   A80        2.07744  -0.00000   0.00002   0.00003   0.00005   2.07749
   A81        2.09137   0.00002   0.00008   0.00008   0.00016   2.09153
   A82        2.12291  -0.00002   0.00001  -0.00014  -0.00012   2.12279
   A83        2.09458  -0.00001  -0.00035  -0.00000  -0.00035   2.09422
   A84        2.06496   0.00003   0.00033   0.00015   0.00047   2.06543
   A85        2.12672  -0.00001   0.00002  -0.00006  -0.00005   2.12667
   A86        2.07580   0.00001   0.00011   0.00003   0.00013   2.07593
   A87        2.08065  -0.00001  -0.00012   0.00004  -0.00008   2.08056
   A88        2.11836  -0.00002  -0.00010  -0.00007  -0.00017   2.11819
   A89        2.08196   0.00002   0.00022  -0.00001   0.00021   2.08217
   A90        2.08287   0.00000  -0.00012   0.00007  -0.00005   2.08282
   A91        2.04976   0.00002   0.00010   0.00011   0.00021   2.04997
   A92        2.11976  -0.00002  -0.00003  -0.00011  -0.00014   2.11962
   A93        2.11308  -0.00000  -0.00007  -0.00001  -0.00008   2.11300
   A94        1.93311   0.00000   0.00000  -0.00000   0.00000   1.93311
   A95        1.91487  -0.00000   0.00003  -0.00002   0.00000   1.91487
   A96        1.96630   0.00000   0.00004  -0.00003   0.00001   1.96631
   A97        1.86550  -0.00000  -0.00003   0.00001  -0.00002   1.86549
   A98        1.88365  -0.00000  -0.00002   0.00003   0.00001   1.88366
   A99        1.89722   0.00000  -0.00003   0.00002  -0.00001   1.89722
   A100       1.89964  -0.00000   0.00000  -0.00000  -0.00000   1.89964
   A101       1.90052   0.00000  -0.00002   0.00003   0.00001   1.90053
   A102       1.92198  -0.00000   0.00004  -0.00005  -0.00001   1.92196
   A103       1.85885  -0.00000  -0.00001   0.00001  -0.00000   1.85885
   A104       1.99727   0.00000  -0.00000   0.00000   0.00000   1.99727
   A105       1.88264   0.00000  -0.00000   0.00001   0.00000   1.88265
   A106       1.91234   0.00000  -0.00001   0.00001   0.00000   1.91234
   A107       1.91489  -0.00000   0.00003  -0.00004  -0.00001   1.91488
   A108       1.84833  -0.00000  -0.00000   0.00000  -0.00000   1.84833
    D1       -0.01208  -0.00000  -0.00027   0.00049   0.00022  -0.01186
    D2        3.12109   0.00001   0.00063   0.00007   0.00069   3.12178
    D3        3.13443  -0.00000   0.00007   0.00008   0.00015   3.13457
    D4       -0.01559   0.00001   0.00097  -0.00035   0.00062  -0.01497
    D5        0.01104   0.00000   0.00065  -0.00061   0.00005   0.01109
    D6       -3.12859   0.00001   0.00034  -0.00007   0.00027  -3.12832
    D7       -3.13552   0.00000   0.00031  -0.00019   0.00012  -3.13540
    D8        0.00803   0.00001  -0.00000   0.00035   0.00035   0.00837
    D9        0.00218   0.00000  -0.00035   0.00000  -0.00034   0.00184
   D10       -3.09231   0.00001   0.00002  -0.00028  -0.00025  -3.09257
   D11       -3.13115  -0.00001  -0.00122   0.00042  -0.00081  -3.13196
   D12        0.05754  -0.00000  -0.00085   0.00014  -0.00072   0.05682
   D13        0.29384   0.00000   0.00180   0.00028   0.00208   0.29592
   D14       -2.84130   0.00001   0.00132   0.00095   0.00227  -2.83904
   D15       -2.85645   0.00002   0.00272  -0.00016   0.00257  -2.85388
   D16        0.29159   0.00003   0.00224   0.00051   0.00276   0.29435
   D17        0.00853  -0.00000   0.00057  -0.00037   0.00020   0.00873
   D18       -3.12689   0.00000   0.00052  -0.00027   0.00025  -3.12664
   D19        3.10336  -0.00001   0.00019  -0.00010   0.00009   3.10345
   D20       -0.03206  -0.00001   0.00014  -0.00000   0.00014  -0.03192
   D21       -0.00979  -0.00000  -0.00018   0.00026   0.00008  -0.00971
   D22        3.13794   0.00000  -0.00038   0.00042   0.00004   3.13798
   D23        3.12665  -0.00000  -0.00014   0.00018   0.00004   3.12668
   D24       -0.00880  -0.00000  -0.00035   0.00034  -0.00001  -0.00881
   D25       -3.13857  -0.00000   0.00032  -0.00036  -0.00005  -3.13862
   D26        1.07953  -0.00000   0.00017  -0.00031  -0.00014   1.07939
   D27       -1.07190  -0.00000   0.00024  -0.00033  -0.00009  -1.07200
   D28        0.00869   0.00000   0.00027  -0.00027   0.00000   0.00870
   D29       -2.05639  -0.00000   0.00013  -0.00022  -0.00009  -2.05648
   D30        2.07536   0.00000   0.00019  -0.00024  -0.00004   2.07532
   D31        0.00001  -0.00000  -0.00043   0.00022  -0.00021  -0.00019
   D32        3.13963  -0.00000  -0.00011  -0.00032  -0.00043   3.13920
   D33        3.13384  -0.00000  -0.00017   0.00003  -0.00014   3.13369
   D34       -0.00974  -0.00000   0.00015  -0.00052  -0.00037  -0.01011
   D35        0.00496   0.00000   0.00027  -0.00026   0.00001   0.00497
   D36       -3.13732   0.00000   0.00018  -0.00020  -0.00002  -3.13733
   D37       -3.12951   0.00000   0.00004  -0.00008  -0.00004  -3.12955
   D38        0.01140   0.00000  -0.00006  -0.00002  -0.00007   0.01133
   D39        3.13697  -0.00000  -0.00014   0.00019   0.00005   3.13702
   D40       -0.00561  -0.00000  -0.00011   0.00011   0.00000  -0.00561
   D41       -1.07960   0.00000  -0.00003   0.00011   0.00008  -1.07952
   D42        2.06100  -0.00000  -0.00000   0.00004   0.00003   2.06104
   D43        1.06925   0.00000  -0.00006   0.00016   0.00009   1.06934
   D44       -2.07333   0.00000  -0.00003   0.00008   0.00005  -2.07328
   D45        3.07367   0.00000   0.00011  -0.00011   0.00000   3.07367
   D46       -1.12394   0.00000   0.00009  -0.00005   0.00003  -1.12391
   D47        0.97466   0.00000   0.00011  -0.00011   0.00000   0.97467
   D48        1.11915  -0.00000  -0.00008   0.00002  -0.00006   1.11909
   D49       -3.07845  -0.00000  -0.00010   0.00007  -0.00003  -3.07849
   D50       -0.97985  -0.00000  -0.00008   0.00002  -0.00006  -0.97991
   D51       -1.04351  -0.00000  -0.00000  -0.00006  -0.00006  -1.04357
   D52        1.04207   0.00000  -0.00002  -0.00001  -0.00003   1.04204
   D53        3.14067  -0.00000   0.00000  -0.00006  -0.00006   3.14061
   D54        1.12431   0.00000  -0.00018   0.00017  -0.00001   1.12430
   D55       -3.07378  -0.00000  -0.00019   0.00017  -0.00002  -3.07380
   D56       -0.97453  -0.00000  -0.00021   0.00018  -0.00003  -0.97456
   D57        3.07980  -0.00000  -0.00015   0.00012  -0.00003   3.07977
   D58       -1.11829  -0.00000  -0.00016   0.00012  -0.00003  -1.11832
   D59        0.98096  -0.00000  -0.00017   0.00013  -0.00004   0.98092
   D60       -1.04141   0.00000  -0.00013   0.00017   0.00004  -1.04137
   D61        1.04369   0.00000  -0.00014   0.00017   0.00003   1.04372
   D62       -3.14024   0.00000  -0.00015   0.00017   0.00002  -3.14022
   D63        3.14042  -0.00000   0.00004  -0.00005  -0.00001   3.14041
   D64       -0.00082  -0.00000   0.00004  -0.00004   0.00000  -0.00082
   D65       -0.00011  -0.00000   0.00000   0.00003   0.00004  -0.00007
   D66       -3.14135   0.00000   0.00001   0.00005   0.00005  -3.14130
   D67        0.00080   0.00000  -0.00009   0.00008  -0.00001   0.00079
   D68       -3.14019   0.00000  -0.00001   0.00003   0.00001  -3.14018
   D69        3.14150  -0.00000  -0.00006   0.00001  -0.00005   3.14145
   D70        0.00051   0.00000   0.00002  -0.00004  -0.00003   0.00048
   D71       -0.00020  -0.00000  -0.00000  -0.00002  -0.00002  -0.00022
   D72       -3.14155   0.00000   0.00004  -0.00003   0.00000  -3.14155
   D73        3.14105  -0.00000  -0.00001  -0.00003  -0.00004   3.14101
   D74       -0.00031  -0.00000   0.00003  -0.00005  -0.00001  -0.00032
   D75        0.00011   0.00000  -0.00002   0.00001  -0.00000   0.00010
   D76       -3.14147   0.00000   0.00001  -0.00000   0.00001  -3.14146
   D77        3.14146  -0.00000  -0.00006   0.00003  -0.00003   3.14143
   D78       -0.00012  -0.00000  -0.00002   0.00001  -0.00001  -0.00013
   D79        0.00029  -0.00000   0.00003  -0.00002   0.00001   0.00030
   D80        3.14158   0.00000  -0.00001   0.00003   0.00002  -3.14159
   D81       -3.14132  -0.00000   0.00000  -0.00000   0.00000  -3.14132
   D82       -0.00003   0.00000  -0.00004   0.00005   0.00000  -0.00002
   D83       -3.14143   0.00000   0.00007  -0.00003   0.00003  -3.14140
   D84       -0.00059  -0.00000  -0.00004   0.00004  -0.00000  -0.00059
   D85        0.00046  -0.00000   0.00011  -0.00008   0.00003   0.00049
   D86        3.14130  -0.00000   0.00001  -0.00002  -0.00000   3.14129
   D87        3.11202  -0.00002  -0.00163  -0.00001  -0.00164   3.11038
   D88        0.00980  -0.00002  -0.00173   0.00019  -0.00154   0.00827
   D89       -0.03571  -0.00003  -0.00117  -0.00065  -0.00182  -0.03753
   D90       -3.13792  -0.00003  -0.00127  -0.00045  -0.00172  -3.13964
   D91       -3.11151   0.00002   0.00157   0.00002   0.00159  -3.10992
   D92        0.10023   0.00004   0.00202   0.00049   0.00251   0.10275
   D93        0.03591   0.00003   0.00115   0.00062   0.00176   0.03767
   D94       -3.03553   0.00005   0.00160   0.00109   0.00269  -3.03284
   D95        0.00118   0.00000   0.00029  -0.00002   0.00027   0.00145
   D96       -3.10691   0.00000   0.00030  -0.00020   0.00010  -3.10681
   D97        3.10775   0.00000   0.00040  -0.00021   0.00018   3.10793
   D98       -0.00035   0.00000   0.00040  -0.00038   0.00002  -0.00033
   D99        3.11348  -0.00003  -0.00043  -0.00033  -0.00077   3.11271
   D100       0.00858  -0.00003  -0.00053  -0.00014  -0.00067   0.00791
   D101       0.00043  -0.00000  -0.00018   0.00011  -0.00007   0.00036
   D102      -3.07475   0.00002   0.00018   0.00061   0.00078  -3.07397
   D103       3.07225  -0.00003  -0.00060  -0.00042  -0.00103   3.07122
   D104      -0.00293  -0.00000  -0.00024   0.00007  -0.00018  -0.00311
   D105       0.03436   0.00002   0.00068   0.00074   0.00142   0.03577
   D106      -3.11354   0.00001   0.00132  -0.00042   0.00090  -3.11264
   D107       3.13845   0.00003   0.00065   0.00095   0.00161   3.14005
   D108      -0.00945   0.00001   0.00129  -0.00020   0.00109  -0.00836
   D109      -0.00808   0.00002  -0.00006   0.00070   0.00064  -0.00744
   D110      -3.11474   0.00002  -0.00003   0.00050   0.00047  -3.11427
   D111      -0.03606  -0.00002  -0.00076  -0.00079  -0.00155  -0.03761
   D112       3.11153  -0.00001  -0.00136   0.00031  -0.00105   3.11048
   D113       3.03890  -0.00004  -0.00114  -0.00123  -0.00236   3.03654
   D114      -0.09669  -0.00003  -0.00174  -0.00012  -0.00186  -0.09855
   D115      -0.34260   0.00001  -0.00265   0.00114  -0.00151  -0.34410
   D116       2.81173  -0.00001  -0.00284   0.00064  -0.00219   2.80954
   D117       2.79239  -0.00001  -0.00197  -0.00008  -0.00205   2.79034
   D118      -0.33647  -0.00002  -0.00217  -0.00057  -0.00274  -0.33920
   D119      -0.01172   0.00004   0.00044   0.00048   0.00092  -0.01081
   D120       0.01151  -0.00003  -0.00021  -0.00069  -0.00091   0.01061
   D121      -3.11895  -0.00001  -0.00029  -0.00030  -0.00059  -3.11954
   D122       0.01393  -0.00001  -0.00054   0.00008  -0.00046   0.01347
   D123       0.01040   0.00001  -0.00011   0.00017   0.00006   0.01046
   D124      -3.13991   0.00001  -0.00036   0.00055   0.00020  -3.13972
   D125       3.13002   0.00001   0.00079  -0.00011   0.00068   3.13070
   D126      -0.05355   0.00001   0.00051   0.00016   0.00068  -0.05288
   D127       0.00040  -0.00001   0.00061  -0.00057   0.00004   0.00043
   D128       3.10000  -0.00001   0.00033  -0.00029   0.00004   3.10004
   D129      -0.01194  -0.00000  -0.00031   0.00016  -0.00015  -0.01208
   D130       3.12209  -0.00000  -0.00022   0.00000  -0.00021   3.12188
   D131       3.13844  -0.00001  -0.00006  -0.00022  -0.00028   3.13816
   D132      -0.01071  -0.00001   0.00003  -0.00038  -0.00035  -0.01106
   D133      -0.01008   0.00000  -0.00070   0.00065  -0.00005  -0.01013
   D134       3.13003  -0.00000  -0.00056   0.00029  -0.00026   3.12977
   D135      -3.11037   0.00001  -0.00041   0.00038  -0.00003  -3.11041
   D136       0.02974   0.00000  -0.00027   0.00002  -0.00024   0.02949
   D137       0.00218   0.00000   0.00024  -0.00011   0.00013   0.00231
   D138      -3.10287   0.00000   0.00017   0.00005   0.00021  -3.10266
   D139      -3.13183   0.00000   0.00014   0.00005   0.00019  -3.13164
   D140       0.04631   0.00000   0.00008   0.00020   0.00028   0.04658
   D141       0.00872   0.00000   0.00027  -0.00029  -0.00003   0.00870
   D142       3.11392  -0.00000   0.00033  -0.00045  -0.00011   3.11381
   D143      -3.13139   0.00000   0.00012   0.00006   0.00018  -3.13120
   D144      -0.02619   0.00000   0.00019  -0.00009   0.00010  -0.02609
   D145      -2.62433  -0.00000  -0.00006  -0.00021  -0.00027  -2.62460
   D146      -0.56901  -0.00000  -0.00007  -0.00021  -0.00029  -0.56930
   D147       1.54714  -0.00000  -0.00007  -0.00022  -0.00029   1.54685
   D148       0.55512   0.00000  -0.00013  -0.00005  -0.00018   0.55494
   D149       2.61045   0.00000  -0.00015  -0.00006  -0.00020   2.61024
   D150      -1.55659   0.00000  -0.00014  -0.00006  -0.00020  -1.55680
   D151      -0.98283  -0.00000   0.00015  -0.00016  -0.00001  -0.98284
   D152       1.03694  -0.00000   0.00012  -0.00013  -0.00001   1.03693
   D153       3.09786   0.00000   0.00013  -0.00013  -0.00000   3.09786
   D154      -3.12256  -0.00000   0.00013  -0.00016  -0.00003  -3.12259
   D155      -1.10279  -0.00000   0.00010  -0.00012  -0.00002  -1.10281
   D156       0.95814   0.00000   0.00011  -0.00013  -0.00002   0.95812
   D157       1.14333  -0.00000   0.00019  -0.00019  -0.00000   1.14333
   D158      -3.12008  -0.00000   0.00016  -0.00016  -0.00000  -3.12008
   D159      -1.05916   0.00000   0.00016  -0.00016   0.00000  -1.05915
   D160       1.19742  -0.00000   0.00005  -0.00005   0.00000   1.19742
   D161      -3.06352  -0.00000   0.00006  -0.00006  -0.00000  -3.06352
   D162      -0.94886   0.00000   0.00002  -0.00001   0.00001  -0.94885
   D163       1.07338   0.00000   0.00003  -0.00002   0.00001   1.07339
   D164      -3.01385   0.00000   0.00004  -0.00003   0.00001  -3.01384
   D165      -0.99161   0.00000   0.00005  -0.00005   0.00001  -0.99160
         Item               Value     Threshold  Converged?
 Maximum Force            0.000226     0.000450     YES
 RMS     Force            0.000029     0.000300     YES
 Maximum Displacement     0.026044     0.001800     NO 
 RMS     Displacement     0.004063     0.001200     NO 
 Predicted change in Energy=-1.225386D-06
 Lowest energy point so far.  Saving SCF results.
 GradGradGradGradGradGradGradGradGradGradGradGradGradGradGradGradGradGrad

 Leave Link  103 at Thu Mar 14 09:26:45 2024, MaxMem= 32212254720 cpu:               2.8 elap:               0.1
 (Enter /home/<user>/g16/l202.exe)
 Stoichiometry    C29H25N3S(3)
 Framework group  C1[X(C29H25N3S)]
 Deg. of freedom   168
 Full point group                 C1      NOp   1
 RotChk:  IX=0 Diff= 1.33D-04
 Largest Abelian subgroup         C1      NOp   1
 Largest concise Abelian subgroup C1      NOp   1
                         Standard orientation:                         
 ---------------------------------------------------------------------
 Center     Atomic      Atomic             Coordinates (Angstroms)
 Number     Number       Type             X           Y           Z
 ---------------------------------------------------------------------
      1          6           0       -2.478992    1.685419   -0.254513
      2          6           0       -1.780524    0.442474   -0.172335
      3          6           0       -2.569660   -0.742246   -0.032340
      4          6           0       -3.944783   -0.672871    0.017520
      5          6           0       -4.609519    0.572277   -0.079253
      6          6           0       -3.862319    1.749838   -0.215702
      7          1           0       -1.903138    2.594716   -0.353996
      8          1           0       -2.083668   -1.705257    0.079973
      9          1           0       -4.356357    2.714921   -0.293651
     10          6           0       -4.952911   -1.812287    0.180310
     11          6           0       -6.273357   -1.042638    0.149134
     12          6           0       -7.570178   -1.531743    0.248042
     13          6           0       -8.643969   -0.634107    0.195878
     14          6           0       -8.419268    0.739878    0.046321
     15          6           0       -7.120891    1.239528   -0.053587
     16          6           0       -6.047324    0.343353   -0.002062
     17          1           0       -7.758230   -2.596447    0.365006
     18          1           0       -9.661585   -1.007532    0.272466
     19          1           0       -9.264103    1.422171    0.007869
     20          1           0       -6.949703    2.306530   -0.169598
     21          6           0       -4.762493   -2.546305    1.526766
     22          1           0       -5.533347   -3.313949    1.661054
     23          1           0       -3.785326   -3.041657    1.563002
     24          1           0       -4.823425   -1.849272    2.368492
     25          6           0       -4.860694   -2.819493   -0.987713
     26          1           0       -3.885204   -3.319547   -0.991278
     27          1           0       -5.633060   -3.591708   -0.894896
     28          1           0       -4.991733   -2.318929   -1.952329
     29          6           0       -0.340026    0.359891   -0.235716
     30          6           0        0.562039    1.472379   -0.036919
     31          6           0        0.308903   -0.908522   -0.524996
     32          6           0        2.019357    1.288953   -0.081448
     33          6           0        1.657369   -1.074481   -0.566492
     34          1           0       -0.312864   -1.756478   -0.784759
     35          6           0        2.605735   -0.005188   -0.326492
     36          1           0        2.041500   -2.046057   -0.854047
     37          7           0        0.194324    2.720151    0.239711
     38          7           0        2.703988    2.404179    0.162597
     39         16           0        1.591804    3.633707    0.424686
     40          6           0        4.032928   -0.272614   -0.351239
     41          6           0        5.003124    0.746579   -0.540422
     42          6           0        4.524166   -1.597234   -0.197764
     43          6           0        6.357547    0.448471   -0.584031
     44          1           0        4.673285    1.769414   -0.659749
     45          6           0        5.881450   -1.877635   -0.230851
     46          1           0        3.834380   -2.412977   -0.011495
     47          6           0        6.832688   -0.863724   -0.430047
     48          1           0        7.069131    1.254859   -0.749285
     49          1           0        6.216401   -2.904134   -0.098191
     50          6           0        8.310373   -1.171085   -0.429419
     51          1           0        8.497682   -2.178817   -0.817294
     52          1           0        8.834990   -0.470619   -1.094108
     53          6           0        8.934890   -1.080271    0.975881
     54          1           0        8.737556   -0.075045    1.389759
     55          1           0        8.428135   -1.794235    1.636532
     56          7           0       10.353660   -1.446150    0.921900
     57          1           0       10.871942   -0.730119    0.413345
     58          1           0       10.742117   -1.455977    1.863680
 ---------------------------------------------------------------------
 Rotational constants (GHZ):           0.3479705           0.0397623           0.0363360
 Leave Link  202 at Thu Mar 14 09:26:45 2024, MaxMem= 32212254720 cpu:               0.1 elap:               0.0
 (Enter /home/<user>/g16/l301.exe)
 Standard basis: 6-31G(d) (6D, 7F)
 Ernie: Thresh=  0.10000D-02 Tol=  0.10000D-05 Strict=F.
 There are   549 symmetry adapted cartesian basis functions of A   symmetry.
 There are   549 symmetry adapted basis functions of A   symmetry.
   549 basis functions,  1048 primitive gaussians,   549 cartesian basis functions
   119 alpha electrons      117 beta electrons
       nuclear repulsion energy      3072.9065831464 Hartrees.
 IExCor=  402 DFT=T Ex+Corr=B3LYP ExCW=0 ScaHFX=  0.200000
 ScaDFX=  0.800000  0.720000  1.000000  0.810000 ScalE2=  1.000000  1.000000
 IRadAn=      5 IRanWt=     -1 IRanGd=            0 ICorTp=0 IEmpDi=  4
 NAtoms=   58 NActive=   58 NUniq=   58 SFac= 1.00D+00 NAtFMM=   60 NAOKFM=F Big=F
 Integral buffers will be    131072 words long.
 Raffenetti 2 integral format.
 Two-electron integral symmetry is turned on.
 Leave Link  301 at Thu Mar 14 09:26:45 2024, MaxMem= 32212254720 cpu:               0.8 elap:               0.0
 (Enter /home/<user>/g16/l302.exe)
 NPDir=0 NMtPBC=     1 NCelOv=     1 NCel=       1 NClECP=     1 NCelD=      1
         NCelK=      1 NCelE2=     1 NClLst=     1 CellRange=     0.0.
 One-electron integrals computed using PRISM.
 One-electron integral symmetry used in STVInt
 NBasis=   549 RedAO= T EigKep=  2.74D-04  NBF=   549
 NBsUse=   549 1.00D-06 EigRej= -1.00D+00 NBFU=   549
 Precomputing XC quadrature grid using
 IXCGrd= 4 IRadAn=           5 IRanWt=          -1 IRanGd=           0 AccXCQ= 0.00D+00.
 Generated NRdTot=       0 NPtTot=           0 NUsed=           0 NTot=          32
 NSgBfM=   512   512   512   512   512 MxSgAt=    58 MxSgA2=    58.
 Leave Link  302 at Thu Mar 14 09:26:46 2024, MaxMem= 32212254720 cpu:              12.7 elap:               0.4
 (Enter /home/<user>/g16/l303.exe)
 DipDrv:  MaxL=1.
 Leave Link  303 at Thu Mar 14 09:26:46 2024, MaxMem= 32212254720 cpu:               1.4 elap:               0.1
 (Enter /home/<user>/g16/l401.exe)
 Initial guess from the checkpoint file:  "FBTP_T1opt.chk"
 B after Tr=    -0.000000    0.000000   -0.000000
         Rot=    1.000000    0.000001   -0.000003    0.000015 Ang=   0.00 deg.
 Guess basis will be translated and rotated to current coordinates.
 JPrj=2 DoOrth=T DoCkMO=T.
 Initial guess <Sx>= 0.0000 <Sy>= 0.0000 <Sz>= 1.0000 <S**2>= 2.0367 S= 1.0122
 Generating alternative initial guess.
 ExpMin= 1.17D-01 ExpMax= 2.19D+04 ExpMxC= 3.30D+03 IAcc=3 IRadAn=         5 AccDes= 0.00D+00
 Harris functional with IExCor=  402 and IRadAn=       5 diagonalized for initial guess.
 HarFok:  IExCor=  402 AccDes= 0.00D+00 IRadAn=         5 IDoV= 1 UseB2=F ITyADJ=14
 ICtDFT=  3500011 ScaDFX=  1.000000  1.000000  1.000000  1.000000
 FoFCou: FMM=F IPFlag=           0 FMFlag=      100000 FMFlg1=           0
         NFxFlg=           0 DoJE=T BraDBF=F KetDBF=T FulRan=T
         wScrn=  0.000000 ICntrl=       500 IOpCl=  0 I1Cent=   200000004 NGrid=           0
         NMat0=    1 NMatS0=      1 NMatT0=    0 NMatD0=    1 NMtDS0=    0 NMtDT0=    0
 Petite list used in FoFCou.
 Harris En= -1682.50338876954    
 Leave Link  401 at Thu Mar 14 09:26:47 2024, MaxMem= 32212254720 cpu:              49.7 elap:               1.7
 (Enter /home/<user>/g16/l502.exe)
 Integral symmetry usage will be decided dynamically.
 UHF open shell SCF:
 Using DIIS extrapolation, IDIIS=  1040.
 NGot= 32212254720 LenX= 32211628124 LenY= 32211326174
 Requested convergence on RMS density matrix=1.00D-08 within 128 cycles.
 Requested convergence on MAX density matrix=1.00D-06.
 Requested convergence on             energy=1.00D-06.
 No special actions if energy rises.
 Fock matrices will be formed incrementally for  20 cycles.
 Integral accuracy reduced to 1.0D-05 until final iterations.

 Cycle   1  Pass 0  IDiag  1:
 FoFJK:  IHMeth= 1 ICntrl=       0 DoSepK=F KAlg= 0 I1Cent=           0 FoldK=F
 IRaf= 550000000 NMat=       1 IRICut=       1 DoRegI=T DoRafI=F ISym2E= 0 IDoP0=0 IntGTp=1.
 FoFCou: FMM=F IPFlag=           0 FMFlag=      100000 FMFlg1=           0
         NFxFlg=           0 DoJE=F BraDBF=F KetDBF=F FulRan=T
         wScrn=  0.000000 ICntrl=         0 IOpCl=  1 I1Cent=           0 NGrid=           0
         NMat0=    1 NMatS0=      1 NMatT0=    0 NMatD0=    1 NMtDS0=    0 NMtDT0=    0
 Symmetry not used in FoFCou.
 E= -1682.54387945730    
 DIIS: error= 1.46D-04 at cycle   1 NSaved=   1.
 NSaved= 1 IEnMin= 1 EnMin= -1682.54387945730     IErMin= 1 ErrMin= 1.46D-04
 ErrMax= 1.46D-04  0.00D+00 EMaxC= 1.00D-01 BMatC= 7.58D-05 BMatP= 7.58D-05
 IDIUse=3 WtCom= 9.99D-01 WtEn= 1.46D-03
 Coeff-Com:  0.100D+01
 Coeff-En:   0.100D+01
 Coeff:      0.100D+01
 Gap=     1.902 Goal=   None    Shift=    0.000
 Gap=     1.983 Goal=   None    Shift=    0.000
 RMSDP=7.03D-05 MaxDP=2.45D-03              OVMax= 1.18D-03

 Cycle   2  Pass 0  IDiag  1:
 RMSU=  7.03D-05    CP:  1.00D+00
 E= -1682.54389438918     Delta-E=       -0.000014931879 Rises=F Damp=F
 DIIS: error= 1.89D-05 at cycle   2 NSaved=   2.
 NSaved= 2 IEnMin= 2 EnMin= -1682.54389438918     IErMin= 2 ErrMin= 1.89D-05
 ErrMax= 1.89D-05  0.00D+00 EMaxC= 1.00D-01 BMatC= 1.15D-06 BMatP= 7.58D-05
 IDIUse=1 WtCom= 1.00D+00 WtEn= 0.00D+00
 Coeff-Com: -0.658D-01 0.107D+01
 Coeff:     -0.658D-01 0.107D+01
 Gap=     0.092 Goal=   None    Shift=    0.000
 Gap=     0.080 Goal=   None    Shift=    0.000
 RMSDP=2.99D-06 MaxDP=2.01D-04 DE=-1.49D-05 OVMax= 2.06D-04

 Initial convergence to 1.0D-05 achieved.  Increase integral accuracy.
 Cycle   3  Pass 1  IDiag  1:
 E= -1682.54393195654     Delta-E=       -0.000037567367 Rises=F Damp=F
 DIIS: error= 1.13D-04 at cycle   1 NSaved=   1.
 NSaved= 1 IEnMin= 1 EnMin= -1682.54393195654     IErMin= 1 ErrMin= 1.13D-04
 ErrMax= 1.13D-04  0.00D+00 EMaxC= 1.00D-01 BMatC= 1.20D-05 BMatP= 1.20D-05
 IDIUse=3 WtCom= 9.99D-01 WtEn= 1.13D-03
 Coeff-Com:  0.100D+01
 Coeff-En:   0.100D+01
 Coeff:      0.100D+01
 Gap=     0.092 Goal=   None    Shift=    0.000
 Gap=     0.080 Goal=   None    Shift=    0.000
 RMSDP=2.99D-06 MaxDP=2.01D-04 DE=-3.76D-05 OVMax= 3.58D-04

 Cycle   4  Pass 1  IDiag  1:
 RMSU=  6.85D-05    CP:  1.00D+00
 E= -1682.54393385233     Delta-E=       -0.000001895786 Rises=F Damp=F
 DIIS: error= 3.50D-05 at cycle   2 NSaved=   2.
 NSaved= 2 IEnMin= 2 EnMin= -1682.54393385233     IErMin= 2 ErrMin= 3.50D-05
 ErrMax= 3.50D-05  0.00D+00 EMaxC= 1.00D-01 BMatC= 2.06D-06 BMatP= 1.20D-05
 IDIUse=1 WtCom= 1.00D+00 WtEn= 0.00D+00
 Coeff-Com:  0.190D+00 0.810D+00
 Coeff:      0.190D+00 0.810D+00
 Gap=     0.092 Goal=   None    Shift=    0.000
 Gap=     0.080 Goal=   None    Shift=    0.000
 RMSDP=4.49D-06 MaxDP=3.71D-04 DE=-1.90D-06 OVMax= 6.94D-04

 Cycle   5  Pass 1  IDiag  1:
 RMSU=  4.47D-06    CP:  1.00D+00  1.01D+00
 E= -1682.54393297723     Delta-E=        0.000000875103 Rises=F Damp=F
 DIIS: error= 5.71D-05 at cycle   3 NSaved=   3.
 NSaved= 3 IEnMin= 2 EnMin= -1682.54393385233     IErMin= 2 ErrMin= 3.50D-05
 ErrMax= 5.71D-05  0.00D+00 EMaxC= 1.00D-01 BMatC= 5.11D-06 BMatP= 2.06D-06
 IDIUse=1 WtCom= 1.00D+00 WtEn= 0.00D+00
 Coeff-Com:  0.775D-02 0.610D+00 0.382D+00
 Coeff:      0.775D-02 0.610D+00 0.382D+00
 Gap=     0.092 Goal=   None    Shift=    0.000
 Gap=     0.080 Goal=   None    Shift=    0.000
 RMSDP=2.86D-06 MaxDP=2.22D-04 DE= 8.75D-07 OVMax= 4.83D-04

 Cycle   6  Pass 1  IDiag  1:
 RMSU=  8.06D-07    CP:  1.00D+00  1.01D+00  3.88D-01
 E= -1682.54393439558     Delta-E=       -0.000001418354 Rises=F Damp=F
 DIIS: error= 8.17D-06 at cycle   4 NSaved=   4.
 NSaved= 4 IEnMin= 4 EnMin= -1682.54393439558     IErMin= 4 ErrMin= 8.17D-06
 ErrMax= 8.17D-06  0.00D+00 EMaxC= 1.00D-01 BMatC= 1.61D-07 BMatP= 2.06D-06
 IDIUse=1 WtCom= 1.00D+00 WtEn= 0.00D+00
 Coeff-Com: -0.221D-02 0.369D+00 0.250D+00 0.384D+00
 Coeff:     -0.221D-02 0.369D+00 0.250D+00 0.384D+00
 Gap=     0.092 Goal=   None    Shift=    0.000
 Gap=     0.080 Goal=   None    Shift=    0.000
 RMSDP=4.97D-07 MaxDP=4.47D-05 DE=-1.42D-06 OVMax= 9.21D-05

 Cycle   7  Pass 1  IDiag  1:
 RMSU=  2.19D-07    CP:  1.00D+00  1.01D+00  4.01D-01  4.51D-01
 E= -1682.54393443600     Delta-E=       -0.000000040420 Rises=F Damp=F
 DIIS: error= 1.47D-06 at cycle   5 NSaved=   5.
 NSaved= 5 IEnMin= 5 EnMin= -1682.54393443600     IErMin= 5 ErrMin= 1.47D-06
 ErrMax= 1.47D-06  0.00D+00 EMaxC= 1.00D-01 BMatC= 6.53D-09 BMatP= 1.61D-07
 IDIUse=1 WtCom= 1.00D+00 WtEn= 0.00D+00
 Coeff-Com: -0.182D-02 0.189D+00 0.130D+00 0.236D+00 0.446D+00
 Coeff:     -0.182D-02 0.189D+00 0.130D+00 0.236D+00 0.446D+00
 Gap=     0.092 Goal=   None    Shift=    0.000
 Gap=     0.080 Goal=   None    Shift=    0.000
 RMSDP=1.10D-07 MaxDP=9.55D-06 DE=-4.04D-08 OVMax= 1.76D-05

 Cycle   8  Pass 1  IDiag  1:
 RMSU=  6.87D-08    CP:  1.00D+00  1.01D+00  4.02D-01  4.63D-01  6.14D-01
 E= -1682.54393443766     Delta-E=       -0.000000001656 Rises=F Damp=F
 DIIS: error= 3.12D-07 at cycle   6 NSaved=   6.
 NSaved= 6 IEnMin= 6 EnMin= -1682.54393443766     IErMin= 6 ErrMin= 3.12D-07
 ErrMax= 3.12D-07  0.00D+00 EMaxC= 1.00D-01 BMatC= 3.36D-10 BMatP= 6.53D-09
 IDIUse=1 WtCom= 1.00D+00 WtEn= 0.00D+00
 Coeff-Com: -0.909D-03 0.874D-01 0.603D-01 0.115D+00 0.256D+00 0.482D+00
 Coeff:     -0.909D-03 0.874D-01 0.603D-01 0.115D+00 0.256D+00 0.482D+00
 Gap=     0.092 Goal=   None    Shift=    0.000
 Gap=     0.080 Goal=   None    Shift=    0.000
 RMSDP=3.00D-08 MaxDP=2.94D-06 DE=-1.66D-09 OVMax= 9.22D-06

 Cycle   9  Pass 1  IDiag  1:
 RMSU=  2.74D-08    CP:  1.00D+00  1.01D+00  4.01D-01  4.60D-01  6.50D-01
                    CP:  8.82D-01
 E= -1682.54393443780     Delta-E=       -0.000000000146 Rises=F Damp=F
 DIIS: error= 2.24D-07 at cycle   7 NSaved=   7.
 NSaved= 7 IEnMin= 7 EnMin= -1682.54393443780     IErMin= 7 ErrMin= 2.24D-07
 ErrMax= 2.24D-07  0.00D+00 EMaxC= 1.00D-01 BMatC= 6.62D-11 BMatP= 3.36D-10
 IDIUse=1 WtCom= 1.00D+00 WtEn= 0.00D+00
 Coeff-Com: -0.334D-05-0.374D-02-0.246D-02 0.653D-03 0.218D-01 0.264D+00
 Coeff-Com:  0.720D+00
 Coeff:     -0.334D-05-0.374D-02-0.246D-02 0.653D-03 0.218D-01 0.264D+00
 Coeff:      0.720D+00
 Gap=     0.092 Goal=   None    Shift=    0.000
 Gap=     0.080 Goal=   None    Shift=    0.000
 RMSDP=1.98D-08 MaxDP=1.51D-06 DE=-1.46D-10 OVMax= 4.53D-06

 Cycle  10  Pass 1  IDiag  1:
 RMSU=  1.68D-08    CP:  1.00D+00  1.01D+00  4.01D-01  4.61D-01  6.74D-01
                    CP:  1.01D+00  1.03D+00
 E= -1682.54393443786     Delta-E=       -0.000000000062 Rises=F Damp=F
 DIIS: error= 1.30D-07 at cycle   8 NSaved=   8.
 NSaved= 8 IEnMin= 8 EnMin= -1682.54393443786     IErMin= 8 ErrMin= 1.30D-07
 ErrMax= 1.30D-07  0.00D+00 EMaxC= 1.00D-01 BMatC= 3.81D-11 BMatP= 6.62D-11
 IDIUse=1 WtCom= 1.00D+00 WtEn= 0.00D+00
 Coeff-Com:  0.385D-03-0.401D-01-0.276D-01-0.472D-01-0.925D-01-0.979D-02
 Coeff-Com:  0.552D+00 0.665D+00
 Coeff:      0.385D-03-0.401D-01-0.276D-01-0.472D-01-0.925D-01-0.979D-02
 Coeff:      0.552D+00 0.665D+00
 Gap=     0.092 Goal=   None    Shift=    0.000
 Gap=     0.080 Goal=   None    Shift=    0.000
 RMSDP=1.62D-08 MaxDP=1.16D-06 DE=-6.18D-11 OVMax= 4.70D-06

 Cycle  11  Pass 1  IDiag  1:
 RMSU=  1.09D-08    CP:  1.00D+00  1.01D+00  4.01D-01  4.64D-01  6.95D-01
                    CP:  1.07D+00  1.37D+00  1.24D+00
 E= -1682.54393443786     Delta-E=        0.000000000004 Rises=F Damp=F
 DIIS: error= 6.00D-08 at cycle   9 NSaved=   9.
 NSaved= 9 IEnMin= 8 EnMin= -1682.54393443786     IErMin= 9 ErrMin= 6.00D-08
 ErrMax= 6.00D-08  0.00D+00 EMaxC= 1.00D-01 BMatC= 8.98D-12 BMatP= 3.81D-11
 IDIUse=1 WtCom= 1.00D+00 WtEn= 0.00D+00
 Coeff-Com:  0.216D-03-0.211D-01-0.146D-01-0.259D-01-0.587D-01-0.905D-01
 Coeff-Com:  0.859D-01 0.378D+00 0.747D+00
 Coeff:      0.216D-03-0.211D-01-0.146D-01-0.259D-01-0.587D-01-0.905D-01
 Coeff:      0.859D-01 0.378D+00 0.747D+00
 Gap=     0.092 Goal=   None    Shift=    0.000
 Gap=     0.080 Goal=   None    Shift=    0.000
 RMSDP=1.07D-08 MaxDP=9.84D-07 DE= 3.64D-12 OVMax= 3.82D-06

 Cycle  12  Pass 1  IDiag  1:
 RMSU=  5.40D-09    CP:  1.00D+00  1.01D+00  4.01D-01  4.64D-01  7.06D-01
                    CP:  1.12D+00  1.56D+00  1.62D+00  1.12D+00
 E= -1682.54393443787     Delta-E=       -0.000000000007 Rises=F Damp=F
 DIIS: error= 5.55D-08 at cycle  10 NSaved=  10.
 NSaved=10 IEnMin=10 EnMin= -1682.54393443787     IErMin=10 ErrMin= 5.55D-08
 ErrMax= 5.55D-08  0.00D+00 EMaxC= 1.00D-01 BMatC= 5.04D-12 BMatP= 8.98D-12
 IDIUse=1 WtCom= 1.00D+00 WtEn= 0.00D+00
 Coeff-Com: -0.236D-05 0.123D-02 0.838D-03 0.741D-03-0.578D-02-0.677D-01
 Coeff-Com: -0.177D+00 0.168D-02 0.577D+00 0.669D+00
 Coeff:     -0.236D-05 0.123D-02 0.838D-03 0.741D-03-0.578D-02-0.677D-01
 Coeff:     -0.177D+00 0.168D-02 0.577D+00 0.669D+00
 Gap=     0.092 Goal=   None    Shift=    0.000
 Gap=     0.080 Goal=   None    Shift=    0.000
 RMSDP=6.58D-09 MaxDP=5.21D-07 DE=-7.28D-12 OVMax= 1.39D-06

 SCF Done:  E(UB3LYP) =  -1682.54393444     A.U. after   12 cycles
            NFock= 12  Conv=0.66D-08     -V/T= 2.0082
 <Sx>= 0.0000 <Sy>= 0.0000 <Sz>= 1.0000 <S**2>= 2.0367 S= 1.0122
 <L.S>= 0.000000000000E+00
 KE= 1.668881297544D+03 PE=-1.006778371266D+04 EE= 3.643451897529D+03
 Annihilation of the first spin contaminant:
 S**2 before annihilation     2.0367,   after     2.0009
 Leave Link  502 at Thu Mar 14 09:27:20 2024, MaxMem= 32212254720 cpu:             982.3 elap:              32.8
 (Enter /home/<user>/g16/l701.exe)
 ... and contract with generalized density number  0.
 Compute integral first derivatives.
 Leave Link  701 at Thu Mar 14 09:27:20 2024, MaxMem= 32212254720 cpu:               5.0 elap:               0.2
 (Enter /home/<user>/g16/l702.exe)
 L702 exits ... SP integral derivatives will be done elsewhere.
 Leave Link  702 at Thu Mar 14 09:27:21 2024, MaxMem= 32212254720 cpu:               0.7 elap:               0.0
 (Enter /home/<user>/g16/l703.exe)
 Integral derivatives from FoFJK, PRISM(SPDF).
 Compute integral first derivatives, UseDBF=F ICtDFT=           0.
 Calling FoFJK, ICntrl=      2127 FMM=F ISym2X=0 I1Cent= 0 IOpClX= 1 NMat=1 NMatS=1 NMatT=0.
 FoFJK:  IHMeth= 1 ICntrl=    2127 DoSepK=F KAlg= 0 I1Cent=           0 FoldK=F
 IRaf=         0 NMat=       1 IRICut=       1 DoRegI=T DoRafI=F ISym2E= 0 IDoP0=0 IntGTp=1.
 FoFCou: FMM=F IPFlag=           0 FMFlag=      100000 FMFlg1=         800
         NFxFlg=           0 DoJE=F BraDBF=F KetDBF=F FulRan=T
         wScrn=  0.000000 ICntrl=      2127 IOpCl=  1 I1Cent=           0 NGrid=           0
         NMat0=    1 NMatS0=      1 NMatT0=    0 NMatD0=    1 NMtDS0=    0 NMtDT0=    0
 Symmetry not used in FoFCou.
 Leave Link  703 at Thu Mar 14 09:27:27 2024, MaxMem= 32212254720 cpu:             191.5 elap:               6.4
 (Enter /home/<user>/g16/l716.exe)
 Dipole        =-4.66939760D-01-9.83172671D-01 5.01914626D-02
 ***** Axes restored to original set *****
 -------------------------------------------------------------------
 Center     Atomic                   Forces (Hartrees/Bohr)
 Number     Number              X              Y              Z
 -------------------------------------------------------------------
      1        6          -0.000012454   -0.000021330    0.000012117
      2        6           0.000027085   -0.000033989    0.000003178
      3        6          -0.000021387    0.000017567   -0.000011256
      4        6           0.000004637   -0.000013129   -0.000009049
      5        6           0.000021312    0.000006212   -0.000000212
      6        6          -0.000011361   -0.000008300    0.000007133
      7        1          -0.000002543    0.000004339   -0.000000548
      8        1          -0.000000461   -0.000006402    0.000017139
      9        1          -0.000004250    0.000000840   -0.000002219
     10        6          -0.000001368    0.000001705   -0.000003622
     11        6           0.000008001    0.000006624    0.000000231
     12        6          -0.000004950   -0.000003381   -0.000000889
     13        6           0.000002360   -0.000001023    0.000001273
     14        6          -0.000000800    0.000000368    0.000001352
     15        6           0.000003191   -0.000004843   -0.000001697
     16        6          -0.000020599    0.000008148   -0.000000516
     17        1          -0.000000519   -0.000000235   -0.000000028
     18        1          -0.000000590   -0.000000209    0.000000053
     19        1          -0.000000756   -0.000000480    0.000000690
     20        1          -0.000000280    0.000000668    0.000001908
     21        6          -0.000001668   -0.000007292    0.000003391
     22        1           0.000001332    0.000000064    0.000001494
     23        1          -0.000000138   -0.000000072   -0.000000634
     24        1          -0.000000931    0.000000907    0.000000380
     25        6           0.000002364   -0.000000968   -0.000000857
     26        1          -0.000000099    0.000002015    0.000001441
     27        1          -0.000000213    0.000002181    0.000001230
     28        1          -0.000000245    0.000001830   -0.000000106
     29        6          -0.000085858    0.000172179    0.000009886
     30        6           0.000001183   -0.000042078   -0.000018902
     31        6           0.000136945   -0.000103338    0.000008778
     32        6          -0.000016894   -0.000065471   -0.000038449
     33        6          -0.000127157   -0.000057936    0.000016187
     34        1          -0.000023962    0.000025012   -0.000021665
     35        6           0.000104531    0.000127371   -0.000003414
     36        1           0.000036373    0.000012184   -0.000012190
     37        7          -0.000049079   -0.000053608    0.000010288
     38        7           0.000018638   -0.000042476    0.000028247
     39       16           0.000009282    0.000139067   -0.000005726
     40        6          -0.000020167   -0.000028681    0.000024110
     41        6           0.000013101   -0.000019173   -0.000003345
     42        6           0.000011817    0.000007997   -0.000013796
     43        6           0.000009289   -0.000010329    0.000003048
     44        1           0.000012614   -0.000010884   -0.000003575
     45        6          -0.000016638   -0.000003620    0.000001386
     46        1          -0.000008700   -0.000007630    0.000007948
     47        6           0.000004259    0.000010064   -0.000002418
     48        1           0.000002316    0.000000443   -0.000000593
     49        1          -0.000002601   -0.000000685   -0.000004579
     50        6           0.000006648    0.000000581    0.000000548
     51        1           0.000000618   -0.000000008    0.000001772
     52        1          -0.000000269    0.000000560   -0.000001591
     53        6          -0.000004391   -0.000001145   -0.000002665
     54        1          -0.000000247   -0.000000060   -0.000000748
     55        1           0.000000301    0.000000050   -0.000000180
     56        7           0.000001145   -0.000000538    0.000000308
     57        1           0.000000745    0.000000328   -0.000000401
     58        1           0.000001487    0.000000006    0.000000357
 -------------------------------------------------------------------
 Cartesian Forces:  Max     0.000172179 RMS     0.000030567
 Leave Link  716 at Thu Mar 14 09:27:27 2024, MaxMem= 32212254720 cpu:               0.7 elap:               0.0
 (Enter /home/<user>/g16/l103.exe)

 GradGradGradGradGradGradGradGradGradGradGradGradGradGradGradGradGradGrad
 Berny optimization.
 Using GEDIIS/GDIIS optimizer.
 FormGI is forming the generalized inverse of G from B-inverse, IUseBI=4.
 GSVD:  received Info=                   1 from GESDD.
 Internal  Forces:  Max     0.000193932 RMS     0.000021548
 Search for a local minimum.
 Step number   9 out of a maximum of  346
 All quantities printed in internal units (Hartrees-Bohrs-Radians)
 RMS Force = .21548D-04 SwitMx=.10000D-02 MixMth= 2
 Mixed Optimization -- En-DIIS/RFO-DIIS
 Swapping is turned off.
 Update second derivatives using D2CorX and points    3    4    5    6    7
                                                      8    9
 DE= -1.03D-06 DEPred=-1.23D-06 R= 8.39D-01
 TightC=F SS=  1.41D+00  RLast= 1.04D-02 DXNew= 1.4270D+00 3.1284D-02
 Trust test= 8.39D-01 RLast= 1.04D-02 DXMaxT set to 8.49D-01
 ITU=  1  1  1  1  1  1  1  1  0
     Eigenvalues ---    0.00230   0.00230   0.00250   0.00601   0.00649
     Eigenvalues ---    0.00720   0.00759   0.00814   0.01056   0.01255
     Eigenvalues ---    0.01456   0.01469   0.01605   0.01632   0.01640
     Eigenvalues ---    0.01664   0.01703   0.01718   0.01734   0.01800
     Eigenvalues ---    0.01838   0.01889   0.02018   0.02029   0.02045
     Eigenvalues ---    0.02062   0.02073   0.02089   0.02090   0.02093
     Eigenvalues ---    0.02094   0.02112   0.02118   0.02119   0.02125
     Eigenvalues ---    0.02134   0.02143   0.02145   0.02148   0.02151
     Eigenvalues ---    0.02158   0.02161   0.02192   0.02621   0.04048
     Eigenvalues ---    0.04278   0.04389   0.04469   0.05425   0.05427
     Eigenvalues ---    0.05433   0.05499   0.05500   0.05559   0.05990
     Eigenvalues ---    0.08021   0.08961   0.09277   0.11597   0.12605
     Eigenvalues ---    0.12824   0.14780   0.15883   0.15968   0.15988
     Eigenvalues ---    0.15997   0.16000   0.16000   0.16000   0.16000
     Eigenvalues ---    0.16000   0.16000   0.16000   0.16000   0.16000
     Eigenvalues ---    0.16000   0.16000   0.16001   0.16002   0.16014
     Eigenvalues ---    0.16051   0.16067   0.18988   0.21871   0.21952
     Eigenvalues ---    0.21971   0.22001   0.22410   0.22461   0.22615
     Eigenvalues ---    0.22786   0.22972   0.23597   0.24145   0.24536
     Eigenvalues ---    0.24627   0.24805   0.24972   0.24988   0.24991
     Eigenvalues ---    0.25002   0.25207   0.28057   0.28072   0.28467
     Eigenvalues ---    0.28609   0.29008   0.30163   0.31175   0.31548
     Eigenvalues ---    0.33128   0.33195   0.33786   0.34027   0.34090
     Eigenvalues ---    0.34100   0.34104   0.34106   0.34131   0.34276
     Eigenvalues ---    0.34289   0.34395   0.34849   0.35033   0.35049
     Eigenvalues ---    0.35084   0.35123   0.35151   0.35159   0.35187
     Eigenvalues ---    0.35189   0.35246   0.35255   0.35414   0.35490
     Eigenvalues ---    0.35894   0.36132   0.36335   0.37545   0.37751
     Eigenvalues ---    0.38316   0.40768   0.41476   0.41556   0.42046
     Eigenvalues ---    0.42187   0.42649   0.43099   0.43827   0.44255
     Eigenvalues ---    0.44364   0.44523   0.44565   0.44874   0.44971
     Eigenvalues ---    0.45314   0.45798   0.45976   0.46079   0.46126
     Eigenvalues ---    0.46910   0.47091   0.47301   0.47911   0.48945
     Eigenvalues ---    0.54560   0.60735   0.67899
 En-DIIS/RFO-DIIS/Sim-DIIS IScMMF=       -3 using points:     9    8    7    6    5    4    3
 RFO step:  Lambda=-8.05612208D-07.
 NNeg= 0 NGDIIS= 7 SimSw=  2.50D-01 Rises=F DC= -1.03D-06 SmlDif=  1.00D-05
 NRisDI= 0 DoIntr=F SqrtH=F CThrHd= 10.0 CDAdj=  3.0
 RMS Error=  0.3805632935D-03 NUsed= 7 OKEnD=F EnDIS=F
 InvSVX:  RCond= 7.47D-07 Info=           0 Equed=N FErr=  8.57D-14 BErr=  9.32D-17
 DidBck=F Rises=F RFO-DIIS coefs:    1.08061    0.16021   -0.17151   -0.03875   -0.04647
                  RFO-DIIS coefs:    0.02642   -0.01051
 Iteration  1 RMS(Cart)=  0.00266027 RMS(Int)=  0.00000071
 Iteration  2 RMS(Cart)=  0.00000295 RMS(Int)=  0.00000048
 Iteration  3 RMS(Cart)=  0.00000000 RMS(Int)=  0.00000048
 ITry= 1 IFail=0 DXMaxC= 1.24D-02 DCOld= 1.00D+10 DXMaxT= 8.49D-01 DXLimC= 3.00D+00 Rises=F
 Variable       Old X    -DE/DX   Delta X   Delta X   Delta X     New X
                                 (Linear)    (Quad)   (Total)
    R1        2.69875   0.00000   0.00001   0.00003   0.00005   2.69880
    R2        2.61797   0.00001  -0.00001  -0.00001  -0.00001   2.61796
    R3        2.04259   0.00000  -0.00002   0.00002  -0.00000   2.04258
    R4        2.70297   0.00001   0.00008   0.00003   0.00011   2.70308
    R5        2.72925   0.00001   0.00009  -0.00015  -0.00005   2.72919
    R6        2.60362  -0.00001   0.00001  -0.00005  -0.00004   2.60357
    R7        2.04945   0.00001  -0.00006   0.00005  -0.00001   2.04944
    R8        2.67357  -0.00001   0.00001  -0.00000   0.00001   2.67357
    R9        2.89140  -0.00000  -0.00000  -0.00000  -0.00001   2.89139
   R10        2.64803  -0.00002   0.00001  -0.00002  -0.00001   2.64802
   R11        2.75515   0.00001  -0.00004   0.00003  -0.00001   2.75513
   R12        2.05410   0.00000  -0.00001   0.00001   0.00001   2.05411
   R13        2.88882   0.00000   0.00000   0.00000   0.00000   2.88882
   R14        2.92022   0.00001  -0.00003   0.00004   0.00001   2.92022
   R15        2.91976  -0.00001   0.00002  -0.00002   0.00000   2.91976
   R16        2.62580   0.00000  -0.00001   0.00001  -0.00000   2.62580
   R17        2.66908  -0.00000  -0.00000   0.00001   0.00001   2.66909
   R18        2.64663  -0.00000   0.00000  -0.00001  -0.00000   2.64663
   R19        2.05506   0.00000  -0.00000   0.00000   0.00000   2.05506
   R20        2.64608   0.00000  -0.00000   0.00001   0.00000   2.64609
   R21        2.05351   0.00000  -0.00000   0.00000  -0.00000   2.05351
   R22        2.63575   0.00000  -0.00000  -0.00000  -0.00001   2.63575
   R23        2.05342   0.00000  -0.00000   0.00000   0.00000   2.05342
   R24        2.64449  -0.00000   0.00001  -0.00001   0.00001   2.64450
   R25        2.05386   0.00000  -0.00000   0.00000   0.00000   2.05386
   R26        2.07141  -0.00000   0.00000  -0.00000   0.00000   2.07141
   R27        2.07142  -0.00000  -0.00000  -0.00000  -0.00000   2.07142
   R28        2.06843   0.00000  -0.00000   0.00000   0.00000   2.06843
   R29        2.07151  -0.00000   0.00000  -0.00000  -0.00000   2.07151
   R30        2.07137  -0.00000   0.00000  -0.00000  -0.00000   2.07137
   R31        2.06856   0.00000  -0.00000   0.00000   0.00000   2.06856
   R32        2.73251  -0.00001  -0.00000  -0.00004  -0.00005   2.73247
   R33        2.74737   0.00009  -0.00002   0.00038   0.00036   2.74773
   R34        2.77694   0.00006  -0.00024   0.00028   0.00004   2.77698
   R35        2.51318   0.00001   0.00014  -0.00010   0.00004   2.51321
   R36        2.56866  -0.00006   0.00005  -0.00028  -0.00023   2.56843
   R37        2.04676  -0.00000  -0.00002  -0.00000  -0.00002   2.04674
   R38        2.72454   0.00002   0.00007  -0.00009  -0.00002   2.72452
   R39        2.51554   0.00003   0.00013  -0.00007   0.00005   2.51560
   R40        2.73872   0.00006  -0.00005   0.00032   0.00027   2.73899
   R41        2.04772   0.00000   0.00001  -0.00000   0.00000   2.04773
   R42        2.74434   0.00002   0.00017  -0.00017  -0.00000   2.74434
   R43        3.17437   0.00007  -0.00050   0.00046  -0.00004   3.17433
   R44        3.17192   0.00008  -0.00049   0.00046  -0.00003   3.17189
   R45        2.68303   0.00001   0.00001   0.00001   0.00002   2.68305
   R46        2.68546   0.00000   0.00003   0.00002   0.00005   2.68551
   R47        2.62205   0.00001   0.00001  -0.00001   0.00001   2.62205
   R48        2.04337  -0.00001  -0.00005   0.00002  -0.00003   2.04335
   R49        2.61980  -0.00001   0.00002  -0.00005  -0.00003   2.61977
   R50        2.04923   0.00001  -0.00003   0.00004   0.00001   2.04924
   R51        2.65325  -0.00001  -0.00001  -0.00000  -0.00001   2.65324
   R52        2.05618   0.00000  -0.00001   0.00001   0.00000   2.05618
   R53        2.65407   0.00000  -0.00003   0.00004   0.00000   2.65407
   R54        2.05580  -0.00000  -0.00000  -0.00001  -0.00001   2.05580
   R55        2.85219   0.00001   0.00001   0.00001   0.00002   2.85221
   R56        2.07100  -0.00000   0.00000  -0.00000  -0.00000   2.07100
   R57        2.07671   0.00000  -0.00000   0.00000   0.00000   2.07671
   R58        2.91112  -0.00000   0.00000  -0.00001  -0.00000   2.91112
   R59        2.08788  -0.00000   0.00000  -0.00000  -0.00000   2.08788
   R60        2.07268  -0.00000   0.00000   0.00000   0.00000   2.07268
   R61        2.77068   0.00000  -0.00000   0.00001   0.00000   2.77069
   R62        1.92710   0.00000  -0.00000   0.00000   0.00000   1.92710
   R63        1.92525   0.00000  -0.00000   0.00000   0.00000   1.92525
    A1        2.12612   0.00001  -0.00004   0.00005   0.00001   2.12614
    A2        2.06792  -0.00000  -0.00003   0.00001  -0.00002   2.06790
    A3        2.08913  -0.00001   0.00007  -0.00006   0.00001   2.08914
    A4        2.04505  -0.00003   0.00003  -0.00012  -0.00008   2.04497
    A5        2.13536   0.00004  -0.00009   0.00020   0.00010   2.13547
    A6        2.10274  -0.00001   0.00007  -0.00008  -0.00002   2.10272
    A7        2.10887   0.00002  -0.00002   0.00008   0.00007   2.10894
    A8        2.09252  -0.00000  -0.00014   0.00007  -0.00007   2.09245
    A9        2.08084  -0.00001   0.00015  -0.00015  -0.00000   2.08084
   A10        2.10689  -0.00000  -0.00003  -0.00000  -0.00004   2.10686
   A11        2.24460   0.00000   0.00007  -0.00002   0.00005   2.24466
   A12        1.93168  -0.00000  -0.00003   0.00002  -0.00002   1.93166
   A13        2.08945  -0.00000   0.00004  -0.00003   0.00001   2.08946
   A14        1.89815   0.00000   0.00001   0.00001   0.00002   1.89817
   A15        2.29556   0.00000  -0.00005   0.00002  -0.00003   2.29553
   A16        2.08989   0.00000   0.00001   0.00001   0.00002   2.08991
   A17        2.08646   0.00000   0.00004  -0.00001   0.00003   2.08649
   A18        2.10684  -0.00000  -0.00005  -0.00000  -0.00006   2.10678
   A19        1.76402   0.00000   0.00003  -0.00002   0.00001   1.76403
   A20        1.94468   0.00000  -0.00001   0.00003   0.00002   1.94470
   A21        1.94517  -0.00000  -0.00002  -0.00001  -0.00003   1.94514
   A22        1.94266  -0.00000   0.00003  -0.00001   0.00002   1.94268
   A23        1.94372   0.00000  -0.00003   0.00002  -0.00001   1.94371
   A24        1.91951  -0.00000  -0.00000  -0.00000  -0.00001   1.91950
   A25        2.24911  -0.00000   0.00003  -0.00003  -0.00000   2.24911
   A26        1.93692   0.00000  -0.00004   0.00004  -0.00000   1.93692
   A27        2.09715   0.00000   0.00001  -0.00000   0.00000   2.09716
   A28        2.07979  -0.00000   0.00001  -0.00001  -0.00000   2.07979
   A29        2.11025   0.00000  -0.00000   0.00001   0.00001   2.11025
   A30        2.09315   0.00000  -0.00001   0.00000  -0.00000   2.09315
   A31        2.10580   0.00000  -0.00001   0.00001   0.00000   2.10581
   A32        2.08875   0.00000   0.00000  -0.00001  -0.00000   2.08875
   A33        2.08863  -0.00000   0.00001  -0.00001  -0.00000   2.08863
   A34        2.10429   0.00000   0.00000  -0.00000   0.00000   2.10429
   A35        2.08879  -0.00000  -0.00000  -0.00000  -0.00001   2.08879
   A36        2.09011   0.00000  -0.00000   0.00000   0.00000   2.09011
   A37        2.07383   0.00000   0.00001  -0.00001  -0.00000   2.07383
   A38        2.10128  -0.00000   0.00000  -0.00000   0.00000   2.10128
   A39        2.10807   0.00000  -0.00001   0.00001   0.00000   2.10807
   A40        1.89396  -0.00001   0.00003  -0.00004  -0.00001   1.89395
   A41        2.28373   0.00001  -0.00001   0.00003   0.00001   2.28374
   A42        2.10550   0.00000  -0.00001   0.00001  -0.00000   2.10550
   A43        1.93129   0.00000  -0.00002   0.00003   0.00002   1.93131
   A44        1.93190  -0.00000  -0.00000  -0.00000  -0.00001   1.93189
   A45        1.93982  -0.00000   0.00001  -0.00002  -0.00000   1.93981
   A46        1.88219  -0.00000   0.00001  -0.00000   0.00000   1.88219
   A47        1.88874  -0.00000   0.00000  -0.00001  -0.00001   1.88873
   A48        1.88807   0.00000  -0.00000   0.00000  -0.00000   1.88807
   A49        1.93151  -0.00000   0.00001  -0.00002  -0.00001   1.93150
   A50        1.93177  -0.00000   0.00001  -0.00002  -0.00001   1.93176
   A51        1.94006  -0.00000   0.00000  -0.00001  -0.00001   1.94005
   A52        1.88173   0.00000  -0.00001   0.00002   0.00001   1.88174
   A53        1.88837   0.00000   0.00000   0.00001   0.00001   1.88838
   A54        1.88854   0.00000  -0.00001   0.00001   0.00001   1.88855
   A55        2.17997   0.00011  -0.00041   0.00064   0.00023   2.18020
   A56        2.09880  -0.00007   0.00031  -0.00044  -0.00013   2.09868
   A57        2.00439  -0.00004   0.00010  -0.00020  -0.00010   2.00429
   A58        2.11586   0.00002  -0.00002   0.00007   0.00005   2.11591
   A59        2.18701  -0.00003   0.00012  -0.00016  -0.00004   2.18697
   A60        1.97972   0.00001  -0.00010   0.00009  -0.00002   1.97970
   A61        2.15964   0.00002  -0.00010   0.00012   0.00002   2.15966
   A62        2.06523  -0.00005   0.00003  -0.00030  -0.00027   2.06496
   A63        2.05623   0.00002   0.00005   0.00018   0.00023   2.05646
   A64        2.11827   0.00001  -0.00005   0.00008   0.00003   2.11830
   A65        1.98222  -0.00003  -0.00019   0.00011  -0.00008   1.98215
   A66        2.18216   0.00002   0.00024  -0.00021   0.00003   2.18219
   A67        2.15800   0.00003  -0.00006   0.00007   0.00001   2.15801
   A68        2.05923   0.00003   0.00006   0.00022   0.00028   2.05952
   A69        2.06407  -0.00005  -0.00002  -0.00029  -0.00031   2.06375
   A70        2.00896  -0.00004   0.00008  -0.00015  -0.00007   2.00889
   A71        2.17473   0.00019  -0.00014   0.00057   0.00043   2.17515
   A72        2.09948  -0.00015   0.00006  -0.00041  -0.00035   2.09913
   A73        1.87878   0.00003   0.00013  -0.00008   0.00005   1.87883
   A74        1.87709   0.00004   0.00019  -0.00011   0.00008   1.87717
   A75        1.70689  -0.00005  -0.00003  -0.00001  -0.00004   1.70685
   A76        2.14317   0.00010   0.00016   0.00012   0.00027   2.14344
   A77        2.10543  -0.00008  -0.00019  -0.00005  -0.00024   2.10519
   A78        2.03453  -0.00002   0.00003  -0.00007  -0.00004   2.03450
   A79        2.11413   0.00001  -0.00006   0.00005  -0.00001   2.11412
   A80        2.07749   0.00001   0.00002   0.00000   0.00002   2.07751
   A81        2.09153  -0.00001   0.00004  -0.00005  -0.00001   2.09152
   A82        2.12279   0.00002   0.00001   0.00004   0.00005   2.12284
   A83        2.09422  -0.00001  -0.00018   0.00007  -0.00011   2.09411
   A84        2.06543  -0.00001   0.00017  -0.00011   0.00006   2.06549
   A85        2.12667   0.00000   0.00001   0.00001   0.00002   2.12669
   A86        2.07593  -0.00000   0.00005  -0.00002   0.00002   2.07595
   A87        2.08056  -0.00000  -0.00006   0.00002  -0.00004   2.08052
   A88        2.11819   0.00000  -0.00006   0.00003  -0.00003   2.11816
   A89        2.08217  -0.00000   0.00011  -0.00006   0.00004   2.08221
   A90        2.08282   0.00000  -0.00005   0.00004  -0.00001   2.08281
   A91        2.04997  -0.00001   0.00006  -0.00005   0.00001   2.04998
   A92        2.11962   0.00000  -0.00003   0.00001  -0.00002   2.11960
   A93        2.11300   0.00001  -0.00003   0.00004   0.00001   2.11301
   A94        1.93311   0.00000   0.00000   0.00001   0.00001   1.93312
   A95        1.91487   0.00000   0.00001  -0.00001  -0.00000   1.91487
   A96        1.96631  -0.00000   0.00002  -0.00002  -0.00000   1.96630
   A97        1.86549   0.00000  -0.00001   0.00002   0.00000   1.86549
   A98        1.88366  -0.00000  -0.00000  -0.00000  -0.00000   1.88365
   A99        1.89722   0.00000  -0.00001   0.00001  -0.00000   1.89721
   A100       1.89964  -0.00000   0.00000  -0.00001  -0.00001   1.89963
   A101       1.90053   0.00000  -0.00000   0.00001   0.00001   1.90054
   A102       1.92196   0.00000   0.00000  -0.00000   0.00000   1.92196
   A103       1.85885   0.00000  -0.00000   0.00000   0.00000   1.85885
   A104       1.99727  -0.00000   0.00000  -0.00000  -0.00000   1.99727
   A105       1.88265  -0.00000  -0.00000   0.00000   0.00000   1.88265
   A106       1.91234   0.00000  -0.00000   0.00001   0.00000   1.91234
   A107       1.91488   0.00000   0.00000   0.00000   0.00001   1.91488
   A108       1.84833  -0.00000   0.00000  -0.00000  -0.00000   1.84833
    D1       -0.01186  -0.00000  -0.00004  -0.00004  -0.00008  -0.01194
    D2        3.12178  -0.00000   0.00038  -0.00013   0.00025   3.12203
    D3        3.13457  -0.00000   0.00003  -0.00008  -0.00004   3.13453
    D4       -0.01497   0.00000   0.00045  -0.00016   0.00028  -0.01469
    D5        0.01109   0.00000   0.00017  -0.00012   0.00004   0.01113
    D6       -3.12832   0.00000   0.00012   0.00001   0.00013  -3.12819
    D7       -3.13540  -0.00000   0.00010  -0.00009   0.00001  -3.13539
    D8        0.00837   0.00000   0.00005   0.00005   0.00010   0.00847
    D9        0.00184   0.00000  -0.00014   0.00023   0.00009   0.00193
   D10       -3.09257   0.00001  -0.00009   0.00037   0.00028  -3.09228
   D11       -3.13196   0.00000  -0.00055   0.00031  -0.00023  -3.13219
   D12        0.05682   0.00001  -0.00050   0.00046  -0.00004   0.05678
   D13        0.29592   0.00000   0.00010   0.00022   0.00032   0.29624
   D14       -2.83904   0.00000   0.00008   0.00011   0.00020  -2.83884
   D15       -2.85388   0.00001   0.00053   0.00013   0.00066  -2.85323
   D16        0.29435   0.00000   0.00051   0.00002   0.00053   0.29488
   D17        0.00873  -0.00000   0.00019  -0.00025  -0.00006   0.00867
   D18       -3.12664  -0.00000   0.00012  -0.00007   0.00005  -3.12659
   D19        3.10345  -0.00001   0.00013  -0.00039  -0.00026   3.10319
   D20       -0.03192  -0.00000   0.00007  -0.00021  -0.00014  -0.03207
   D21       -0.00971   0.00000  -0.00005   0.00008   0.00002  -0.00968
   D22        3.13798   0.00000  -0.00008   0.00012   0.00004   3.13802
   D23        3.12668  -0.00000   0.00000  -0.00007  -0.00007   3.12661
   D24       -0.00881  -0.00000  -0.00003  -0.00002  -0.00005  -0.00886
   D25       -3.13862  -0.00000   0.00007  -0.00012  -0.00005  -3.13867
   D26        1.07939  -0.00000   0.00002  -0.00010  -0.00009   1.07930
   D27       -1.07200  -0.00000   0.00004  -0.00011  -0.00007  -1.07207
   D28        0.00870   0.00000   0.00001   0.00004   0.00005   0.00875
   D29       -2.05648   0.00000  -0.00004   0.00006   0.00002  -2.05647
   D30        2.07532   0.00000  -0.00002   0.00005   0.00003   2.07535
   D31       -0.00019   0.00000  -0.00012   0.00011  -0.00001  -0.00021
   D32        3.13920  -0.00000  -0.00008  -0.00003  -0.00010   3.13909
   D33        3.13369   0.00000  -0.00009   0.00005  -0.00004   3.13365
   D34       -0.01011  -0.00000  -0.00004  -0.00009  -0.00013  -0.01023
   D35        0.00497   0.00000   0.00003  -0.00001   0.00003   0.00500
   D36       -3.13733   0.00000   0.00001  -0.00001  -0.00000  -3.13733
   D37       -3.12955   0.00000   0.00000   0.00005   0.00005  -3.12950
   D38        0.01133   0.00000  -0.00002   0.00004   0.00002   0.01135
   D39        3.13702  -0.00000   0.00001  -0.00003  -0.00002   3.13700
   D40       -0.00561  -0.00000   0.00001  -0.00005  -0.00003  -0.00564
   D41       -1.07952   0.00000   0.00004  -0.00002   0.00001  -1.07951
   D42        2.06104   0.00000   0.00003  -0.00004  -0.00000   2.06103
   D43        1.06934   0.00000   0.00003  -0.00001   0.00002   1.06936
   D44       -2.07328   0.00000   0.00003  -0.00003  -0.00000  -2.07328
   D45        3.07367   0.00000  -0.00001   0.00006   0.00005   3.07372
   D46       -1.12391   0.00000  -0.00001   0.00007   0.00006  -1.12385
   D47        0.97467   0.00000  -0.00001   0.00006   0.00005   0.97472
   D48        1.11909  -0.00000  -0.00006   0.00008   0.00002   1.11911
   D49       -3.07849   0.00000  -0.00006   0.00009   0.00003  -3.07846
   D50       -0.97991  -0.00000  -0.00006   0.00008   0.00002  -0.97989
   D51       -1.04357  -0.00000  -0.00004   0.00006   0.00002  -1.04355
   D52        1.04204  -0.00000  -0.00004   0.00007   0.00003   1.04207
   D53        3.14061  -0.00000  -0.00004   0.00006   0.00002   3.14063
   D54        1.12430   0.00000  -0.00007   0.00009   0.00002   1.12431
   D55       -3.07380   0.00000  -0.00007   0.00008   0.00001  -3.07378
   D56       -0.97456   0.00000  -0.00007   0.00009   0.00001  -0.97454
   D57        3.07977   0.00000  -0.00005   0.00006   0.00001   3.07978
   D58       -1.11832   0.00000  -0.00006   0.00006   0.00000  -1.11832
   D59        0.98092   0.00000  -0.00006   0.00006   0.00000   0.98092
   D60       -1.04137  -0.00000  -0.00004   0.00006   0.00002  -1.04135
   D61        1.04372  -0.00000  -0.00004   0.00006   0.00002   1.04374
   D62       -3.14022  -0.00000  -0.00005   0.00006   0.00002  -3.14020
   D63        3.14041  -0.00000   0.00003  -0.00006  -0.00004   3.14037
   D64       -0.00082  -0.00000   0.00001  -0.00002  -0.00001  -0.00083
   D65       -0.00007  -0.00000   0.00003  -0.00004  -0.00002  -0.00009
   D66       -3.14130  -0.00000   0.00001  -0.00001   0.00001  -3.14129
   D67        0.00079   0.00000  -0.00003   0.00004   0.00001   0.00079
   D68       -3.14018   0.00000  -0.00001   0.00004   0.00003  -3.14015
   D69        3.14145   0.00000  -0.00003   0.00002  -0.00001   3.14144
   D70        0.00048   0.00000  -0.00001   0.00003   0.00002   0.00050
   D71       -0.00022   0.00000  -0.00002   0.00002   0.00000  -0.00021
   D72       -3.14155   0.00000  -0.00000   0.00002   0.00001  -3.14153
   D73        3.14101  -0.00000  -0.00000  -0.00002  -0.00002   3.14099
   D74       -0.00032  -0.00000   0.00001  -0.00002  -0.00001  -0.00033
   D75        0.00010   0.00000  -0.00001   0.00002   0.00001   0.00011
   D76       -3.14146   0.00000   0.00000   0.00001   0.00001  -3.14145
   D77        3.14143   0.00000  -0.00002   0.00002   0.00000   3.14143
   D78       -0.00013   0.00000  -0.00001   0.00001   0.00000  -0.00013
   D79        0.00030  -0.00000   0.00003  -0.00004  -0.00001   0.00029
   D80       -3.14159   0.00000  -0.00001   0.00003   0.00002  -3.14157
   D81       -3.14132  -0.00000   0.00001  -0.00003  -0.00001  -3.14133
   D82       -0.00002   0.00000  -0.00002   0.00004   0.00002  -0.00000
   D83       -3.14140   0.00000   0.00001   0.00002   0.00003  -3.14137
   D84       -0.00059   0.00000  -0.00002   0.00002  -0.00000  -0.00059
   D85        0.00049  -0.00000   0.00004  -0.00005  -0.00000   0.00049
   D86        3.14129  -0.00000   0.00002  -0.00005  -0.00003   3.14126
   D87        3.11038  -0.00001  -0.00098  -0.00018  -0.00116   3.10922
   D88        0.00827  -0.00001  -0.00096   0.00014  -0.00082   0.00745
   D89       -0.03753  -0.00001  -0.00096  -0.00008  -0.00104  -0.03858
   D90       -3.13964  -0.00000  -0.00094   0.00024  -0.00070  -3.14035
   D91       -3.10992   0.00002   0.00095   0.00025   0.00120  -3.10871
   D92        0.10275   0.00002   0.00128   0.00027   0.00155   0.10430
   D93        0.03767   0.00001   0.00094   0.00015   0.00109   0.03877
   D94       -3.03284   0.00001   0.00127   0.00017   0.00144  -3.03140
   D95        0.00145   0.00000   0.00019  -0.00010   0.00009   0.00154
   D96       -3.10681   0.00001   0.00020   0.00035   0.00055  -3.10625
   D97        3.10793  -0.00001   0.00018  -0.00039  -0.00021   3.10772
   D98       -0.00033   0.00000   0.00018   0.00007   0.00025  -0.00008
   D99        3.11271  -0.00000  -0.00009  -0.00026  -0.00035   3.11236
   D100       0.00791   0.00001  -0.00007   0.00003  -0.00004   0.00787
   D101       0.00036  -0.00000  -0.00011  -0.00003  -0.00014   0.00022
   D102      -3.07397   0.00000   0.00020  -0.00003   0.00016  -3.07381
   D103       3.07122  -0.00001  -0.00044  -0.00007  -0.00050   3.07072
   D104      -0.00311  -0.00000  -0.00013  -0.00007  -0.00020  -0.00331
   D105       0.03577   0.00001   0.00064   0.00022   0.00086   0.03663
   D106      -3.11264   0.00002   0.00073   0.00028   0.00100  -3.11163
   D107       3.14005  -0.00001   0.00063  -0.00029   0.00034   3.14039
   D108      -0.00836  -0.00000   0.00071  -0.00023   0.00048  -0.00787
   D109      -0.00744  -0.00001  -0.00020  -0.00013  -0.00033  -0.00776
   D110      -3.11427   0.00000  -0.00018   0.00034   0.00016  -3.11412
   D111      -0.03761  -0.00001  -0.00070  -0.00016  -0.00086  -0.03847
   D112       3.11048  -0.00002  -0.00078  -0.00022  -0.00100   3.10948
   D113       3.03654  -0.00001  -0.00101  -0.00013  -0.00114   3.03540
   D114      -0.09855  -0.00002  -0.00108  -0.00020  -0.00128  -0.09983
   D115      -0.34410  -0.00001  -0.00074  -0.00011  -0.00084  -0.34495
   D116       2.80954  -0.00001  -0.00086   0.00016  -0.00070   2.80884
   D117       2.79034  -0.00001  -0.00065  -0.00004  -0.00069   2.78965
   D118      -0.33920   0.00000  -0.00078   0.00023  -0.00055  -0.33975
   D119      -0.01081  -0.00001  -0.00004  -0.00009  -0.00013  -0.01094
   D120       0.01061   0.00001   0.00014   0.00013   0.00027   0.01088
   D121      -3.11954   0.00001  -0.00022   0.00024   0.00002  -3.11952
   D122       0.01347   0.00000  -0.00028   0.00024  -0.00003   0.01343
   D123       0.01046  -0.00000  -0.00010  -0.00002  -0.00012   0.01034
   D124      -3.13972  -0.00001  -0.00016  -0.00001  -0.00017  -3.13989
   D125       3.13070  -0.00001   0.00036  -0.00037  -0.00001   3.13069
   D126      -0.05288  -0.00001   0.00031  -0.00038  -0.00007  -0.05295
   D127       0.00043   0.00000   0.00024  -0.00012   0.00012   0.00056
   D128       3.10004   0.00000   0.00019  -0.00013   0.00006   3.10010
   D129      -0.01208   0.00000  -0.00008   0.00011   0.00003  -0.01206
   D130       3.12188   0.00000  -0.00010   0.00006  -0.00004   3.12184
   D131       3.13816   0.00000  -0.00002   0.00010   0.00008   3.13824
   D132      -0.01106   0.00000  -0.00004   0.00005   0.00001  -0.01105
   D133      -0.01013  -0.00000  -0.00021   0.00018  -0.00003  -0.01016
   D134       3.12977   0.00000  -0.00023   0.00017  -0.00005   3.12972
   D135      -3.11041   0.00000  -0.00015   0.00019   0.00004  -3.11037
   D136       0.02949   0.00000  -0.00017   0.00018   0.00002   0.02951
   D137       0.00231   0.00000   0.00012  -0.00005   0.00007   0.00238
   D138      -3.10266   0.00000   0.00007  -0.00001   0.00006  -3.10260
   D139      -3.13164   0.00000   0.00013   0.00000   0.00013  -3.13150
   D140       0.04658   0.00000   0.00009   0.00004   0.00012   0.04671
   D141       0.00870  -0.00000   0.00003  -0.00009  -0.00006   0.00863
   D142       3.11381  -0.00000   0.00007  -0.00013  -0.00005   3.11375
   D143      -3.13120  -0.00000   0.00004  -0.00009  -0.00005  -3.13125
   D144      -0.02609  -0.00000   0.00009  -0.00012  -0.00004  -0.02613
   D145      -2.62460  -0.00000  -0.00007  -0.00013  -0.00020  -2.62480
   D146      -0.56930  -0.00000  -0.00008  -0.00012  -0.00019  -0.56949
   D147       1.54685  -0.00000  -0.00008  -0.00012  -0.00020   1.54665
   D148       0.55494  -0.00000  -0.00012  -0.00010  -0.00021   0.55473
   D149       2.61024  -0.00000  -0.00013  -0.00008  -0.00020   2.61004
   D150      -1.55680  -0.00000  -0.00013  -0.00008  -0.00021  -1.55701
   D151      -0.98284   0.00000   0.00002   0.00001   0.00003  -0.98282
   D152       1.03693   0.00000   0.00002   0.00001   0.00003   1.03696
   D153       3.09786   0.00000   0.00002   0.00002   0.00003   3.09789
   D154      -3.12259   0.00000   0.00001   0.00001   0.00002  -3.12257
   D155      -1.10281  -0.00000   0.00001   0.00001   0.00002  -1.10280
   D156       0.95812   0.00000   0.00000   0.00002   0.00003   0.95814
   D157       1.14333  -0.00000   0.00003  -0.00001   0.00002   1.14335
   D158      -3.12008  -0.00000   0.00003  -0.00001   0.00002  -3.12006
   D159      -1.05915  -0.00000   0.00003  -0.00000   0.00003  -1.05913
   D160       1.19742  -0.00000   0.00005  -0.00003   0.00002   1.19744
   D161      -3.06352  -0.00000   0.00005  -0.00003   0.00002  -3.06350
   D162      -0.94885  -0.00000   0.00004  -0.00002   0.00003  -0.94882
   D163       1.07339   0.00000   0.00004  -0.00001   0.00003   1.07342
   D164      -3.01384   0.00000   0.00005  -0.00002   0.00003  -3.01381
   D165      -0.99160   0.00000   0.00005  -0.00002   0.00003  -0.99157
         Item               Value     Threshold  Converged?
 Maximum Force            0.000194     0.000450     YES
 RMS     Force            0.000022     0.000300     YES
 Maximum Displacement     0.012378     0.001800     NO 
 RMS     Displacement     0.002661     0.001200     NO 
 Predicted change in Energy=-3.737961D-07
 Lowest energy point so far.  Saving SCF results.
 GradGradGradGradGradGradGradGradGradGradGradGradGradGradGradGradGradGrad

 Leave Link  103 at Thu Mar 14 09:27:27 2024, MaxMem= 32212254720 cpu:               2.7 elap:               0.1
 (Enter /home/<user>/g16/l202.exe)
 Stoichiometry    C29H25N3S(3)
 Framework group  C1[X(C29H25N3S)]
 Deg. of freedom   168
 Full point group                 C1      NOp   1
 RotChk:  IX=0 Diff= 7.82D-04
 Largest Abelian subgroup         C1      NOp   1
 Largest concise Abelian subgroup C1      NOp   1
                         Standard orientation:                         
 ---------------------------------------------------------------------
 Center     Atomic      Atomic             Coordinates (Angstroms)
 Number     Number       Type             X           Y           Z
 ---------------------------------------------------------------------
      1          6           0       -2.479704    1.686313   -0.254679
      2          6           0       -1.780533    0.443626   -0.174200
      3          6           0       -2.569083   -0.741585   -0.034450
      4          6           0       -3.944174   -0.672923    0.016659
      5          6           0       -4.609553    0.572012   -0.078482
      6          6           0       -3.863021    1.750026   -0.214604
      7          1           0       -1.904373    2.595967   -0.353900
      8          1           0       -2.082523   -1.704419    0.076864
      9          1           0       -4.357630    2.714913   -0.291398
     10          6           0       -4.951657   -1.812896    0.179481
     11          6           0       -6.272472   -1.043809    0.150097
     12          6           0       -7.568986   -1.533568    0.249784
     13          6           0       -8.643216   -0.636361    0.199334
     14          6           0       -8.419258    0.737848    0.050695
     15          6           0       -7.121197    1.238153   -0.050004
     16          6           0       -6.047184    0.342407   -0.000189
     17          1           0       -7.756466   -2.598447    0.366068
     18          1           0       -9.660597   -1.010296    0.276555
     19          1           0       -9.264432    1.419796    0.013582
     20          1           0       -6.950585    2.305327   -0.165281
     21          6           0       -4.759688   -2.547920    1.525173
     22          1           0       -5.530056   -3.316037    1.659547
     23          1           0       -3.782253   -3.042832    1.560128
     24          1           0       -4.820190   -1.851594    2.367517
     25          6           0       -4.860048   -2.819123   -0.989434
     26          1           0       -3.884342   -3.318745   -0.994263
     27          1           0       -5.631998   -3.591744   -0.896541
     28          1           0       -4.992168   -2.317832   -1.953526
     29          6           0       -0.340071    0.361699   -0.238597
     30          6           0        0.561924    1.474062   -0.038966
     31          6           0        0.309104   -0.906356   -0.529848
     32          6           0        2.019284    1.290745   -0.083277
     33          6           0        1.657469   -1.072199   -0.571109
     34          1           0       -0.312739   -1.753629   -0.791602
     35          6           0        2.605826   -0.003172   -0.329046
     36          1           0        2.042020   -2.043124   -0.860306
     37          7           0        0.194090    2.721596    0.238672
     38          7           0        2.703723    2.405798    0.162244
     39         16           0        1.591425    3.635084    0.424884
     40          6           0        4.032909   -0.271288   -0.352576
     41          6           0        5.004062    0.747221   -0.540596
     42          6           0        4.523044   -1.596347   -0.199142
     43          6           0        6.358299    0.448077   -0.583024
     44          1           0        4.675138    1.770325   -0.660012
     45          6           0        5.880123   -1.877788   -0.231035
     46          1           0        3.832398   -2.411578   -0.013785
     47          6           0        6.832305   -0.864515   -0.428972
     48          1           0        7.070676    1.253936   -0.747444
     49          1           0        6.214194   -2.904575   -0.098403
     50          6           0        8.309775   -1.172953   -0.426985
     51          1           0        8.496728   -2.180776   -0.814791
     52          1           0        8.835529   -0.472789   -1.091098
     53          6           0        8.933027   -1.082744    0.978914
     54          1           0        8.736003   -0.077428    1.392719
     55          1           0        8.425149   -1.796428    1.639006
     56          7           0       10.351595   -1.449605    0.926232
     57          1           0       10.870862   -0.733868    0.418268
     58          1           0       10.739153   -1.459837    1.868379
 ---------------------------------------------------------------------
 Rotational constants (GHZ):           0.3476347           0.0397693           0.0363401
 Leave Link  202 at Thu Mar 14 09:27:27 2024, MaxMem= 32212254720 cpu:               0.0 elap:               0.0
 (Enter /home/<user>/g16/l301.exe)
 Standard basis: 6-31G(d) (6D, 7F)
 Ernie: Thresh=  0.10000D-02 Tol=  0.10000D-05 Strict=F.
 There are   549 symmetry adapted cartesian basis functions of A   symmetry.
 There are   549 symmetry adapted basis functions of A   symmetry.
   549 basis functions,  1048 primitive gaussians,   549 cartesian basis functions
   119 alpha electrons      117 beta electrons
       nuclear repulsion energy      3072.8819586023 Hartrees.
 IExCor=  402 DFT=T Ex+Corr=B3LYP ExCW=0 ScaHFX=  0.200000
 ScaDFX=  0.800000  0.720000  1.000000  0.810000 ScalE2=  1.000000  1.000000
 IRadAn=      5 IRanWt=     -1 IRanGd=            0 ICorTp=0 IEmpDi=  4
 NAtoms=   58 NActive=   58 NUniq=   58 SFac= 1.00D+00 NAtFMM=   60 NAOKFM=F Big=F
 Integral buffers will be    131072 words long.
 Raffenetti 2 integral format.
 Two-electron integral symmetry is turned on.
 Leave Link  301 at Thu Mar 14 09:27:27 2024, MaxMem= 32212254720 cpu:               0.8 elap:               0.0
 (Enter /home/<user>/g16/l302.exe)
 NPDir=0 NMtPBC=     1 NCelOv=     1 NCel=       1 NClECP=     1 NCelD=      1
         NCelK=      1 NCelE2=     1 NClLst=     1 CellRange=     0.0.
 One-electron integrals computed using PRISM.
 One-electron integral symmetry used in STVInt
 NBasis=   549 RedAO= T EigKep=  2.74D-04  NBF=   549
 NBsUse=   549 1.00D-06 EigRej= -1.00D+00 NBFU=   549
 Precomputing XC quadrature grid using
 IXCGrd= 4 IRadAn=           5 IRanWt=          -1 IRanGd=           0 AccXCQ= 0.00D+00.
 Generated NRdTot=       0 NPtTot=           0 NUsed=           0 NTot=          32
 NSgBfM=   512   512   512   512   512 MxSgAt=    58 MxSgA2=    58.
 Leave Link  302 at Thu Mar 14 09:27:28 2024, MaxMem= 32212254720 cpu:              12.4 elap:               0.4
 (Enter /home/<user>/g16/l303.exe)
 DipDrv:  MaxL=1.
 Leave Link  303 at Thu Mar 14 09:27:28 2024, MaxMem= 32212254720 cpu:               1.4 elap:               0.1
 (Enter /home/<user>/g16/l401.exe)
 Initial guess from the checkpoint file:  "FBTP_T1opt.chk"
 B after Tr=     0.000000    0.000000    0.000000
         Rot=    1.000000   -0.000127   -0.000001   -0.000012 Ang=  -0.01 deg.
 Guess basis will be translated and rotated to current coordinates.
 JPrj=2 DoOrth=T DoCkMO=T.
 Initial guess <Sx>= 0.0000 <Sy>= 0.0000 <Sz>= 1.0000 <S**2>= 2.0367 S= 1.0122
 Leave Link  401 at Thu Mar 14 09:27:28 2024, MaxMem= 32212254720 cpu:              17.1 elap:               0.6
 (Enter /home/<user>/g16/l502.exe)
 Integral symmetry usage will be decided dynamically.
 UHF open shell SCF:
 Using DIIS extrapolation, IDIIS=  1040.
 NGot= 32212254720 LenX= 32211628124 LenY= 32211326174
 Requested convergence on RMS density matrix=1.00D-08 within 128 cycles.
 Requested convergence on MAX density matrix=1.00D-06.
 Requested convergence on             energy=1.00D-06.
 No special actions if energy rises.
 Fock matrices will be formed incrementally for  20 cycles.

 Cycle   1  Pass 1  IDiag  1:
 FoFJK:  IHMeth= 1 ICntrl=       0 DoSepK=F KAlg= 0 I1Cent=           0 FoldK=F
 IRaf= 550000000 NMat=       1 IRICut=       1 DoRegI=T DoRafI=F ISym2E= 0 IDoP0=0 IntGTp=1.
 FoFCou: FMM=F IPFlag=           0 FMFlag=      100000 FMFlg1=           0
         NFxFlg=           0 DoJE=F BraDBF=F KetDBF=F FulRan=T
         wScrn=  0.000000 ICntrl=         0 IOpCl=  1 I1Cent=           0 NGrid=           0
         NMat0=    1 NMatS0=      1 NMatT0=    0 NMatD0=    1 NMtDS0=    0 NMtDT0=    0
 Symmetry not used in FoFCou.
 E= -1682.54392246072    
 DIIS: error= 6.24D-05 at cycle   1 NSaved=   1.
 NSaved= 1 IEnMin= 1 EnMin= -1682.54392246072     IErMin= 1 ErrMin= 6.24D-05
 ErrMax= 6.24D-05  0.00D+00 EMaxC= 1.00D-01 BMatC= 2.37D-05 BMatP= 2.37D-05
 IDIUse=1 WtCom= 1.00D+00 WtEn= 0.00D+00
 Coeff-Com:  0.100D+01
 Coeff:      0.100D+01
 Gap=     1.902 Goal=   None    Shift=    0.000
 Gap=     1.983 Goal=   None    Shift=    0.000
 RMSDP=7.58D-06 MaxDP=2.35D-04              OVMax= 5.23D-04

 Cycle   2  Pass 1  IDiag  1:
 RMSU=  7.58D-06    CP:  1.00D+00
 E= -1682.54393462007     Delta-E=       -0.000012159347 Rises=F Damp=F
 DIIS: error= 7.53D-06 at cycle   2 NSaved=   2.
 NSaved= 2 IEnMin= 2 EnMin= -1682.54393462007     IErMin= 2 ErrMin= 7.53D-06
 ErrMax= 7.53D-06  0.00D+00 EMaxC= 1.00D-01 BMatC= 3.10D-07 BMatP= 2.37D-05
 IDIUse=1 WtCom= 1.00D+00 WtEn= 0.00D+00
 Coeff-Com: -0.762D-01 0.108D+01
 Coeff:     -0.762D-01 0.108D+01
 Gap=     0.092 Goal=   None    Shift=    0.000
 Gap=     0.080 Goal=   None    Shift=    0.000
 RMSDP=1.48D-06 MaxDP=8.58D-05 DE=-1.22D-05 OVMax= 2.43D-04

 Cycle   3  Pass 1  IDiag  1:
 RMSU=  1.34D-06    CP:  1.00D+00  1.08D+00
 E= -1682.54393471536     Delta-E=       -0.000000095293 Rises=F Damp=F
 DIIS: error= 1.12D-05 at cycle   3 NSaved=   3.
 NSaved= 3 IEnMin= 3 EnMin= -1682.54393471536     IErMin= 2 ErrMin= 7.53D-06
 ErrMax= 1.12D-05  0.00D+00 EMaxC= 1.00D-01 BMatC= 2.93D-07 BMatP= 3.10D-07
 IDIUse=1 WtCom= 1.00D+00 WtEn= 0.00D+00
 Coeff-Com: -0.482D-01 0.608D+00 0.440D+00
 Coeff:     -0.482D-01 0.608D+00 0.440D+00
 Gap=     0.092 Goal=   None    Shift=    0.000
 Gap=     0.080 Goal=   None    Shift=    0.000
 RMSDP=8.33D-07 MaxDP=8.62D-05 DE=-9.53D-08 OVMax= 2.19D-04

 Cycle   4  Pass 1  IDiag  1:
 RMSU=  5.30D-07    CP:  1.00D+00  1.10D+00  5.26D-01
 E= -1682.54393478356     Delta-E=       -0.000000068196 Rises=F Damp=F
 DIIS: error= 3.51D-06 at cycle   4 NSaved=   4.
 NSaved= 4 IEnMin= 4 EnMin= -1682.54393478356     IErMin= 4 ErrMin= 3.51D-06
 ErrMax= 3.51D-06  0.00D+00 EMaxC= 1.00D-01 BMatC= 3.91D-08 BMatP= 2.93D-07
 IDIUse=1 WtCom= 1.00D+00 WtEn= 0.00D+00
 Coeff-Com: -0.149D-01 0.170D+00 0.272D+00 0.573D+00
 Coeff:     -0.149D-01 0.170D+00 0.272D+00 0.573D+00
 Gap=     0.092 Goal=   None    Shift=    0.000
 Gap=     0.080 Goal=   None    Shift=    0.000
 RMSDP=2.94D-07 MaxDP=3.50D-05 DE=-6.82D-08 OVMax= 7.32D-05

 Cycle   5  Pass 1  IDiag  1:
 RMSU=  2.06D-07    CP:  1.00D+00  1.10D+00  6.22D-01  6.90D-01
 E= -1682.54393479174     Delta-E=       -0.000000008178 Rises=F Damp=F
 DIIS: error= 1.43D-06 at cycle   5 NSaved=   5.
 NSaved= 5 IEnMin= 5 EnMin= -1682.54393479174     IErMin= 5 ErrMin= 1.43D-06
 ErrMax= 1.43D-06  0.00D+00 EMaxC= 1.00D-01 BMatC= 8.04D-09 BMatP= 3.91D-08
 IDIUse=1 WtCom= 1.00D+00 WtEn= 0.00D+00
 Coeff-Com: -0.247D-02 0.189D-01 0.114D+00 0.374D+00 0.496D+00
 Coeff:     -0.247D-02 0.189D-01 0.114D+00 0.374D+00 0.496D+00
 Gap=     0.092 Goal=   None    Shift=    0.000
 Gap=     0.080 Goal=   None    Shift=    0.000
 RMSDP=1.25D-07 MaxDP=1.02D-05 DE=-8.18D-09 OVMax= 2.28D-05

 Cycle   6  Pass 1  IDiag  1:
 RMSU=  8.27D-08    CP:  1.00D+00  1.10D+00  6.31D-01  7.70D-01  6.01D-01
 E= -1682.54393479343     Delta-E=       -0.000000001694 Rises=F Damp=F
 DIIS: error= 6.04D-07 at cycle   6 NSaved=   6.
 NSaved= 6 IEnMin= 6 EnMin= -1682.54393479343     IErMin= 6 ErrMin= 6.04D-07
 ErrMax= 6.04D-07  0.00D+00 EMaxC= 1.00D-01 BMatC= 1.13D-09 BMatP= 8.04D-09
 IDIUse=1 WtCom= 1.00D+00 WtEn= 0.00D+00
 Coeff-Com:  0.121D-02-0.210D-01 0.229D-01 0.130D+00 0.314D+00 0.553D+00
 Coeff:      0.121D-02-0.210D-01 0.229D-01 0.130D+00 0.314D+00 0.553D+00
 Gap=     0.092 Goal=   None    Shift=    0.000
 Gap=     0.080 Goal=   None    Shift=    0.000
 RMSDP=5.11D-08 MaxDP=3.10D-06 DE=-1.69D-09 OVMax= 6.89D-06

 Cycle   7  Pass 1  IDiag  1:
 RMSU=  2.95D-08    CP:  1.00D+00  1.10D+00  6.37D-01  7.85D-01  6.70D-01
                    CP:  5.46D-01
 E= -1682.54393479383     Delta-E=       -0.000000000397 Rises=F Damp=F
 DIIS: error= 1.98D-07 at cycle   7 NSaved=   7.
 NSaved= 7 IEnMin= 7 EnMin= -1682.54393479383     IErMin= 7 ErrMin= 1.98D-07
 ErrMax= 1.98D-07  0.00D+00 EMaxC= 1.00D-01 BMatC= 1.72D-10 BMatP= 1.13D-09
 IDIUse=1 WtCom= 1.00D+00 WtEn= 0.00D+00
 Coeff-Com:  0.102D-02-0.152D-01 0.258D-02 0.399D-01 0.141D+00 0.349D+00
 Coeff-Com:  0.482D+00
 Coeff:      0.102D-02-0.152D-01 0.258D-02 0.399D-01 0.141D+00 0.349D+00
 Coeff:      0.482D+00
 Gap=     0.092 Goal=   None    Shift=    0.000
 Gap=     0.080 Goal=   None    Shift=    0.000
 RMSDP=1.98D-08 MaxDP=1.01D-06 DE=-3.97D-10 OVMax= 3.19D-06

 Cycle   8  Pass 1  IDiag  1:
 RMSU=  1.50D-08    CP:  1.00D+00  1.10D+00  6.39D-01  7.86D-01  6.65D-01
                    CP:  6.44D-01  6.84D-01
 E= -1682.54393479385     Delta-E=       -0.000000000022 Rises=F Damp=F
 DIIS: error= 1.16D-07 at cycle   8 NSaved=   8.
 NSaved= 8 IEnMin= 8 EnMin= -1682.54393479385     IErMin= 8 ErrMin= 1.16D-07
 ErrMax= 1.16D-07  0.00D+00 EMaxC= 1.00D-01 BMatC= 2.75D-11 BMatP= 1.72D-10
 IDIUse=1 WtCom= 1.00D+00 WtEn= 0.00D+00
 Coeff-Com:  0.349D-03-0.451D-02-0.279D-02-0.466D-02 0.169D-01 0.934D-01
 Coeff-Com:  0.293D+00 0.608D+00
 Coeff:      0.349D-03-0.451D-02-0.279D-02-0.466D-02 0.169D-01 0.934D-01
 Coeff:      0.293D+00 0.608D+00
 Gap=     0.092 Goal=   None    Shift=    0.000
 Gap=     0.080 Goal=   None    Shift=    0.000
 RMSDP=9.35D-09 MaxDP=5.58D-07 DE=-2.18D-11 OVMax= 1.51D-06

 SCF Done:  E(UB3LYP) =  -1682.54393479     A.U. after    8 cycles
            NFock=  8  Conv=0.93D-08     -V/T= 2.0082
 <Sx>= 0.0000 <Sy>= 0.0000 <Sz>= 1.0000 <S**2>= 2.0367 S= 1.0122
 <L.S>= 0.000000000000E+00
 KE= 1.668880493520D+03 PE=-1.006773332108D+04 EE= 3.643426934163D+03
 Annihilation of the first spin contaminant:
 S**2 before annihilation     2.0367,   after     2.0009
 Leave Link  502 at Thu Mar 14 09:27:52 2024, MaxMem= 32212254720 cpu:             693.0 elap:              23.1
 (Enter /home/<user>/g16/l701.exe)
 ... and contract with generalized density number  0.
 Compute integral first derivatives.
 Leave Link  701 at Thu Mar 14 09:27:52 2024, MaxMem= 32212254720 cpu:               5.2 elap:               0.2
 (Enter /home/<user>/g16/l702.exe)
 L702 exits ... SP integral derivatives will be done elsewhere.
 Leave Link  702 at Thu Mar 14 09:27:52 2024, MaxMem= 32212254720 cpu:               0.7 elap:               0.0
 (Enter /home/<user>/g16/l703.exe)
 Integral derivatives from FoFJK, PRISM(SPDF).
 Compute integral first derivatives, UseDBF=F ICtDFT=           0.
 Calling FoFJK, ICntrl=      2127 FMM=F ISym2X=0 I1Cent= 0 IOpClX= 1 NMat=1 NMatS=1 NMatT=0.
 FoFJK:  IHMeth= 1 ICntrl=    2127 DoSepK=F KAlg= 0 I1Cent=           0 FoldK=F
 IRaf=         0 NMat=       1 IRICut=       1 DoRegI=T DoRafI=F ISym2E= 0 IDoP0=0 IntGTp=1.
 FoFCou: FMM=F IPFlag=           0 FMFlag=      100000 FMFlg1=         800
         NFxFlg=           0 DoJE=F BraDBF=F KetDBF=F FulRan=T
         wScrn=  0.000000 ICntrl=      2127 IOpCl=  1 I1Cent=           0 NGrid=           0
         NMat0=    1 NMatS0=      1 NMatT0=    0 NMatD0=    1 NMtDS0=    0 NMtDT0=    0
 Symmetry not used in FoFCou.
 Leave Link  703 at Thu Mar 14 09:27:58 2024, MaxMem= 32212254720 cpu:             194.3 elap:               6.5
 (Enter /home/<user>/g16/l716.exe)
 Dipole        =-4.66363414D-01-9.83512635D-01 5.02818319D-02
 ***** Axes restored to original set *****
 -------------------------------------------------------------------
 Center     Atomic                   Forces (Hartrees/Bohr)
 Number     Number              X              Y              Z
 -------------------------------------------------------------------
      1        6           0.000023779   -0.000034587    0.000009803
      2        6          -0.000028419   -0.000026874    0.000023381
      3        6           0.000029998    0.000031030   -0.000016647
      4        6          -0.000012727    0.000009045   -0.000003277
      5        6           0.000023958    0.000007065   -0.000006603
      6        6          -0.000022217   -0.000005923   -0.000000542
      7        1           0.000004437    0.000010851   -0.000001421
      8        1           0.000007658   -0.000015129    0.000011075
      9        1           0.000001201    0.000003015    0.000003040
     10        6           0.000000462   -0.000005587   -0.000006843
     11        6           0.000009742    0.000010233    0.000001525
     12        6          -0.000005479   -0.000002553    0.000000390
     13        6           0.000002090    0.000000399    0.000000733
     14        6          -0.000003501   -0.000002801    0.000001391
     15        6           0.000008722   -0.000006559    0.000000057
     16        6          -0.000027341    0.000002793    0.000001489
     17        1           0.000000019   -0.000000152   -0.000000477
     18        1          -0.000000744   -0.000000009   -0.000000113
     19        1          -0.000000296   -0.000000302    0.000000518
     20        1          -0.000000329    0.000000551    0.000000987
     21        6          -0.000001745   -0.000002868    0.000003312
     22        1           0.000000976    0.000000225   -0.000000408
     23        1          -0.000000032   -0.000000842   -0.000000558
     24        1          -0.000000672    0.000000675   -0.000000176
     25        6           0.000001543   -0.000001354    0.000000918
     26        1          -0.000000236    0.000001543    0.000000326
     27        1          -0.000000228    0.000001099    0.000000187
     28        1          -0.000000019    0.000000684   -0.000000245
     29        6          -0.000020955    0.000064082   -0.000013333
     30        6          -0.000018305   -0.000005067   -0.000011160
     31        6          -0.000006709   -0.000003283    0.000006434
     32        6           0.000012863   -0.000022343    0.000001789
     33        6           0.000006015   -0.000004787    0.000004703
     34        1          -0.000021389    0.000001371   -0.000006758
     35        6           0.000033458    0.000060440   -0.000002699
     36        1           0.000006970    0.000004638   -0.000009984
     37        7          -0.000070890   -0.000075155    0.000004110
     38        7           0.000069164   -0.000088483   -0.000008753
     39       16           0.000014661    0.000113191   -0.000002522
     40        6           0.000009016   -0.000030941    0.000008056
     41        6          -0.000029534   -0.000024431    0.000016911
     42        6          -0.000007984    0.000019988   -0.000008554
     43        6           0.000013394   -0.000003257   -0.000002384
     44        1          -0.000007165    0.000016383   -0.000000932
     45        6           0.000001639    0.000005457    0.000000114
     46        1           0.000003806   -0.000006929    0.000011158
     47        6           0.000006962    0.000003434   -0.000002748
     48        1          -0.000001510    0.000003582    0.000002142
     49        1          -0.000004775   -0.000002594   -0.000003289
     50        6           0.000003006    0.000001105   -0.000000543
     51        1          -0.000000465    0.000000008    0.000000523
     52        1          -0.000000366   -0.000000138   -0.000001140
     53        6          -0.000003178    0.000000350   -0.000002274
     54        1           0.000000036    0.000000226    0.000000173
     55        1           0.000000445    0.000000021   -0.000000696
     56        7           0.000000522   -0.000000636    0.000000305
     57        1           0.000000108    0.000000165   -0.000000397
     58        1           0.000000565   -0.000000064   -0.000000073
 -------------------------------------------------------------------
 Cartesian Forces:  Max     0.000113191 RMS     0.000018810
 Leave Link  716 at Thu Mar 14 09:27:58 2024, MaxMem= 32212254720 cpu:               0.7 elap:               0.0
 (Enter /home/<user>/g16/l103.exe)

 GradGradGradGradGradGradGradGradGradGradGradGradGradGradGradGradGradGrad
 Berny optimization.
 Using GEDIIS/GDIIS optimizer.
 FormGI is forming the generalized inverse of G from B-inverse, IUseBI=4.
 GSVD:  received Info=                   1 from GESDD.
 Internal  Forces:  Max     0.000083993 RMS     0.000010757
 Search for a local minimum.
 Step number  10 out of a maximum of  346
 All quantities printed in internal units (Hartrees-Bohrs-Radians)
 RMS Force = .10757D-04 SwitMx=.10000D-02 MixMth= 2
 Mixed Optimization -- En-DIIS/RFO-DIIS
 Swapping is turned off.
 Update second derivatives using D2CorX and points    3    4    5    6    7
                                                      8    9   10
 DE= -3.56D-07 DEPred=-3.74D-07 R= 9.52D-01
 Trust test= 9.52D-01 RLast= 4.85D-03 DXMaxT set to 8.49D-01
 ITU=  0  1  1  1  1  1  1  1  1  0
     Eigenvalues ---    0.00230   0.00230   0.00250   0.00555   0.00637
     Eigenvalues ---    0.00721   0.00757   0.00812   0.01052   0.01255
     Eigenvalues ---    0.01456   0.01469   0.01605   0.01632   0.01639
     Eigenvalues ---    0.01662   0.01706   0.01717   0.01737   0.01838
     Eigenvalues ---    0.01859   0.01888   0.02025   0.02040   0.02051
     Eigenvalues ---    0.02064   0.02073   0.02088   0.02090   0.02092
     Eigenvalues ---    0.02094   0.02112   0.02119   0.02121   0.02126
     Eigenvalues ---    0.02134   0.02141   0.02144   0.02146   0.02151
     Eigenvalues ---    0.02161   0.02162   0.02179   0.02714   0.04048
     Eigenvalues ---    0.04278   0.04389   0.04469   0.05425   0.05428
     Eigenvalues ---    0.05433   0.05500   0.05500   0.05559   0.05994
     Eigenvalues ---    0.08020   0.08961   0.09277   0.11597   0.12605
     Eigenvalues ---    0.12824   0.14343   0.15684   0.15970   0.15997
     Eigenvalues ---    0.15997   0.16000   0.16000   0.16000   0.16000
     Eigenvalues ---    0.16000   0.16000   0.16000   0.16000   0.16000
     Eigenvalues ---    0.16000   0.16000   0.16002   0.16005   0.16019
     Eigenvalues ---    0.16025   0.16090   0.18986   0.21795   0.21898
     Eigenvalues ---    0.21954   0.22002   0.22119   0.22464   0.22519
     Eigenvalues ---    0.22620   0.22957   0.23728   0.24183   0.24333
     Eigenvalues ---    0.24538   0.24779   0.24972   0.24977   0.24994
     Eigenvalues ---    0.25001   0.25298   0.28052   0.28074   0.28474
     Eigenvalues ---    0.28609   0.28979   0.29204   0.31177   0.32883
     Eigenvalues ---    0.33129   0.33785   0.34027   0.34090   0.34100
     Eigenvalues ---    0.34104   0.34106   0.34131   0.34276   0.34285
     Eigenvalues ---    0.34289   0.34686   0.34969   0.35033   0.35053
     Eigenvalues ---    0.35084   0.35136   0.35151   0.35159   0.35187
     Eigenvalues ---    0.35189   0.35250   0.35281   0.35336   0.35477
     Eigenvalues ---    0.36133   0.36425   0.36734   0.37596   0.38318
     Eigenvalues ---    0.40497   0.40789   0.41467   0.41563   0.42108
     Eigenvalues ---    0.42479   0.43080   0.43862   0.44181   0.44364
     Eigenvalues ---    0.44523   0.44545   0.44841   0.44955   0.45214
     Eigenvalues ---    0.45796   0.45970   0.46032   0.46086   0.46639
     Eigenvalues ---    0.46916   0.47094   0.47432   0.48216   0.53964
     Eigenvalues ---    0.54704   0.63892   0.67529
 En-DIIS/RFO-DIIS/Sim-DIIS IScMMF=       -3 using points:    10    9    8    7    6    5    4    3
 RFO step:  Lambda=-1.98050475D-07.
 NNeg= 0 NGDIIS= 8 SimSw=  2.50D-01 Rises=F DC= -3.56D-07 SmlDif=  1.00D-05
 NRisDI= 0 DoIntr=F SqrtH=F CThrHd= 10.0 CDAdj=  3.0
 RMS Error=  0.1960944353D-03 NUsed= 8 OKEnD=F EnDIS=F
 InvSVX:  RCond= 1.61D-07 Info=           0 Equed=N FErr=  6.88D-14 BErr=  5.28D-17
 DidBck=F Rises=F RFO-DIIS coefs:    1.36057   -0.27712   -0.03701   -0.04403   -0.00626
                  RFO-DIIS coefs:    0.02341   -0.01389   -0.00568
 Iteration  1 RMS(Cart)=  0.00150518 RMS(Int)=  0.00000038
 Iteration  2 RMS(Cart)=  0.00000073 RMS(Int)=  0.00000035
 ITry= 1 IFail=0 DXMaxC= 6.86D-03 DCOld= 1.00D+10 DXMaxT= 8.49D-01 DXLimC= 3.00D+00 Rises=F
 Variable       Old X    -DE/DX   Delta X   Delta X   Delta X     New X
                                 (Linear)    (Quad)   (Total)
    R1        2.69880  -0.00002   0.00006  -0.00008  -0.00002   2.69877
    R2        2.61796   0.00002  -0.00003   0.00005   0.00002   2.61798
    R3        2.04258   0.00001  -0.00000   0.00003   0.00003   2.04261
    R4        2.70308  -0.00003   0.00009  -0.00010  -0.00001   2.70307
    R5        2.72919  -0.00001  -0.00014   0.00007  -0.00007   2.72912
    R6        2.60357   0.00001  -0.00005   0.00006   0.00001   2.60358
    R7        2.04944   0.00002  -0.00000   0.00004   0.00004   2.04948
    R8        2.67357  -0.00000   0.00001  -0.00001   0.00001   2.67358
    R9        2.89139   0.00000   0.00000  -0.00000  -0.00000   2.89139
   R10        2.64802  -0.00001   0.00001  -0.00003  -0.00002   2.64800
   R11        2.75513   0.00002  -0.00003   0.00007   0.00004   2.75517
   R12        2.05411   0.00000   0.00000   0.00000   0.00001   2.05411
   R13        2.88882   0.00000   0.00000  -0.00000  -0.00000   2.88881
   R14        2.92022   0.00000   0.00000   0.00001   0.00001   2.92023
   R15        2.91976  -0.00000   0.00001  -0.00002  -0.00001   2.91976
   R16        2.62580   0.00001  -0.00001   0.00002   0.00001   2.62581
   R17        2.66909  -0.00000   0.00001  -0.00002  -0.00000   2.66909
   R18        2.64663  -0.00000   0.00000  -0.00001  -0.00001   2.64662
   R19        2.05506  -0.00000   0.00000  -0.00000  -0.00000   2.05506
   R20        2.64609  -0.00000   0.00000  -0.00001  -0.00000   2.64609
   R21        2.05351   0.00000  -0.00000   0.00000   0.00000   2.05351
   R22        2.63575   0.00000  -0.00001   0.00002   0.00001   2.63575
   R23        2.05342   0.00000   0.00000  -0.00000   0.00000   2.05342
   R24        2.64450  -0.00001   0.00001  -0.00002  -0.00001   2.64449
   R25        2.05386   0.00000   0.00000  -0.00000   0.00000   2.05386
   R26        2.07141  -0.00000   0.00000  -0.00000  -0.00000   2.07140
   R27        2.07142   0.00000  -0.00000   0.00000   0.00000   2.07142
   R28        2.06843   0.00000   0.00000   0.00000   0.00000   2.06843
   R29        2.07151  -0.00000   0.00000  -0.00000  -0.00000   2.07151
   R30        2.07137  -0.00000   0.00000  -0.00000  -0.00000   2.07136
   R31        2.06856   0.00000  -0.00000   0.00000   0.00000   2.06856
   R32        2.73247  -0.00002   0.00004  -0.00011  -0.00007   2.73240
   R33        2.74773   0.00001   0.00018  -0.00002   0.00016   2.74789
   R34        2.77698   0.00003   0.00003   0.00004   0.00007   2.77705
   R35        2.51321  -0.00002   0.00001  -0.00004  -0.00004   2.51318
   R36        2.56843   0.00003  -0.00004   0.00002  -0.00002   2.56841
   R37        2.04674   0.00001   0.00000   0.00002   0.00002   2.04676
   R38        2.72452  -0.00004   0.00001  -0.00010  -0.00009   2.72443
   R39        2.51560  -0.00001   0.00001  -0.00003  -0.00001   2.51558
   R40        2.73899   0.00001   0.00013   0.00001   0.00013   2.73913
   R41        2.04773  -0.00000   0.00000  -0.00001  -0.00000   2.04772
   R42        2.74434  -0.00001  -0.00008   0.00004  -0.00004   2.74430
   R43        3.17433   0.00008  -0.00011   0.00026   0.00015   3.17449
   R44        3.17189   0.00008  -0.00011   0.00027   0.00015   3.17204
   R45        2.68305  -0.00002   0.00003  -0.00006  -0.00003   2.68301
   R46        2.68551  -0.00001   0.00005  -0.00005  -0.00000   2.68551
   R47        2.62205   0.00001  -0.00002   0.00003   0.00002   2.62207
   R48        2.04335   0.00002  -0.00001   0.00004   0.00003   2.04338
   R49        2.61977   0.00001  -0.00003   0.00004   0.00000   2.61977
   R50        2.04924   0.00001   0.00000   0.00001   0.00001   2.04926
   R51        2.65324  -0.00000   0.00000  -0.00001  -0.00001   2.65323
   R52        2.05618   0.00000   0.00000   0.00000   0.00000   2.05618
   R53        2.65407   0.00001   0.00001   0.00001   0.00002   2.65409
   R54        2.05580   0.00000  -0.00000   0.00000  -0.00000   2.05580
   R55        2.85221   0.00000   0.00000   0.00000   0.00001   2.85221
   R56        2.07100  -0.00000  -0.00000   0.00000  -0.00000   2.07100
   R57        2.07671   0.00000   0.00000  -0.00000   0.00000   2.07672
   R58        2.91112  -0.00000   0.00000  -0.00001  -0.00000   2.91111
   R59        2.08788   0.00000  -0.00000   0.00000   0.00000   2.08788
   R60        2.07268  -0.00000   0.00000  -0.00000  -0.00000   2.07268
   R61        2.77069   0.00000  -0.00000   0.00001   0.00000   2.77069
   R62        1.92710   0.00000  -0.00000   0.00000   0.00000   1.92710
   R63        1.92525   0.00000  -0.00000   0.00000   0.00000   1.92525
    A1        2.12614   0.00000   0.00001   0.00001   0.00002   2.12616
    A2        2.06790   0.00000  -0.00002  -0.00000  -0.00002   2.06788
    A3        2.08914  -0.00000   0.00001  -0.00001  -0.00000   2.08914
    A4        2.04497   0.00001  -0.00006   0.00005  -0.00002   2.04495
    A5        2.13547   0.00000   0.00012  -0.00011   0.00001   2.13547
    A6        2.10272  -0.00001  -0.00006   0.00007   0.00001   2.10273
    A7        2.10894  -0.00000   0.00004  -0.00004   0.00000   2.10894
    A8        2.09245   0.00000  -0.00003   0.00003  -0.00000   2.09245
    A9        2.08084   0.00000  -0.00002   0.00001  -0.00001   2.08083
   A10        2.10686   0.00000  -0.00001   0.00002   0.00001   2.10687
   A11        2.24466  -0.00000   0.00002  -0.00002  -0.00000   2.24465
   A12        1.93166   0.00000  -0.00001   0.00000  -0.00001   1.93166
   A13        2.08946  -0.00000  -0.00001  -0.00001  -0.00001   2.08945
   A14        1.89817  -0.00000   0.00001  -0.00001   0.00000   1.89818
   A15        2.29553   0.00001  -0.00000   0.00001   0.00001   2.29554
   A16        2.08991  -0.00001   0.00003  -0.00003  -0.00001   2.08991
   A17        2.08649   0.00000  -0.00000   0.00001   0.00001   2.08649
   A18        2.10678   0.00000  -0.00003   0.00003   0.00000   2.10678
   A19        1.76403  -0.00000  -0.00000   0.00001   0.00001   1.76404
   A20        1.94470   0.00000   0.00000   0.00001   0.00002   1.94472
   A21        1.94514  -0.00000  -0.00000  -0.00001  -0.00001   1.94513
   A22        1.94268  -0.00000   0.00001  -0.00002  -0.00001   1.94267
   A23        1.94371   0.00000  -0.00000   0.00001   0.00001   1.94372
   A24        1.91950  -0.00000  -0.00000  -0.00000  -0.00000   1.91950
   A25        2.24911  -0.00001  -0.00000  -0.00002  -0.00002   2.24909
   A26        1.93692   0.00001   0.00000   0.00001   0.00001   1.93693
   A27        2.09716   0.00000  -0.00000   0.00001   0.00000   2.09716
   A28        2.07979  -0.00000  -0.00000  -0.00000  -0.00000   2.07979
   A29        2.11025   0.00000   0.00000   0.00000   0.00000   2.11025
   A30        2.09315   0.00000  -0.00000  -0.00000  -0.00000   2.09314
   A31        2.10581  -0.00000   0.00000  -0.00001  -0.00000   2.10580
   A32        2.08875   0.00000  -0.00000   0.00001   0.00000   2.08875
   A33        2.08863   0.00000  -0.00000   0.00000  -0.00000   2.08863
   A34        2.10429   0.00000   0.00000   0.00000   0.00000   2.10429
   A35        2.08879  -0.00000  -0.00000  -0.00000  -0.00001   2.08878
   A36        2.09011   0.00000   0.00000   0.00000   0.00000   2.09011
   A37        2.07383   0.00000  -0.00000   0.00001   0.00000   2.07384
   A38        2.10128  -0.00000   0.00000  -0.00000  -0.00000   2.10128
   A39        2.10807  -0.00000  -0.00000  -0.00000  -0.00000   2.10807
   A40        1.89395  -0.00001  -0.00000  -0.00001  -0.00002   1.89393
   A41        2.28374   0.00001   0.00000   0.00002   0.00002   2.28376
   A42        2.10550  -0.00000  -0.00000  -0.00001  -0.00001   2.10549
   A43        1.93131   0.00000   0.00001  -0.00001   0.00000   1.93131
   A44        1.93189  -0.00000  -0.00000   0.00000  -0.00000   1.93189
   A45        1.93981  -0.00000  -0.00000  -0.00001  -0.00001   1.93981
   A46        1.88219  -0.00000   0.00000  -0.00000  -0.00000   1.88219
   A47        1.88873   0.00000  -0.00000   0.00000  -0.00000   1.88873
   A48        1.88807   0.00000  -0.00000   0.00001   0.00001   1.88808
   A49        1.93150  -0.00000  -0.00000  -0.00001  -0.00001   1.93149
   A50        1.93176  -0.00000   0.00000  -0.00001  -0.00001   1.93175
   A51        1.94005  -0.00000  -0.00001   0.00000  -0.00000   1.94005
   A52        1.88174   0.00000   0.00000   0.00001   0.00001   1.88175
   A53        1.88838   0.00000   0.00000   0.00000   0.00001   1.88839
   A54        1.88855   0.00000   0.00000   0.00000   0.00001   1.88856
   A55        2.18020   0.00005   0.00020  -0.00000   0.00020   2.18041
   A56        2.09868  -0.00004  -0.00009  -0.00001  -0.00010   2.09857
   A57        2.00429  -0.00001  -0.00011   0.00001  -0.00010   2.00419
   A58        2.11591   0.00000   0.00004  -0.00000   0.00003   2.11594
   A59        2.18697  -0.00001   0.00003  -0.00009  -0.00006   2.18691
   A60        1.97970   0.00001  -0.00007   0.00009   0.00002   1.97972
   A61        2.15966   0.00000   0.00004  -0.00001   0.00003   2.15968
   A62        2.06496  -0.00002  -0.00016  -0.00004  -0.00020   2.06476
   A63        2.05646   0.00002   0.00011   0.00005   0.00017   2.05662
   A64        2.11830   0.00002   0.00006   0.00001   0.00007   2.11837
   A65        1.98215   0.00002  -0.00007   0.00009   0.00002   1.98216
   A66        2.18219  -0.00004   0.00001  -0.00010  -0.00009   2.18211
   A67        2.15801  -0.00000   0.00002  -0.00001   0.00001   2.15802
   A68        2.05952   0.00001   0.00013   0.00000   0.00013   2.05965
   A69        2.06375  -0.00001  -0.00017   0.00001  -0.00015   2.06360
   A70        2.00889  -0.00001  -0.00009  -0.00001  -0.00009   2.00879
   A71        2.17515  -0.00001   0.00019  -0.00009   0.00011   2.17526
   A72        2.09913   0.00002  -0.00011   0.00009  -0.00001   2.09911
   A73        1.87883  -0.00000   0.00010  -0.00009   0.00001   1.87884
   A74        1.87717  -0.00001   0.00010  -0.00010   0.00000   1.87717
   A75        1.70685  -0.00002  -0.00006   0.00001  -0.00005   1.70680
   A76        2.14344  -0.00005   0.00013  -0.00021  -0.00008   2.14336
   A77        2.10519   0.00005  -0.00009   0.00020   0.00010   2.10529
   A78        2.03450   0.00001  -0.00003   0.00001  -0.00002   2.03448
   A79        2.11412   0.00001  -0.00000   0.00004   0.00003   2.11415
   A80        2.07751  -0.00001   0.00000  -0.00003  -0.00003   2.07748
   A81        2.09152  -0.00000   0.00000  -0.00001  -0.00001   2.09152
   A82        2.12284  -0.00001   0.00003  -0.00004  -0.00001   2.12283
   A83        2.09411   0.00001  -0.00004   0.00006   0.00003   2.09414
   A84        2.06549  -0.00001   0.00001  -0.00003  -0.00002   2.06547
   A85        2.12669  -0.00001   0.00002  -0.00003  -0.00001   2.12668
   A86        2.07595  -0.00000  -0.00000  -0.00000  -0.00000   2.07595
   A87        2.08052   0.00001  -0.00002   0.00003   0.00001   2.08053
   A88        2.11816   0.00001  -0.00001   0.00004   0.00002   2.11818
   A89        2.08221  -0.00001   0.00001  -0.00004  -0.00003   2.08218
   A90        2.08281   0.00000  -0.00000   0.00001   0.00001   2.08282
   A91        2.04998  -0.00001  -0.00000  -0.00002  -0.00002   2.04995
   A92        2.11960   0.00000  -0.00001   0.00001  -0.00000   2.11960
   A93        2.11301   0.00001   0.00001   0.00002   0.00002   2.11304
   A94        1.93312   0.00000   0.00000   0.00000   0.00000   1.93313
   A95        1.91487   0.00000  -0.00000   0.00000   0.00000   1.91487
   A96        1.96630  -0.00000   0.00000  -0.00001  -0.00001   1.96629
   A97        1.86549  -0.00000   0.00000   0.00000   0.00001   1.86549
   A98        1.88365   0.00000  -0.00000   0.00000   0.00000   1.88365
   A99        1.89721   0.00000  -0.00000   0.00001   0.00000   1.89721
   A100       1.89963  -0.00000  -0.00000   0.00000  -0.00000   1.89963
   A101       1.90054  -0.00000   0.00000  -0.00000  -0.00000   1.90054
   A102       1.92196   0.00000  -0.00000   0.00001   0.00001   1.92197
   A103       1.85885   0.00000   0.00000  -0.00000  -0.00000   1.85885
   A104       1.99727  -0.00000   0.00000  -0.00000  -0.00000   1.99727
   A105       1.88265  -0.00000   0.00000  -0.00000  -0.00000   1.88265
   A106       1.91234  -0.00000   0.00000  -0.00000   0.00000   1.91234
   A107       1.91488   0.00000  -0.00000   0.00001   0.00001   1.91489
   A108       1.84833  -0.00000   0.00000  -0.00000  -0.00000   1.84833
    D1       -0.01194  -0.00000   0.00004  -0.00016  -0.00012  -0.01205
    D2        3.12203  -0.00000   0.00015  -0.00024  -0.00009   3.12193
    D3        3.13453  -0.00000   0.00002  -0.00010  -0.00007   3.13446
    D4       -0.01469  -0.00000   0.00013  -0.00018  -0.00005  -0.01474
    D5        0.01113  -0.00000  -0.00006   0.00007   0.00001   0.01114
    D6       -3.12819  -0.00000   0.00001  -0.00002  -0.00000  -3.12819
    D7       -3.13539  -0.00000  -0.00005   0.00001  -0.00004  -3.13543
    D8        0.00847  -0.00000   0.00003  -0.00008  -0.00005   0.00842
    D9        0.00193   0.00000   0.00002   0.00013   0.00015   0.00208
   D10       -3.09228   0.00000   0.00003   0.00023   0.00026  -3.09203
   D11       -3.13219   0.00001  -0.00008   0.00022   0.00013  -3.13206
   D12        0.05678   0.00001  -0.00008   0.00031   0.00024   0.05702
   D13        0.29624  -0.00000  -0.00036   0.00013  -0.00023   0.29601
   D14       -2.83884  -0.00000  -0.00040   0.00005  -0.00035  -2.83919
   D15       -2.85323  -0.00000  -0.00025   0.00004  -0.00021  -2.85343
   D16        0.29488  -0.00001  -0.00029  -0.00004  -0.00032   0.29456
   D17        0.00867  -0.00000  -0.00006  -0.00002  -0.00008   0.00858
   D18       -3.12659  -0.00000  -0.00004  -0.00001  -0.00005  -3.12664
   D19        3.10319  -0.00000  -0.00007  -0.00012  -0.00018   3.10300
   D20       -0.03207  -0.00000  -0.00004  -0.00011  -0.00015  -0.03222
   D21       -0.00968  -0.00000   0.00004  -0.00007  -0.00003  -0.00972
   D22        3.13802   0.00000   0.00006  -0.00002   0.00004   3.13806
   D23        3.12661  -0.00000   0.00002  -0.00008  -0.00006   3.12656
   D24       -0.00886   0.00000   0.00004  -0.00003   0.00001  -0.00885
   D25       -3.13867  -0.00000  -0.00006   0.00002  -0.00004  -3.13871
   D26        1.07930   0.00000  -0.00007   0.00003  -0.00004   1.07927
   D27       -1.07207   0.00000  -0.00007   0.00004  -0.00003  -1.07210
   D28        0.00875  -0.00000  -0.00004   0.00003  -0.00001   0.00874
   D29       -2.05647   0.00000  -0.00005   0.00004  -0.00001  -2.05647
   D30        2.07535   0.00000  -0.00005   0.00004  -0.00000   2.07535
   D31       -0.00021   0.00000   0.00002   0.00004   0.00007  -0.00014
   D32        3.13909   0.00000  -0.00005   0.00013   0.00008   3.13917
   D33        3.13365  -0.00000  -0.00001  -0.00001  -0.00002   3.13363
   D34       -0.01023   0.00000  -0.00008   0.00007  -0.00001  -0.01024
   D35        0.00500  -0.00000  -0.00003   0.00002  -0.00001   0.00499
   D36       -3.13733  -0.00000  -0.00003   0.00001  -0.00002  -3.13735
   D37       -3.12950   0.00000  -0.00000   0.00007   0.00007  -3.12943
   D38        0.01135   0.00000  -0.00000   0.00006   0.00006   0.01141
   D39        3.13700  -0.00000   0.00003  -0.00004  -0.00001   3.13699
   D40       -0.00564   0.00000   0.00002  -0.00002   0.00000  -0.00564
   D41       -1.07951   0.00000   0.00004  -0.00003   0.00001  -1.07950
   D42        2.06103   0.00000   0.00003  -0.00001   0.00002   2.06105
   D43        1.06936   0.00000   0.00004  -0.00004   0.00000   1.06936
   D44       -2.07328   0.00000   0.00003  -0.00002   0.00001  -2.07327
   D45        3.07372   0.00000  -0.00000   0.00003   0.00003   3.07375
   D46       -1.12385  -0.00000   0.00000   0.00002   0.00003  -1.12382
   D47        0.97472   0.00000  -0.00000   0.00004   0.00003   0.97475
   D48        1.11911   0.00000  -0.00001   0.00002   0.00002   1.11913
   D49       -3.07846   0.00000   0.00000   0.00002   0.00002  -3.07844
   D50       -0.97989   0.00000  -0.00001   0.00003   0.00002  -0.97987
   D51       -1.04355  -0.00000  -0.00001   0.00002   0.00002  -1.04353
   D52        1.04207  -0.00000   0.00000   0.00002   0.00002   1.04209
   D53        3.14063  -0.00000  -0.00001   0.00003   0.00002   3.14065
   D54        1.12431   0.00000   0.00001  -0.00001  -0.00000   1.12431
   D55       -3.07378   0.00000   0.00001  -0.00001   0.00000  -3.07378
   D56       -0.97454   0.00000   0.00002  -0.00001   0.00000  -0.97454
   D57        3.07978   0.00000   0.00000  -0.00000   0.00000   3.07978
   D58       -1.11832   0.00000   0.00000   0.00000   0.00001  -1.11831
   D59        0.98092   0.00000   0.00001  -0.00000   0.00001   0.98093
   D60       -1.04135  -0.00000   0.00001  -0.00002  -0.00001  -1.04135
   D61        1.04374  -0.00000   0.00001  -0.00002  -0.00001   1.04374
   D62       -3.14020  -0.00000   0.00001  -0.00002  -0.00000  -3.14021
   D63        3.14037  -0.00000  -0.00001  -0.00001  -0.00001   3.14036
   D64       -0.00083  -0.00000  -0.00000  -0.00000  -0.00001  -0.00084
   D65       -0.00009  -0.00000   0.00001  -0.00003  -0.00002  -0.00011
   D66       -3.14129  -0.00000   0.00001  -0.00002  -0.00002  -3.14131
   D67        0.00079   0.00000   0.00000  -0.00000   0.00000   0.00080
   D68       -3.14015   0.00000   0.00000   0.00001   0.00001  -3.14014
   D69        3.14144   0.00000  -0.00001   0.00002   0.00001   3.14145
   D70        0.00050   0.00000  -0.00001   0.00003   0.00002   0.00052
   D71       -0.00021   0.00000  -0.00000   0.00001   0.00001  -0.00020
   D72       -3.14153   0.00000  -0.00000   0.00001   0.00000  -3.14153
   D73        3.14099   0.00000  -0.00001   0.00001   0.00000   3.14099
   D74       -0.00033  -0.00000  -0.00001   0.00000  -0.00000  -0.00033
   D75        0.00011   0.00000   0.00000   0.00001   0.00001   0.00012
   D76       -3.14145  -0.00000  -0.00000   0.00000   0.00000  -3.14145
   D77        3.14143   0.00000   0.00000   0.00001   0.00001   3.14145
   D78       -0.00013   0.00000  -0.00000   0.00001   0.00001  -0.00012
   D79        0.00029  -0.00000  -0.00000  -0.00001  -0.00001   0.00028
   D80       -3.14157   0.00000   0.00000   0.00000   0.00001  -3.14156
   D81       -3.14133  -0.00000   0.00000  -0.00001  -0.00001  -3.14134
   D82       -0.00000   0.00000   0.00001   0.00001   0.00001   0.00001
   D83       -3.14137  -0.00000   0.00000   0.00000   0.00001  -3.14136
   D84       -0.00059  -0.00000   0.00000  -0.00001  -0.00000  -0.00060
   D85        0.00049  -0.00000  -0.00000  -0.00001  -0.00001   0.00047
   D86        3.14126  -0.00000  -0.00000  -0.00002  -0.00002   3.14124
   D87        3.10922  -0.00001  -0.00082  -0.00011  -0.00093   3.10829
   D88        0.00745  -0.00001  -0.00063  -0.00009  -0.00073   0.00672
   D89       -0.03858  -0.00001  -0.00078  -0.00003  -0.00081  -0.03939
   D90       -3.14035  -0.00000  -0.00060  -0.00002  -0.00062  -3.14096
   D91       -3.10871   0.00001   0.00083   0.00008   0.00091  -3.10780
   D92        0.10430   0.00001   0.00101  -0.00001   0.00100   0.10531
   D93        0.03877   0.00001   0.00080   0.00000   0.00080   0.03957
   D94       -3.03140   0.00001   0.00098  -0.00008   0.00090  -3.03051
   D95        0.00154   0.00000   0.00007   0.00000   0.00007   0.00161
   D96       -3.10625  -0.00000   0.00021  -0.00011   0.00010  -3.10615
   D97        3.10772  -0.00000  -0.00009  -0.00002  -0.00011   3.10761
   D98       -0.00008  -0.00000   0.00005  -0.00013  -0.00008  -0.00015
   D99        3.11236   0.00000  -0.00011   0.00023   0.00012   3.11248
   D100       0.00787   0.00001   0.00006   0.00025   0.00030   0.00818
   D101       0.00022   0.00000  -0.00006   0.00005  -0.00001   0.00021
   D102      -3.07381   0.00000   0.00013  -0.00000   0.00012  -3.07368
   D103       3.07072   0.00000  -0.00025   0.00013  -0.00011   3.07060
   D104      -0.00331   0.00000  -0.00006   0.00008   0.00002  -0.00329
   D105       0.03663   0.00001   0.00066   0.00005   0.00071   0.03735
   D106      -3.11163   0.00000   0.00061  -0.00001   0.00060  -3.11103
   D107       3.14039   0.00001   0.00050   0.00018   0.00068   3.14108
   D108      -0.00787   0.00001   0.00045   0.00012   0.00057  -0.00730
   D109      -0.00776  -0.00000  -0.00013  -0.00006  -0.00019  -0.00796
   D110      -3.11412  -0.00000   0.00002  -0.00018  -0.00017  -3.11428
   D111      -0.03847  -0.00001  -0.00068  -0.00008  -0.00076  -0.03924
   D112       3.10948  -0.00000  -0.00064  -0.00002  -0.00066   3.10882
   D113       3.03540  -0.00001  -0.00086  -0.00003  -0.00089   3.03452
   D114      -0.09983  -0.00001  -0.00081   0.00003  -0.00078  -0.10061
   D115      -0.34495   0.00001   0.00016   0.00005   0.00021  -0.34473
   D116       2.80884   0.00000   0.00011  -0.00001   0.00010   2.80894
   D117       2.78965   0.00000   0.00011  -0.00001   0.00010   2.78975
   D118      -0.33975   0.00000   0.00006  -0.00007  -0.00001  -0.33977
   D119      -0.01094  -0.00001  -0.00012  -0.00025  -0.00037  -0.01131
   D120       0.01088   0.00001   0.00014   0.00018   0.00033   0.01120
   D121      -3.11952   0.00000  -0.00008   0.00013   0.00005  -3.11947
   D122       0.01343   0.00000  -0.00008   0.00008   0.00000   0.01344
   D123       0.01034   0.00000  -0.00003   0.00019   0.00016   0.01050
   D124      -3.13989   0.00000  -0.00003   0.00014   0.00012  -3.13977
   D125       3.13069  -0.00000   0.00004  -0.00011  -0.00007   3.13063
   D126      -0.05295  -0.00000   0.00004  -0.00020  -0.00016  -0.05311
   D127       0.00056  -0.00000  -0.00001  -0.00016  -0.00017   0.00039
   D128       3.10010  -0.00001  -0.00001  -0.00026  -0.00027   3.09983
   D129      -0.01206  -0.00000   0.00003  -0.00007  -0.00004  -0.01210
   D130       3.12184   0.00000  -0.00001  -0.00000  -0.00001   3.12183
   D131       3.13824  -0.00000   0.00003  -0.00002   0.00001   3.13825
   D132      -0.01105   0.00000  -0.00002   0.00005   0.00003  -0.01102
   D133      -0.01016   0.00000   0.00005   0.00001   0.00006  -0.01010
   D134       3.12972   0.00000   0.00000   0.00009   0.00009   3.12981
   D135      -3.11037   0.00000   0.00005   0.00010   0.00015  -3.11022
   D136       0.02951   0.00000   0.00000   0.00018   0.00018   0.02969
   D137       0.00238  -0.00000   0.00001  -0.00009  -0.00008   0.00230
   D138      -3.10260  -0.00000   0.00002  -0.00002   0.00000  -3.10260
   D139      -3.13150  -0.00000   0.00005  -0.00015  -0.00010  -3.13160
   D140       0.04671  -0.00000   0.00006  -0.00008  -0.00002   0.04669
   D141       0.00863   0.00000  -0.00005   0.00012   0.00006   0.00870
   D142       3.11375   0.00000  -0.00006   0.00004  -0.00002   3.11374
   D143      -3.13125   0.00000  -0.00000   0.00004   0.00004  -3.13121
   D144      -0.02613  -0.00000  -0.00001  -0.00003  -0.00004  -0.02617
   D145      -2.62480  -0.00000  -0.00013  -0.00014  -0.00026  -2.62506
   D146      -0.56949  -0.00000  -0.00013  -0.00013  -0.00026  -0.56975
   D147       1.54665  -0.00000  -0.00013  -0.00013  -0.00026   1.54639
   D148       0.55473  -0.00000  -0.00012  -0.00006  -0.00018   0.55455
   D149       2.61004   0.00000  -0.00012  -0.00005  -0.00017   2.60987
   D150      -1.55701  -0.00000  -0.00012  -0.00005  -0.00018  -1.55719
   D151      -0.98282   0.00000  -0.00001   0.00002   0.00001  -0.98280
   D152       1.03696   0.00000  -0.00000   0.00001   0.00001   1.03697
   D153       3.09789  -0.00000  -0.00000   0.00001   0.00001   3.09791
   D154      -3.12257   0.00000  -0.00001   0.00002   0.00002  -3.12255
   D155      -1.10280   0.00000  -0.00001   0.00002   0.00001  -1.10278
   D156       0.95814   0.00000  -0.00000   0.00002   0.00001   0.95816
   D157       1.14335  -0.00000  -0.00001   0.00002   0.00001   1.14336
   D158      -3.12006  -0.00000  -0.00000   0.00001   0.00001  -3.12006
   D159      -1.05913  -0.00000  -0.00000   0.00001   0.00001  -1.05912
   D160       1.19744   0.00000   0.00004  -0.00003   0.00001   1.19745
   D161      -3.06350   0.00000   0.00004  -0.00003   0.00001  -3.06349
   D162      -0.94882  -0.00000   0.00005  -0.00004   0.00001  -0.94881
   D163       1.07342  -0.00000   0.00005  -0.00004   0.00001   1.07343
   D164      -3.01381   0.00000   0.00004  -0.00003   0.00001  -3.01380
   D165      -0.99157   0.00000   0.00005  -0.00003   0.00001  -0.99156
         Item               Value     Threshold  Converged?
 Maximum Force            0.000084     0.000450     YES
 RMS     Force            0.000011     0.000300     YES
 Maximum Displacement     0.006856     0.001800     NO 
 RMS     Displacement     0.001505     0.001200     NO 
 Predicted change in Energy=-9.842767D-08
 Lowest energy point so far.  Saving SCF results.
 GradGradGradGradGradGradGradGradGradGradGradGradGradGradGradGradGradGrad

 Leave Link  103 at Thu Mar 14 09:27:59 2024, MaxMem= 32212254720 cpu:               2.6 elap:               0.1
 (Enter /home/<user>/g16/l202.exe)
 Stoichiometry    C29H25N3S(3)
 Framework group  C1[X(C29H25N3S)]
 Deg. of freedom   168
 Full point group                 C1      NOp   1
 RotChk:  IX=0 Diff= 7.44D-04
 Largest Abelian subgroup         C1      NOp   1
 Largest concise Abelian subgroup C1      NOp   1
                         Standard orientation:                         
 ---------------------------------------------------------------------
 Center     Atomic      Atomic             Coordinates (Angstroms)
 Number     Number       Type             X           Y           Z
 ---------------------------------------------------------------------
      1          6           0       -2.480004    1.686829   -0.253751
      2          6           0       -1.780585    0.444198   -0.174779
      3          6           0       -2.568871   -0.741246   -0.035587
      4          6           0       -3.943952   -0.672854    0.016230
      5          6           0       -4.609595    0.572050   -0.077515
      6          6           0       -3.863321    1.750298   -0.212925
      7          1           0       -1.904855    2.596673   -0.352459
      8          1           0       -2.082091   -1.704092    0.074837
      9          1           0       -4.358120    2.715181   -0.288573
     10          6           0       -4.951164   -1.813135    0.178574
     11          6           0       -6.272124   -1.044250    0.150518
     12          6           0       -7.568500   -1.534343    0.250430
     13          6           0       -8.642921   -0.637294    0.201316
     14          6           0       -8.419290    0.737084    0.053763
     15          6           0       -7.121371    1.237717   -0.047173
     16          6           0       -6.047168    0.342135    0.001311
     17          1           0       -7.755724   -2.599358    0.365877
     18          1           0       -9.660195   -1.011483    0.278726
     19          1           0       -9.264612    1.418904    0.017682
     20          1           0       -6.951018    2.305024   -0.161597
     21          6           0       -4.758417   -2.549303    1.523535
     22          1           0       -5.528578   -3.317678    1.657608
     23          1           0       -3.780875   -3.044065    1.557589
     24          1           0       -4.818650   -1.853719    2.366514
     25          6           0       -4.859951   -2.818329   -0.991255
     26          1           0       -3.884159   -3.317768   -0.996984
     27          1           0       -5.631724   -3.591160   -0.898649
     28          1           0       -4.992629   -2.316221   -1.954846
     29          6           0       -0.340185    0.362561   -0.240087
     30          6           0        0.561946    1.474742   -0.040316
     31          6           0        0.308941   -0.905362   -0.532437
     32          6           0        2.019325    1.291246   -0.084525
     33          6           0        1.657282   -1.071345   -0.573632
     34          1           0       -0.313124   -1.752186   -0.795159
     35          6           0        2.605799   -0.002626   -0.330409
     36          1           0        2.041888   -2.041964   -0.863778
     37          7           0        0.194227    2.722232    0.237586
     38          7           0        2.703896    2.406156    0.161245
     39         16           0        1.591697    3.635679    0.423705
     40          6           0        4.032807   -0.271109   -0.353153
     41          6           0        5.004259    0.747321   -0.539924
     42          6           0        4.522626   -1.596324   -0.200064
     43          6           0        6.358482    0.447987   -0.581714
     44          1           0        4.675568    1.770565   -0.658932
     45          6           0        5.879677   -1.877974   -0.231319
     46          1           0        3.831760   -2.411533   -0.015392
     47          6           0        6.832174   -0.864771   -0.428166
     48          1           0        7.071088    1.253837   -0.745197
     49          1           0        6.213469   -2.904900   -0.099062
     50          6           0        8.309594   -1.173453   -0.425468
     51          1           0        8.496600   -2.181173   -0.813515
     52          1           0        8.835833   -0.473143   -1.089042
     53          6           0        8.932063   -1.083829    0.980813
     54          1           0        8.734955   -0.078626    1.394856
     55          1           0        8.423704   -1.797665    1.640368
     56          7           0       10.350607   -1.450886    0.928813
     57          1           0       10.870275   -0.735046    0.421402
     58          1           0       10.737629   -1.461516    1.871177
 ---------------------------------------------------------------------
 Rotational constants (GHZ):           0.3475016           0.0397723           0.0363418
 Leave Link  202 at Thu Mar 14 09:27:59 2024, MaxMem= 32212254720 cpu:               0.1 elap:               0.0
 (Enter /home/<user>/g16/l301.exe)
 Standard basis: 6-31G(d) (6D, 7F)
 Ernie: Thresh=  0.10000D-02 Tol=  0.10000D-05 Strict=F.
 There are   549 symmetry adapted cartesian basis functions of A   symmetry.
 There are   549 symmetry adapted basis functions of A   symmetry.
   549 basis functions,  1048 primitive gaussians,   549 cartesian basis functions
   119 alpha electrons      117 beta electrons
       nuclear repulsion energy      3072.8799979893 Hartrees.
 IExCor=  402 DFT=T Ex+Corr=B3LYP ExCW=0 ScaHFX=  0.200000
 ScaDFX=  0.800000  0.720000  1.000000  0.810000 ScalE2=  1.000000  1.000000
 IRadAn=      5 IRanWt=     -1 IRanGd=            0 ICorTp=0 IEmpDi=  4
 NAtoms=   58 NActive=   58 NUniq=   58 SFac= 1.00D+00 NAtFMM=   60 NAOKFM=F Big=F
 Integral buffers will be    131072 words long.
 Raffenetti 2 integral format.
 Two-electron integral symmetry is turned on.
 Leave Link  301 at Thu Mar 14 09:27:59 2024, MaxMem= 32212254720 cpu:               0.8 elap:               0.0
 (Enter /home/<user>/g16/l302.exe)
 NPDir=0 NMtPBC=     1 NCelOv=     1 NCel=       1 NClECP=     1 NCelD=      1
         NCelK=      1 NCelE2=     1 NClLst=     1 CellRange=     0.0.
 One-electron integrals computed using PRISM.
 One-electron integral symmetry used in STVInt
 NBasis=   549 RedAO= T EigKep=  2.74D-04  NBF=   549
 NBsUse=   549 1.00D-06 EigRej= -1.00D+00 NBFU=   549
 Precomputing XC quadrature grid using
 IXCGrd= 4 IRadAn=           5 IRanWt=          -1 IRanGd=           0 AccXCQ= 0.00D+00.
 Generated NRdTot=       0 NPtTot=           0 NUsed=           0 NTot=          32
 NSgBfM=   512   512   512   512   512 MxSgAt=    58 MxSgA2=    58.
 Leave Link  302 at Thu Mar 14 09:27:59 2024, MaxMem= 32212254720 cpu:              12.3 elap:               0.4
 (Enter /home/<user>/g16/l303.exe)
 DipDrv:  MaxL=1.
 Leave Link  303 at Thu Mar 14 09:27:59 2024, MaxMem= 32212254720 cpu:               1.4 elap:               0.1
 (Enter /home/<user>/g16/l401.exe)
 Initial guess from the checkpoint file:  "FBTP_T1opt.chk"
 B after Tr=     0.000000   -0.000000   -0.000000
         Rot=    1.000000   -0.000078   -0.000001    0.000000 Ang=  -0.01 deg.
 Guess basis will be translated and rotated to current coordinates.
 JPrj=2 DoOrth=T DoCkMO=T.
 Initial guess <Sx>= 0.0000 <Sy>= 0.0000 <Sz>= 1.0000 <S**2>= 2.0367 S= 1.0122
 Leave Link  401 at Thu Mar 14 09:28:00 2024, MaxMem= 32212254720 cpu:              17.4 elap:               0.6
 (Enter /home/<user>/g16/l502.exe)
 Integral symmetry usage will be decided dynamically.
 UHF open shell SCF:
 Using DIIS extrapolation, IDIIS=  1040.
 NGot= 32212254720 LenX= 32211628124 LenY= 32211326174
 Requested convergence on RMS density matrix=1.00D-08 within 128 cycles.
 Requested convergence on MAX density matrix=1.00D-06.
 Requested convergence on             energy=1.00D-06.
 No special actions if energy rises.
 Fock matrices will be formed incrementally for  20 cycles.

 Cycle   1  Pass 1  IDiag  1:
 FoFJK:  IHMeth= 1 ICntrl=       0 DoSepK=F KAlg= 0 I1Cent=           0 FoldK=F
 IRaf= 550000000 NMat=       1 IRICut=       1 DoRegI=T DoRafI=F ISym2E= 0 IDoP0=0 IntGTp=1.
 FoFCou: FMM=F IPFlag=           0 FMFlag=      100000 FMFlg1=           0
         NFxFlg=           0 DoJE=F BraDBF=F KetDBF=F FulRan=T
         wScrn=  0.000000 ICntrl=         0 IOpCl=  1 I1Cent=           0 NGrid=           0
         NMat0=    1 NMatS0=      1 NMatT0=    0 NMatD0=    1 NMtDS0=    0 NMtDT0=    0
 Symmetry not used in FoFCou.
 E= -1682.54392967995    
 DIIS: error= 4.99D-05 at cycle   1 NSaved=   1.
 NSaved= 1 IEnMin= 1 EnMin= -1682.54392967995     IErMin= 1 ErrMin= 4.99D-05
 ErrMax= 4.99D-05  0.00D+00 EMaxC= 1.00D-01 BMatC= 9.29D-06 BMatP= 9.29D-06
 IDIUse=1 WtCom= 1.00D+00 WtEn= 0.00D+00
 Coeff-Com:  0.100D+01
 Coeff:      0.100D+01
 Gap=     1.902 Goal=   None    Shift=    0.000
 Gap=     1.983 Goal=   None    Shift=    0.000
 RMSDP=4.92D-06 MaxDP=1.80D-04              OVMax= 3.63D-04

 Cycle   2  Pass 1  IDiag  1:
 RMSU=  4.92D-06    CP:  1.00D+00
 E= -1682.54393485171     Delta-E=       -0.000005171758 Rises=F Damp=F
 DIIS: error= 5.40D-06 at cycle   2 NSaved=   2.
 NSaved= 2 IEnMin= 2 EnMin= -1682.54393485171     IErMin= 2 ErrMin= 5.40D-06
 ErrMax= 5.40D-06  0.00D+00 EMaxC= 1.00D-01 BMatC= 1.20D-07 BMatP= 9.29D-06
 IDIUse=1 WtCom= 1.00D+00 WtEn= 0.00D+00
 Coeff-Com: -0.831D-01 0.108D+01
 Coeff:     -0.831D-01 0.108D+01
 Gap=     0.092 Goal=   None    Shift=    0.000
 Gap=     0.080 Goal=   None    Shift=    0.000
 RMSDP=8.48D-07 MaxDP=3.23D-05 DE=-5.17D-06 OVMax= 7.66D-05

 Cycle   3  Pass 1  IDiag  1:
 RMSU=  6.99D-07    CP:  1.00D+00  1.10D+00
 E= -1682.54393491518     Delta-E=       -0.000000063469 Rises=F Damp=F
 DIIS: error= 3.58D-06 at cycle   3 NSaved=   3.
 NSaved= 3 IEnMin= 3 EnMin= -1682.54393491518     IErMin= 3 ErrMin= 3.58D-06
 ErrMax= 3.58D-06  0.00D+00 EMaxC= 1.00D-01 BMatC= 5.57D-08 BMatP= 1.20D-07
 IDIUse=1 WtCom= 1.00D+00 WtEn= 0.00D+00
 Coeff-Com: -0.440D-01 0.518D+00 0.526D+00
 Coeff:     -0.440D-01 0.518D+00 0.526D+00
 Gap=     0.092 Goal=   None    Shift=    0.000
 Gap=     0.080 Goal=   None    Shift=    0.000
 RMSDP=3.81D-07 MaxDP=2.37D-05 DE=-6.35D-08 OVMax= 7.50D-05

 Cycle   4  Pass 1  IDiag  1:
 RMSU=  3.12D-07    CP:  1.00D+00  1.11D+00  6.93D-01
 E= -1682.54393492570     Delta-E=       -0.000000010517 Rises=F Damp=F
 DIIS: error= 1.95D-06 at cycle   4 NSaved=   4.
 NSaved= 4 IEnMin= 4 EnMin= -1682.54393492570     IErMin= 4 ErrMin= 1.95D-06
 ErrMax= 1.95D-06  0.00D+00 EMaxC= 1.00D-01 BMatC= 1.52D-08 BMatP= 5.57D-08
 IDIUse=1 WtCom= 1.00D+00 WtEn= 0.00D+00
 Coeff-Com: -0.111D-01 0.114D+00 0.340D+00 0.558D+00
 Coeff:     -0.111D-01 0.114D+00 0.340D+00 0.558D+00
 Gap=     0.092 Goal=   None    Shift=    0.000
 Gap=     0.080 Goal=   None    Shift=    0.000
 RMSDP=1.83D-07 MaxDP=1.45D-05 DE=-1.05D-08 OVMax= 4.65D-05

 Cycle   5  Pass 1  IDiag  1:
 RMSU=  1.26D-07    CP:  1.00D+00  1.11D+00  7.84D-01  6.32D-01
 E= -1682.54393492917     Delta-E=       -0.000000003475 Rises=F Damp=F
 DIIS: error= 1.18D-06 at cycle   5 NSaved=   5.
 NSaved= 5 IEnMin= 5 EnMin= -1682.54393492917     IErMin= 5 ErrMin= 1.18D-06
 ErrMax= 1.18D-06  0.00D+00 EMaxC= 1.00D-01 BMatC= 2.44D-09 BMatP= 1.52D-08
 IDIUse=1 WtCom= 1.00D+00 WtEn= 0.00D+00
 Coeff-Com: -0.138D-02 0.331D-02 0.145D+00 0.355D+00 0.498D+00
 Coeff:     -0.138D-02 0.331D-02 0.145D+00 0.355D+00 0.498D+00
 Gap=     0.092 Goal=   None    Shift=    0.000
 Gap=     0.080 Goal=   None    Shift=    0.000
 RMSDP=7.81D-08 MaxDP=4.99D-06 DE=-3.48D-09 OVMax= 1.81D-05

 Cycle   6  Pass 1  IDiag  1:
 RMSU=  4.83D-08    CP:  1.00D+00  1.11D+00  8.00D-01  7.13D-01  5.66D-01
 E= -1682.54393492975     Delta-E=       -0.000000000582 Rises=F Damp=F
 DIIS: error= 4.90D-07 at cycle   6 NSaved=   6.
 NSaved= 6 IEnMin= 6 EnMin= -1682.54393492975     IErMin= 6 ErrMin= 4.90D-07
 ErrMax= 4.90D-07  0.00D+00 EMaxC= 1.00D-01 BMatC= 4.81D-10 BMatP= 2.44D-09
 IDIUse=1 WtCom= 1.00D+00 WtEn= 0.00D+00
 Coeff-Com:  0.132D-02-0.215D-01 0.311D-01 0.129D+00 0.340D+00 0.520D+00
 Coeff:      0.132D-02-0.215D-01 0.311D-01 0.129D+00 0.340D+00 0.520D+00
 Gap=     0.092 Goal=   None    Shift=    0.000
 Gap=     0.080 Goal=   None    Shift=    0.000
 RMSDP=3.13D-08 MaxDP=2.23D-06 DE=-5.82D-10 OVMax= 5.39D-06

 Cycle   7  Pass 1  IDiag  1:
 RMSU=  1.56D-08    CP:  1.00D+00  1.11D+00  8.04D-01  7.22D-01  6.44D-01
                    CP:  4.85D-01
 E= -1682.54393492980     Delta-E=       -0.000000000044 Rises=F Damp=F
 DIIS: error= 1.64D-07 at cycle   7 NSaved=   7.
 NSaved= 7 IEnMin= 7 EnMin= -1682.54393492980     IErMin= 7 ErrMin= 1.64D-07
 ErrMax= 1.64D-07  0.00D+00 EMaxC= 1.00D-01 BMatC= 4.30D-11 BMatP= 4.81D-10
 IDIUse=1 WtCom= 1.00D+00 WtEn= 0.00D+00
 Coeff-Com:  0.889D-03-0.128D-01 0.411D-02 0.401D-01 0.149D+00 0.307D+00
 Coeff-Com:  0.512D+00
 Coeff:      0.889D-03-0.128D-01 0.411D-02 0.401D-01 0.149D+00 0.307D+00
 Coeff:      0.512D+00
 Gap=     0.092 Goal=   None    Shift=    0.000
 Gap=     0.080 Goal=   None    Shift=    0.000
 RMSDP=9.51D-09 MaxDP=6.81D-07 DE=-4.37D-11 OVMax= 1.26D-06

 SCF Done:  E(UB3LYP) =  -1682.54393493     A.U. after    7 cycles
            NFock=  7  Conv=0.95D-08     -V/T= 2.0082
 <Sx>= 0.0000 <Sy>= 0.0000 <Sz>= 1.0000 <S**2>= 2.0367 S= 1.0122
 <L.S>= 0.000000000000E+00
 KE= 1.668880227366D+03 PE=-1.006772911437D+04 EE= 3.643424954087D+03
 Annihilation of the first spin contaminant:
 S**2 before annihilation     2.0367,   after     2.0009
 Leave Link  502 at Thu Mar 14 09:28:20 2024, MaxMem= 32212254720 cpu:             611.1 elap:              20.4
 (Enter /home/<user>/g16/l701.exe)
 ... and contract with generalized density number  0.
 Compute integral first derivatives.
 Leave Link  701 at Thu Mar 14 09:28:20 2024, MaxMem= 32212254720 cpu:               5.1 elap:               0.2
 (Enter /home/<user>/g16/l702.exe)
 L702 exits ... SP integral derivatives will be done elsewhere.
 Leave Link  702 at Thu Mar 14 09:28:20 2024, MaxMem= 32212254720 cpu:               0.7 elap:               0.0
 (Enter /home/<user>/g16/l703.exe)
 Integral derivatives from FoFJK, PRISM(SPDF).
 Compute integral first derivatives, UseDBF=F ICtDFT=           0.
 Calling FoFJK, ICntrl=      2127 FMM=F ISym2X=0 I1Cent= 0 IOpClX= 1 NMat=1 NMatS=1 NMatT=0.
 FoFJK:  IHMeth= 1 ICntrl=    2127 DoSepK=F KAlg= 0 I1Cent=           0 FoldK=F
 IRaf=         0 NMat=       1 IRICut=       1 DoRegI=T DoRafI=F ISym2E= 0 IDoP0=0 IntGTp=1.
 FoFCou: FMM=F IPFlag=           0 FMFlag=      100000 FMFlg1=         800
         NFxFlg=           0 DoJE=F BraDBF=F KetDBF=F FulRan=T
         wScrn=  0.000000 ICntrl=      2127 IOpCl=  1 I1Cent=           0 NGrid=           0
         NMat0=    1 NMatS0=      1 NMatT0=    0 NMatD0=    1 NMtDS0=    0 NMtDT0=    0
 Symmetry not used in FoFCou.
 Leave Link  703 at Thu Mar 14 09:28:27 2024, MaxMem= 32212254720 cpu:             194.2 elap:               6.5
 (Enter /home/<user>/g16/l716.exe)
 Dipole        =-4.66521040D-01-9.83639933D-01 5.08493129D-02
 ***** Axes restored to original set *****
 -------------------------------------------------------------------
 Center     Atomic                   Forces (Hartrees/Bohr)
 Number     Number              X              Y              Z
 -------------------------------------------------------------------
      1        6           0.000019395   -0.000011604   -0.000000066
      2        6          -0.000041480   -0.000010566    0.000014688
      3        6           0.000027501    0.000013259   -0.000005355
      4        6          -0.000013628    0.000010128    0.000000103
      5        6           0.000014542    0.000002499   -0.000003294
      6        6          -0.000014339   -0.000002167   -0.000000972
      7        1           0.000000039    0.000002638    0.000000278
      8        1          -0.000000315   -0.000004697    0.000002460
      9        1           0.000003171    0.000001788    0.000003314
     10        6           0.000000812   -0.000005226   -0.000003362
     11        6           0.000005733    0.000005735   -0.000000201
     12        6          -0.000001526   -0.000001388    0.000000815
     13        6           0.000001222    0.000000605    0.000000062
     14        6          -0.000002209   -0.000001446    0.000000539
     15        6           0.000006031   -0.000002601    0.000000657
     16        6          -0.000014046   -0.000002677    0.000001776
     17        1           0.000000560   -0.000000118   -0.000000261
     18        1          -0.000000116    0.000000096    0.000000027
     19        1           0.000000350    0.000000325    0.000000373
     20        1          -0.000000667    0.000000412    0.000000185
     21        6          -0.000000142    0.000000343    0.000001788
     22        1           0.000000196   -0.000000128   -0.000000804
     23        1           0.000000004   -0.000000682   -0.000000093
     24        1           0.000000008   -0.000000310   -0.000000333
     25        6           0.000000285   -0.000000801    0.000000737
     26        1          -0.000000217    0.000000372   -0.000000458
     27        1          -0.000000093   -0.000000063   -0.000000606
     28        1           0.000000096   -0.000000148   -0.000000239
     29        6           0.000030046   -0.000015194   -0.000008744
     30        6          -0.000012673    0.000011633    0.000012148
     31        6          -0.000034227    0.000027382    0.000002095
     32        6           0.000014013    0.000008559    0.000007047
     33        6           0.000039109    0.000017390    0.000002971
     34        1           0.000000215   -0.000005429   -0.000002201
     35        6          -0.000019307   -0.000004814   -0.000007495
     36        1          -0.000001963   -0.000006102   -0.000001283
     37        7          -0.000043104   -0.000039170   -0.000019863
     38        7           0.000033526   -0.000047729   -0.000019547
     39       16           0.000008339    0.000065643    0.000019683
     40        6           0.000017668   -0.000018276    0.000011564
     41        6          -0.000011699   -0.000003523    0.000000555
     42        6          -0.000017121    0.000015095   -0.000005278
     43        6           0.000007596   -0.000001545   -0.000000468
     44        1          -0.000000091    0.000002887   -0.000000055
     45        6           0.000005905    0.000004387   -0.000003191
     46        1          -0.000001618   -0.000004931    0.000001834
     47        6           0.000001399   -0.000000178    0.000001647
     48        1          -0.000002359    0.000002650    0.000001556
     49        1          -0.000002885   -0.000001573   -0.000000621
     50        6           0.000000162   -0.000000908   -0.000001151
     51        1          -0.000000515    0.000000215   -0.000000106
     52        1          -0.000000709   -0.000000402   -0.000000930
     53        6          -0.000000826    0.000000735   -0.000000478
     54        1           0.000000288   -0.000000016    0.000000223
     55        1           0.000000077   -0.000000167   -0.000000510
     56        7          -0.000000011   -0.000000159   -0.000000293
     57        1          -0.000000042   -0.000000002   -0.000000437
     58        1          -0.000000357   -0.000000039   -0.000000433
 -------------------------------------------------------------------
 Cartesian Forces:  Max     0.000065643 RMS     0.000011979
 Leave Link  716 at Thu Mar 14 09:28:27 2024, MaxMem= 32212254720 cpu:               0.7 elap:               0.0
 (Enter /home/<user>/g16/l103.exe)

 GradGradGradGradGradGradGradGradGradGradGradGradGradGradGradGradGradGrad
 Berny optimization.
 Using GEDIIS/GDIIS optimizer.
 FormGI is forming the generalized inverse of G from B-inverse, IUseBI=4.
 GSVD:  received Info=                   1 from GESDD.
 Internal  Forces:  Max     0.000049193 RMS     0.000005558
 Search for a local minimum.
 Step number  11 out of a maximum of  346
 All quantities printed in internal units (Hartrees-Bohrs-Radians)
 RMS Force = .55584D-05 SwitMx=.10000D-02 MixMth= 2
 Mixed Optimization -- En-DIIS/RFO-DIIS
 Swapping is turned off.
 Update second derivatives using D2CorX and points    3    4    5    6    7
                                                      8    9   10   11
 DE= -1.36D-07 DEPred=-9.84D-08 R= 1.38D+00
 Trust test= 1.38D+00 RLast= 3.45D-03 DXMaxT set to 8.49D-01
 ITU=  0  0  1  1  1  1  1  1  1  1  0
     Eigenvalues ---    0.00230   0.00230   0.00250   0.00479   0.00630
     Eigenvalues ---    0.00739   0.00758   0.00811   0.01047   0.01255
     Eigenvalues ---    0.01457   0.01472   0.01605   0.01635   0.01643
     Eigenvalues ---    0.01663   0.01715   0.01731   0.01768   0.01833
     Eigenvalues ---    0.01860   0.01883   0.02018   0.02037   0.02047
     Eigenvalues ---    0.02066   0.02073   0.02090   0.02091   0.02094
     Eigenvalues ---    0.02095   0.02112   0.02119   0.02126   0.02130
     Eigenvalues ---    0.02134   0.02143   0.02146   0.02148   0.02152
     Eigenvalues ---    0.02161   0.02166   0.02179   0.03080   0.04048
     Eigenvalues ---    0.04278   0.04389   0.04469   0.05425   0.05428
     Eigenvalues ---    0.05433   0.05500   0.05500   0.05559   0.05994
     Eigenvalues ---    0.08024   0.08961   0.09277   0.11594   0.12605
     Eigenvalues ---    0.12824   0.14455   0.15569   0.15971   0.15993
     Eigenvalues ---    0.15999   0.16000   0.16000   0.16000   0.16000
     Eigenvalues ---    0.16000   0.16000   0.16000   0.16000   0.16000
     Eigenvalues ---    0.16000   0.16001   0.16005   0.16006   0.16017
     Eigenvalues ---    0.16037   0.16110   0.18986   0.21360   0.21876
     Eigenvalues ---    0.21954   0.22002   0.22189   0.22465   0.22564
     Eigenvalues ---    0.22631   0.22956   0.23578   0.23847   0.24288
     Eigenvalues ---    0.24544   0.24899   0.24972   0.24983   0.24998
     Eigenvalues ---    0.25219   0.25449   0.27904   0.28076   0.28109
     Eigenvalues ---    0.28536   0.28614   0.29022   0.31190   0.32784
     Eigenvalues ---    0.33128   0.33785   0.34027   0.34089   0.34099
     Eigenvalues ---    0.34104   0.34105   0.34131   0.34145   0.34277
     Eigenvalues ---    0.34289   0.34568   0.34903   0.35033   0.35050
     Eigenvalues ---    0.35084   0.35139   0.35151   0.35159   0.35187
     Eigenvalues ---    0.35189   0.35249   0.35268   0.35387   0.35492
     Eigenvalues ---    0.36140   0.36514   0.36688   0.37809   0.38385
     Eigenvalues ---    0.40782   0.41329   0.41478   0.41597   0.42106
     Eigenvalues ---    0.42485   0.43085   0.43925   0.44356   0.44366
     Eigenvalues ---    0.44518   0.44532   0.44784   0.44946   0.45438
     Eigenvalues ---    0.45751   0.45801   0.46001   0.46083   0.46439
     Eigenvalues ---    0.46915   0.47104   0.47449   0.48188   0.54467
     Eigenvalues ---    0.55973   0.62733   0.67199
 En-DIIS/RFO-DIIS/Sim-DIIS IScMMF=       -3 using points:    11   10    9    8    7    6    5    4    3
 RFO step:  Lambda=-5.96139875D-08.
 NNeg= 0 NGDIIS= 9 SimSw=  2.50D-01 Rises=F DC= -1.36D-07 SmlDif=  1.00D-05
 NRisDI= 0 DoIntr=F SqrtH=F CThrHd= 10.0 CDAdj=  3.0
 RMS Error=  0.1076735308D-03 NUsed= 9 OKEnD=F EnDIS=F
 InvSVX:  RCond= 4.03D-08 Info=           0 Equed=N FErr=  2.93D-13 BErr=  9.77D-17
 DIIS inversion failure, remove point   9.
 InvSVX:  RCond= 4.74D-08 Info=           0 Equed=N FErr=  2.15D-13 BErr=  7.94D-17
 DIIS inversion failure, remove point   8.
 InvSVX:  RCond= 6.17D-08 Info=           0 Equed=N FErr=  1.11D-13 BErr=  1.04D-16
 DIIS inversion failure, remove point   7.
 InvSVX:  RCond= 7.33D-08 Info=           0 Equed=N FErr=  9.27D-14 BErr=  4.26D-17
 DIIS inversion failure, remove point   6.
 InvSVX:  RCond= 8.79D-08 Info=           0 Equed=N FErr=  7.97D-14 BErr=  3.82D-17
 DIIS inversion failure, remove point   5.
 InvSVX:  RCond= 1.14D-07 Info=           0 Equed=N FErr=  4.31D-14 BErr=  4.16D-17
 RFO-DIIS uses    4 points instead of    9
 DidBck=F Rises=F RFO-DIIS coefs:    1.29768   -0.15013   -0.18487    0.03731    0.00000
                  RFO-DIIS coefs:    0.00000    0.00000    0.00000    0.00000
 Iteration  1 RMS(Cart)=  0.00064025 RMS(Int)=  0.00000003
 Iteration  2 RMS(Cart)=  0.00000016 RMS(Int)=  0.00000001
 ITry= 1 IFail=0 DXMaxC= 2.93D-03 DCOld= 1.00D+10 DXMaxT= 8.49D-01 DXLimC= 3.00D+00 Rises=F
 Variable       Old X    -DE/DX   Delta X   Delta X   Delta X     New X
                                 (Linear)    (Quad)   (Total)
    R1        2.69877  -0.00001   0.00000  -0.00003  -0.00003   2.69875
    R2        2.61798   0.00001   0.00000   0.00001   0.00002   2.61800
    R3        2.04261   0.00000   0.00001   0.00000   0.00001   2.04263
    R4        2.70307  -0.00002   0.00001  -0.00005  -0.00004   2.70302
    R5        2.72912   0.00001  -0.00003   0.00004   0.00001   2.72913
    R6        2.60358   0.00001  -0.00000   0.00002   0.00001   2.60359
    R7        2.04948   0.00000   0.00001   0.00001   0.00002   2.04950
    R8        2.67358  -0.00000   0.00000  -0.00001  -0.00000   2.67358
    R9        2.89139  -0.00000   0.00000  -0.00000  -0.00000   2.89139
   R10        2.64800  -0.00000  -0.00001  -0.00001  -0.00001   2.64799
   R11        2.75517   0.00001   0.00001   0.00002   0.00003   2.75520
   R12        2.05411  -0.00000   0.00000  -0.00000   0.00000   2.05411
   R13        2.88881  -0.00000  -0.00000  -0.00000  -0.00001   2.88881
   R14        2.92023   0.00000   0.00000   0.00000   0.00001   2.92024
   R15        2.91976   0.00000  -0.00000   0.00000   0.00000   2.91976
   R16        2.62581   0.00000   0.00000   0.00000   0.00000   2.62582
   R17        2.66909  -0.00000   0.00000  -0.00001  -0.00001   2.66908
   R18        2.64662  -0.00000  -0.00000  -0.00000  -0.00000   2.64662
   R19        2.05506  -0.00000   0.00000  -0.00000  -0.00000   2.05506
   R20        2.64609  -0.00000  -0.00000  -0.00000  -0.00000   2.64608
   R21        2.05351   0.00000   0.00000  -0.00000   0.00000   2.05351
   R22        2.63575   0.00000   0.00000   0.00000   0.00000   2.63576
   R23        2.05342  -0.00000   0.00000  -0.00000  -0.00000   2.05342
   R24        2.64449  -0.00000  -0.00000  -0.00001  -0.00001   2.64448
   R25        2.05386   0.00000   0.00000   0.00000   0.00000   2.05386
   R26        2.07140  -0.00000  -0.00000  -0.00000  -0.00000   2.07140
   R27        2.07142   0.00000  -0.00000   0.00000   0.00000   2.07142
   R28        2.06843  -0.00000   0.00000  -0.00000   0.00000   2.06843
   R29        2.07151  -0.00000  -0.00000  -0.00000  -0.00000   2.07151
   R30        2.07136   0.00000  -0.00000   0.00000  -0.00000   2.07136
   R31        2.06856  -0.00000   0.00000  -0.00000  -0.00000   2.06856
   R32        2.73240  -0.00000  -0.00002  -0.00000  -0.00002   2.73238
   R33        2.74789  -0.00003   0.00008  -0.00008   0.00000   2.74789
   R34        2.77705   0.00001   0.00004   0.00001   0.00005   2.77710
   R35        2.51318  -0.00001  -0.00001  -0.00001  -0.00002   2.51315
   R36        2.56841   0.00001  -0.00003   0.00006   0.00002   2.56843
   R37        2.04676   0.00000   0.00000   0.00001   0.00001   2.04677
   R38        2.72443  -0.00000  -0.00001  -0.00001  -0.00002   2.72441
   R39        2.51558  -0.00001  -0.00000  -0.00001  -0.00001   2.51557
   R40        2.73913  -0.00002   0.00007  -0.00007  -0.00000   2.73912
   R41        2.04772   0.00001  -0.00000   0.00001   0.00001   2.04774
   R42        2.74430  -0.00000  -0.00001  -0.00000  -0.00002   2.74429
   R43        3.17449   0.00005   0.00006   0.00009   0.00015   3.17464
   R44        3.17204   0.00005   0.00006   0.00009   0.00015   3.17219
   R45        2.68301  -0.00001  -0.00000  -0.00002  -0.00002   2.68299
   R46        2.68551  -0.00002   0.00001  -0.00004  -0.00004   2.68547
   R47        2.62207   0.00000   0.00001   0.00000   0.00001   2.62208
   R48        2.04338   0.00000   0.00000   0.00001   0.00001   2.04339
   R49        2.61977   0.00000  -0.00000   0.00001   0.00000   2.61978
   R50        2.04926   0.00001   0.00001   0.00001   0.00002   2.04927
   R51        2.65323   0.00000  -0.00001   0.00000  -0.00000   2.65322
   R52        2.05618  -0.00000   0.00000  -0.00000   0.00000   2.05618
   R53        2.65409   0.00000   0.00001  -0.00000   0.00001   2.65410
   R54        2.05580   0.00000  -0.00000   0.00000   0.00000   2.05580
   R55        2.85221  -0.00000   0.00000  -0.00001  -0.00000   2.85221
   R56        2.07100  -0.00000  -0.00000  -0.00000  -0.00000   2.07100
   R57        2.07672  -0.00000   0.00000  -0.00000   0.00000   2.07672
   R58        2.91111  -0.00000  -0.00000  -0.00000  -0.00000   2.91111
   R59        2.08788   0.00000   0.00000   0.00000   0.00000   2.08788
   R60        2.07268  -0.00000  -0.00000  -0.00000  -0.00000   2.07268
   R61        2.77069  -0.00000   0.00000  -0.00000  -0.00000   2.77069
   R62        1.92710   0.00000   0.00000   0.00000   0.00000   1.92710
   R63        1.92525  -0.00000   0.00000  -0.00000  -0.00000   1.92525
    A1        2.12616  -0.00000   0.00002  -0.00001   0.00000   2.12616
    A2        2.06788   0.00000  -0.00001   0.00001   0.00000   2.06789
    A3        2.08914  -0.00000  -0.00001  -0.00000  -0.00001   2.08913
    A4        2.04495   0.00001  -0.00003   0.00005   0.00002   2.04498
    A5        2.13547  -0.00000   0.00002  -0.00003  -0.00002   2.13546
    A6        2.10273  -0.00001   0.00001  -0.00001  -0.00001   2.10272
    A7        2.10894  -0.00001   0.00001  -0.00003  -0.00002   2.10893
    A8        2.09245   0.00001   0.00000   0.00003   0.00003   2.09248
    A9        2.08083  -0.00000  -0.00002   0.00001  -0.00001   2.08082
   A10        2.10687   0.00000   0.00000   0.00000   0.00001   2.10687
   A11        2.24465  -0.00000  -0.00000  -0.00002  -0.00002   2.24463
   A12        1.93166   0.00000  -0.00000   0.00002   0.00001   1.93167
   A13        2.08945  -0.00000  -0.00001   0.00001  -0.00000   2.08945
   A14        1.89818  -0.00000   0.00000  -0.00001  -0.00001   1.89817
   A15        2.29554   0.00000   0.00000   0.00001   0.00001   2.29555
   A16        2.08991  -0.00000   0.00000  -0.00002  -0.00001   2.08989
   A17        2.08649  -0.00000   0.00000  -0.00001  -0.00001   2.08648
   A18        2.10678   0.00001  -0.00000   0.00003   0.00002   2.10681
   A19        1.76404  -0.00000   0.00000  -0.00001  -0.00001   1.76403
   A20        1.94472   0.00000   0.00001  -0.00000   0.00000   1.94472
   A21        1.94513   0.00000  -0.00001   0.00001   0.00000   1.94514
   A22        1.94267  -0.00000  -0.00000  -0.00001  -0.00001   1.94266
   A23        1.94372   0.00000   0.00000   0.00001   0.00001   1.94373
   A24        1.91950  -0.00000  -0.00000   0.00000  -0.00000   1.91950
   A25        2.24909  -0.00000  -0.00001  -0.00001  -0.00001   2.24908
   A26        1.93693   0.00000   0.00000   0.00001   0.00001   1.93695
   A27        2.09716   0.00000   0.00000  -0.00000   0.00000   2.09716
   A28        2.07979  -0.00000  -0.00000  -0.00000  -0.00000   2.07978
   A29        2.11025  -0.00000   0.00000  -0.00000  -0.00000   2.11025
   A30        2.09314   0.00000  -0.00000   0.00000   0.00000   2.09315
   A31        2.10580  -0.00000  -0.00000   0.00000  -0.00000   2.10580
   A32        2.08875   0.00000   0.00000   0.00000   0.00000   2.08876
   A33        2.08863  -0.00000  -0.00000  -0.00000  -0.00000   2.08863
   A34        2.10429  -0.00000   0.00000  -0.00000  -0.00000   2.10429
   A35        2.08878   0.00000  -0.00000   0.00000   0.00000   2.08878
   A36        2.09011  -0.00000   0.00000  -0.00000  -0.00000   2.09011
   A37        2.07384  -0.00000   0.00000  -0.00000   0.00000   2.07384
   A38        2.10128  -0.00000  -0.00000  -0.00000  -0.00000   2.10127
   A39        2.10807   0.00000  -0.00000   0.00000   0.00000   2.10807
   A40        1.89393  -0.00000  -0.00001  -0.00000  -0.00001   1.89392
   A41        2.28376   0.00000   0.00001  -0.00000   0.00001   2.28377
   A42        2.10549   0.00000  -0.00000   0.00000   0.00000   2.10549
   A43        1.93131  -0.00000   0.00000  -0.00001  -0.00000   1.93131
   A44        1.93189   0.00000  -0.00000   0.00000   0.00000   1.93189
   A45        1.93981  -0.00000  -0.00000   0.00000  -0.00000   1.93981
   A46        1.88219  -0.00000  -0.00000  -0.00000  -0.00000   1.88219
   A47        1.88873   0.00000  -0.00000   0.00000   0.00000   1.88873
   A48        1.88808   0.00000   0.00000   0.00000   0.00000   1.88808
   A49        1.93149  -0.00000  -0.00001   0.00000  -0.00000   1.93148
   A50        1.93175   0.00000  -0.00000   0.00001   0.00000   1.93175
   A51        1.94005   0.00000  -0.00000   0.00000   0.00000   1.94005
   A52        1.88175  -0.00000   0.00001  -0.00000   0.00000   1.88175
   A53        1.88839  -0.00000   0.00000  -0.00000  -0.00000   1.88839
   A54        1.88856  -0.00000   0.00000  -0.00000  -0.00000   1.88856
   A55        2.18041   0.00001   0.00011  -0.00003   0.00008   2.18049
   A56        2.09857  -0.00001  -0.00005  -0.00001  -0.00007   2.09851
   A57        2.00419   0.00001  -0.00006   0.00004  -0.00001   2.00417
   A58        2.11594  -0.00001   0.00002  -0.00002   0.00000   2.11594
   A59        2.18691  -0.00000  -0.00003   0.00001  -0.00002   2.18690
   A60        1.97972   0.00001   0.00000   0.00002   0.00002   1.97974
   A61        2.15968  -0.00000   0.00002  -0.00002   0.00000   2.15969
   A62        2.06476   0.00000  -0.00008   0.00005  -0.00003   2.06473
   A63        2.05662  -0.00000   0.00006  -0.00003   0.00003   2.05666
   A64        2.11837  -0.00001   0.00003  -0.00003  -0.00000   2.11837
   A65        1.98216   0.00001  -0.00001   0.00003   0.00002   1.98218
   A66        2.18211  -0.00000  -0.00002   0.00000  -0.00001   2.18209
   A67        2.15802  -0.00000   0.00002  -0.00002   0.00000   2.15802
   A68        2.05965  -0.00000   0.00006  -0.00003   0.00002   2.05968
   A69        2.06360   0.00000  -0.00008   0.00005  -0.00003   2.06357
   A70        2.00879   0.00001  -0.00005   0.00004  -0.00001   2.00878
   A71        2.17526   0.00001   0.00012  -0.00003   0.00009   2.17535
   A72        2.09911  -0.00001  -0.00007  -0.00001  -0.00008   2.09903
   A73        1.87884  -0.00000   0.00002  -0.00001   0.00001   1.87885
   A74        1.87717  -0.00001   0.00003  -0.00002   0.00001   1.87718
   A75        1.70680  -0.00001  -0.00004  -0.00001  -0.00005   1.70675
   A76        2.14336  -0.00000   0.00002  -0.00003  -0.00001   2.14335
   A77        2.10529  -0.00001  -0.00000  -0.00001  -0.00001   2.10528
   A78        2.03448   0.00001  -0.00002   0.00004   0.00002   2.03450
   A79        2.11415  -0.00000   0.00002  -0.00001   0.00000   2.11416
   A80        2.07748   0.00000  -0.00001   0.00001   0.00000   2.07749
   A81        2.09152  -0.00000  -0.00001   0.00000  -0.00001   2.09151
   A82        2.12283  -0.00000   0.00001  -0.00003  -0.00002   2.12281
   A83        2.09414   0.00000   0.00001   0.00002   0.00003   2.09417
   A84        2.06547   0.00000  -0.00002   0.00001  -0.00001   2.06546
   A85        2.12668  -0.00000   0.00000  -0.00001  -0.00001   2.12667
   A86        2.07595  -0.00000  -0.00000  -0.00001  -0.00001   2.07594
   A87        2.08053   0.00001  -0.00000   0.00003   0.00002   2.08055
   A88        2.11818   0.00000   0.00001   0.00001   0.00002   2.11820
   A89        2.08218  -0.00000  -0.00001  -0.00002  -0.00003   2.08215
   A90        2.08282   0.00000   0.00000   0.00001   0.00001   2.08283
   A91        2.04995  -0.00000  -0.00001   0.00000  -0.00001   2.04995
   A92        2.11960   0.00000   0.00000   0.00000   0.00000   2.11960
   A93        2.11304   0.00000   0.00001  -0.00000   0.00001   2.11304
   A94        1.93313   0.00000   0.00000  -0.00000  -0.00000   1.93313
   A95        1.91487  -0.00000   0.00000  -0.00000  -0.00000   1.91487
   A96        1.96629  -0.00000  -0.00001  -0.00000  -0.00001   1.96628
   A97        1.86549  -0.00000   0.00000  -0.00000   0.00000   1.86550
   A98        1.88365   0.00000  -0.00000   0.00001   0.00001   1.88366
   A99        1.89721   0.00000   0.00000   0.00000   0.00000   1.89722
   A100       1.89963   0.00000  -0.00000   0.00000   0.00000   1.89964
   A101       1.90054  -0.00000   0.00000  -0.00000  -0.00000   1.90054
   A102       1.92197  -0.00000   0.00000  -0.00000  -0.00000   1.92197
   A103       1.85885  -0.00000  -0.00000   0.00000   0.00000   1.85885
   A104       1.99727  -0.00000  -0.00000  -0.00000  -0.00000   1.99727
   A105       1.88265   0.00000  -0.00000  -0.00000  -0.00000   1.88265
   A106       1.91234  -0.00000   0.00000  -0.00000  -0.00000   1.91234
   A107       1.91489  -0.00000   0.00000  -0.00001  -0.00000   1.91489
   A108       1.84833   0.00000  -0.00000   0.00000   0.00000   1.84833
    D1       -0.01205  -0.00000  -0.00005   0.00002  -0.00004  -0.01209
    D2        3.12193  -0.00000  -0.00002  -0.00009  -0.00010   3.12183
    D3        3.13446  -0.00000  -0.00003  -0.00001  -0.00004   3.13442
    D4       -0.01474  -0.00000   0.00000  -0.00011  -0.00011  -0.01485
    D5        0.01114  -0.00000   0.00001  -0.00005  -0.00004   0.01110
    D6       -3.12819  -0.00000   0.00001  -0.00007  -0.00006  -3.12826
    D7       -3.13543  -0.00000  -0.00001  -0.00003  -0.00004  -3.13547
    D8        0.00842  -0.00000  -0.00001  -0.00005  -0.00006   0.00836
    D9        0.00208   0.00000   0.00007   0.00001   0.00008   0.00216
   D10       -3.09203   0.00000   0.00013  -0.00004   0.00009  -3.09194
   D11       -3.13206   0.00000   0.00003   0.00011   0.00015  -3.13191
   D12        0.05702   0.00000   0.00009   0.00006   0.00015   0.05717
   D13        0.29601   0.00000  -0.00010   0.00001  -0.00009   0.29592
   D14       -2.83919  -0.00000  -0.00016   0.00002  -0.00014  -2.83933
   D15       -2.85343  -0.00000  -0.00006  -0.00010  -0.00016  -2.85360
   D16        0.29456  -0.00000  -0.00012  -0.00009  -0.00021   0.29435
   D17        0.00858  -0.00000  -0.00004  -0.00001  -0.00005   0.00853
   D18       -3.12664  -0.00000  -0.00002  -0.00004  -0.00006  -3.12670
   D19        3.10300   0.00000  -0.00010   0.00004  -0.00005   3.10295
   D20       -0.03222  -0.00000  -0.00007   0.00001  -0.00006  -0.03228
   D21       -0.00972  -0.00000  -0.00001  -0.00002  -0.00003  -0.00975
   D22        3.13806   0.00000   0.00002  -0.00000   0.00001   3.13807
   D23        3.12656   0.00000  -0.00003   0.00001  -0.00002   3.12653
   D24       -0.00885   0.00000  -0.00000   0.00002   0.00002  -0.00883
   D25       -3.13871  -0.00000  -0.00002   0.00001  -0.00001  -3.13872
   D26        1.07927   0.00000  -0.00002   0.00003   0.00001   1.07927
   D27       -1.07210   0.00000  -0.00002   0.00002   0.00000  -1.07210
   D28        0.00874  -0.00000   0.00000  -0.00002  -0.00002   0.00872
   D29       -2.05647   0.00000   0.00000  -0.00000   0.00000  -2.05647
   D30        2.07535   0.00000   0.00001  -0.00001  -0.00001   2.07534
   D31       -0.00014   0.00000   0.00003   0.00005   0.00008  -0.00006
   D32        3.13917   0.00000   0.00002   0.00007   0.00010   3.13927
   D33        3.13363   0.00000  -0.00001   0.00003   0.00002   3.13366
   D34       -0.01024   0.00000  -0.00001   0.00005   0.00004  -0.01020
   D35        0.00499  -0.00000   0.00000  -0.00001  -0.00001   0.00498
   D36       -3.13735  -0.00000  -0.00001  -0.00000  -0.00001  -3.13736
   D37       -3.12943   0.00000   0.00003   0.00001   0.00004  -3.12939
   D38        0.01141   0.00000   0.00002   0.00002   0.00004   0.01146
   D39        3.13699   0.00000  -0.00001   0.00001   0.00001   3.13700
   D40       -0.00564   0.00000  -0.00000   0.00001   0.00001  -0.00563
   D41       -1.07950  -0.00000   0.00000  -0.00000   0.00000  -1.07950
   D42        2.06105   0.00000   0.00000  -0.00000   0.00000   2.06106
   D43        1.06936  -0.00000  -0.00000   0.00000   0.00000   1.06936
   D44       -2.07327  -0.00000   0.00000  -0.00000   0.00000  -2.07327
   D45        3.07375  -0.00000   0.00002  -0.00003  -0.00002   3.07373
   D46       -1.12382  -0.00000   0.00002  -0.00004  -0.00002  -1.12384
   D47        0.97475  -0.00000   0.00002  -0.00003  -0.00001   0.97473
   D48        1.11913   0.00000   0.00001  -0.00001   0.00000   1.11913
   D49       -3.07844   0.00000   0.00001  -0.00001  -0.00000  -3.07844
   D50       -0.97987   0.00000   0.00001  -0.00001   0.00000  -0.97987
   D51       -1.04353   0.00000   0.00001  -0.00002  -0.00001  -1.04354
   D52        1.04209  -0.00000   0.00001  -0.00002  -0.00001   1.04208
   D53        3.14065   0.00000   0.00001  -0.00002  -0.00000   3.14065
   D54        1.12431   0.00000   0.00000   0.00000   0.00000   1.12432
   D55       -3.07378   0.00000   0.00000   0.00000   0.00001  -3.07377
   D56       -0.97454   0.00000   0.00000   0.00000   0.00001  -0.97453
   D57        3.07978  -0.00000   0.00000   0.00000   0.00000   3.07979
   D58       -1.11831  -0.00000   0.00000   0.00000   0.00001  -1.11831
   D59        0.98093  -0.00000   0.00000   0.00000   0.00001   0.98094
   D60       -1.04135  -0.00000  -0.00000  -0.00000  -0.00000  -1.04136
   D61        1.04374  -0.00000   0.00000   0.00000   0.00000   1.04374
   D62       -3.14021  -0.00000   0.00000   0.00000   0.00000  -3.14021
   D63        3.14036   0.00000  -0.00001   0.00001   0.00000   3.14036
   D64       -0.00084   0.00000  -0.00000  -0.00000  -0.00000  -0.00084
   D65       -0.00011   0.00000  -0.00001   0.00001   0.00000  -0.00011
   D66       -3.14131  -0.00000  -0.00001   0.00000  -0.00001  -3.14131
   D67        0.00080  -0.00000   0.00000   0.00000   0.00000   0.00080
   D68       -3.14014  -0.00000   0.00001  -0.00001  -0.00000  -3.14014
   D69        3.14145  -0.00000   0.00000   0.00000   0.00000   3.14146
   D70        0.00052  -0.00000   0.00001  -0.00001  -0.00000   0.00052
   D71       -0.00020  -0.00000   0.00000  -0.00000   0.00000  -0.00020
   D72       -3.14153  -0.00000   0.00000  -0.00001  -0.00000  -3.14153
   D73        3.14099   0.00000  -0.00000   0.00001   0.00001   3.14100
   D74       -0.00033   0.00000  -0.00000   0.00000   0.00000  -0.00033
   D75        0.00012  -0.00000   0.00000  -0.00000  -0.00000   0.00012
   D76       -3.14145  -0.00000   0.00000  -0.00000  -0.00000  -3.14145
   D77        3.14145   0.00000   0.00001  -0.00000   0.00000   3.14145
   D78       -0.00012   0.00000   0.00000   0.00000   0.00000  -0.00012
   D79        0.00028   0.00000  -0.00001   0.00000  -0.00000   0.00028
   D80       -3.14156  -0.00000   0.00000  -0.00001  -0.00000  -3.14156
   D81       -3.14134   0.00000  -0.00000   0.00000   0.00000  -3.14134
   D82        0.00001  -0.00000   0.00001  -0.00001  -0.00000   0.00001
   D83       -3.14136  -0.00000   0.00001  -0.00001  -0.00001  -3.14137
   D84       -0.00060   0.00000  -0.00000   0.00000   0.00000  -0.00059
   D85        0.00047   0.00000  -0.00000   0.00000  -0.00000   0.00047
   D86        3.14124   0.00000  -0.00001   0.00002   0.00000   3.14124
   D87        3.10829  -0.00000  -0.00039   0.00002  -0.00036   3.10793
   D88        0.00672  -0.00000  -0.00028  -0.00020  -0.00048   0.00624
   D89       -0.03939  -0.00000  -0.00033   0.00001  -0.00032  -0.03971
   D90       -3.14096  -0.00000  -0.00022  -0.00021  -0.00044  -3.14140
   D91       -3.10780   0.00000   0.00039  -0.00001   0.00038  -3.10742
   D92        0.10531   0.00000   0.00043  -0.00006   0.00038   0.10568
   D93        0.03957   0.00000   0.00034   0.00000   0.00034   0.03991
   D94       -3.03051   0.00000   0.00038  -0.00004   0.00034  -3.03017
   D95        0.00161  -0.00000   0.00002  -0.00001   0.00001   0.00162
   D96       -3.10615  -0.00000   0.00011  -0.00017  -0.00007  -3.10622
   D97        3.10761   0.00000  -0.00007   0.00019   0.00012   3.10773
   D98       -0.00015   0.00000   0.00001   0.00003   0.00004  -0.00011
   D99        3.11248  -0.00000   0.00001  -0.00014  -0.00012   3.11236
   D100       0.00818  -0.00001   0.00011  -0.00035  -0.00024   0.00794
   D101       0.00021  -0.00000  -0.00002  -0.00002  -0.00004   0.00018
   D102      -3.07368  -0.00000   0.00003  -0.00006  -0.00003  -3.07371
   D103       3.07060   0.00000  -0.00007   0.00003  -0.00004   3.07057
   D104      -0.00329  -0.00000  -0.00002  -0.00001  -0.00003  -0.00332
   D105       0.03735   0.00000   0.00029  -0.00000   0.00029   0.03763
   D106      -3.11103   0.00000   0.00029   0.00003   0.00033  -3.11070
   D107       3.14108   0.00000   0.00019   0.00018   0.00037   3.14145
   D108      -0.00730   0.00000   0.00020   0.00021   0.00041  -0.00689
   D109      -0.00796   0.00001  -0.00013   0.00031   0.00018  -0.00778
   D110      -3.11428   0.00000  -0.00004   0.00014   0.00010  -3.11419
   D111      -0.03924  -0.00000  -0.00030   0.00001  -0.00028  -0.03952
   D112       3.10882  -0.00000  -0.00030  -0.00002  -0.00032   3.10850
   D113       3.03452  -0.00000  -0.00034   0.00006  -0.00028   3.03423
   D114      -0.10061  -0.00000  -0.00035   0.00003  -0.00032  -0.10094
   D115      -0.34473   0.00000  -0.00000   0.00020   0.00020  -0.34453
   D116       2.80894   0.00000   0.00001   0.00026   0.00027   2.80921
   D117       2.78975   0.00000   0.00000   0.00024   0.00024   2.78999
   D118      -0.33977   0.00000   0.00002   0.00029   0.00031  -0.33946
   D119      -0.01131   0.00001  -0.00016   0.00046   0.00030  -0.01101
   D120       0.01120  -0.00001   0.00017  -0.00045  -0.00028   0.01092
   D121      -3.11947   0.00000   0.00004   0.00004   0.00008  -3.11940
   D122       0.01344   0.00000   0.00001   0.00007   0.00008   0.01352
   D123       0.01050  -0.00000   0.00003  -0.00002   0.00001   0.01051
   D124      -3.13977   0.00000   0.00000   0.00001   0.00002  -3.13976
   D125       3.13063  -0.00000  -0.00005  -0.00007  -0.00011   3.13052
   D126      -0.05311  -0.00000  -0.00008  -0.00002  -0.00011  -0.05322
   D127       0.00039  -0.00000  -0.00003  -0.00001  -0.00005   0.00034
   D128       3.09983   0.00000  -0.00007   0.00003  -0.00004   3.09979
   D129      -0.01210   0.00000  -0.00000   0.00004   0.00004  -0.01206
   D130       3.12183   0.00000  -0.00000   0.00004   0.00004   3.12186
   D131       3.13825   0.00000   0.00002   0.00001   0.00003   3.13828
   D132      -0.01102   0.00000   0.00002   0.00001   0.00003  -0.01099
   D133      -0.01010   0.00000   0.00002   0.00003   0.00004  -0.01006
   D134       3.12981   0.00000   0.00003   0.00003   0.00006   3.12987
   D135      -3.11022  -0.00000   0.00005  -0.00002   0.00003  -3.11018
   D136       0.02969   0.00000   0.00007  -0.00001   0.00005   0.02974
   D137       0.00230  -0.00000  -0.00002  -0.00003  -0.00004   0.00225
   D138      -3.10260  -0.00000   0.00000  -0.00006  -0.00006  -3.10265
   D139      -3.13160  -0.00000  -0.00002  -0.00003  -0.00005  -3.13165
   D140       0.04669  -0.00000   0.00000  -0.00006  -0.00006   0.04663
   D141       0.00870  -0.00000   0.00001  -0.00001   0.00000   0.00870
   D142       3.11374   0.00000  -0.00001   0.00003   0.00002   3.11375
   D143      -3.13121  -0.00000  -0.00000  -0.00001  -0.00001  -3.13122
   D144      -0.02617   0.00000  -0.00002   0.00002   0.00000  -0.02617
   D145      -2.62506  -0.00000  -0.00010  -0.00007  -0.00017  -2.62523
   D146      -0.56975  -0.00000  -0.00009  -0.00008  -0.00017  -0.56991
   D147       1.54639  -0.00000  -0.00010  -0.00008  -0.00017   1.54622
   D148       0.55455  -0.00000  -0.00008  -0.00010  -0.00018   0.55437
   D149       2.60987  -0.00000  -0.00007  -0.00011  -0.00018   2.60968
   D150      -1.55719  -0.00000  -0.00008  -0.00011  -0.00018  -1.55737
   D151      -0.98280  -0.00000   0.00001  -0.00001   0.00000  -0.98280
   D152       1.03697   0.00000   0.00001  -0.00001   0.00000   1.03697
   D153       3.09791   0.00000   0.00001  -0.00001   0.00000   3.09791
   D154      -3.12255   0.00000   0.00001  -0.00001   0.00000  -3.12255
   D155      -1.10278   0.00000   0.00001  -0.00000   0.00000  -1.10278
   D156       0.95816   0.00000   0.00001  -0.00001   0.00000   0.95816
   D157       1.14336  -0.00000   0.00001  -0.00001  -0.00001   1.14335
   D158      -3.12006  -0.00000   0.00000  -0.00001  -0.00001  -3.12006
   D159      -1.05912  -0.00000   0.00001  -0.00001  -0.00001  -1.05913
   D160       1.19745   0.00000   0.00001  -0.00001  -0.00000   1.19745
   D161      -3.06349   0.00000   0.00001  -0.00001  -0.00000  -3.06349
   D162      -0.94881  -0.00000   0.00001  -0.00001  -0.00000  -0.94882
   D163       1.07343  -0.00000   0.00001  -0.00001  -0.00001   1.07343
   D164      -3.01380  -0.00000   0.00001  -0.00001  -0.00000  -3.01380
   D165      -0.99156  -0.00000   0.00001  -0.00001  -0.00000  -0.99156
         Item               Value     Threshold  Converged?
 Maximum Force            0.000049     0.000450     YES
 RMS     Force            0.000006     0.000300     YES
 Maximum Displacement     0.002928     0.001800     NO 
 RMS     Displacement     0.000640     0.001200     YES
 Predicted change in Energy=-2.954543D-08
 Lowest energy point so far.  Saving SCF results.
 GradGradGradGradGradGradGradGradGradGradGradGradGradGradGradGradGradGrad

 Leave Link  103 at Thu Mar 14 09:28:27 2024, MaxMem= 32212254720 cpu:               2.6 elap:               0.1
 (Enter /home/<user>/g16/l202.exe)
 Stoichiometry    C29H25N3S(3)
 Framework group  C1[X(C29H25N3S)]
 Deg. of freedom   168
 Full point group                 C1      NOp   1
 RotChk:  IX=0 Diff= 3.48D-04
 Largest Abelian subgroup         C1      NOp   1
 Largest concise Abelian subgroup C1      NOp   1
                         Standard orientation:                         
 ---------------------------------------------------------------------
 Center     Atomic      Atomic             Coordinates (Angstroms)
 Number     Number       Type             X           Y           Z
 ---------------------------------------------------------------------
      1          6           0       -2.480164    1.687094   -0.253245
      2          6           0       -1.780608    0.444522   -0.174830
      3          6           0       -2.568704   -0.741048   -0.035878
      4          6           0       -3.943792   -0.672831    0.016142
      5          6           0       -4.609600    0.572019   -0.077093
      6          6           0       -3.863490    1.750404   -0.212163
      7          1           0       -1.905129    2.597041   -0.351729
      8          1           0       -2.081804   -1.703882    0.074209
      9          1           0       -4.358392    2.715272   -0.287329
     10          6           0       -4.950827   -1.813307    0.178221
     11          6           0       -6.271885   -1.044580    0.150618
     12          6           0       -7.568180   -1.534891    0.250544
     13          6           0       -8.642732   -0.637976    0.201894
     14          6           0       -8.419312    0.736483    0.054786
     15          6           0       -7.121475    1.237331   -0.046161
     16          6           0       -6.047146    0.341885    0.001863
     17          1           0       -7.755236   -2.599974    0.365642
     18          1           0       -9.659944   -1.012331    0.279313
     19          1           0       -9.264732    1.418200    0.019059
     20          1           0       -6.951290    2.304703   -0.160242
     21          6           0       -4.757813   -2.549914    1.522906
     22          1           0       -5.527863   -3.318428    1.656810
     23          1           0       -3.780207   -3.044572    1.556663
     24          1           0       -4.818023   -1.854627    2.366130
     25          6           0       -4.859634   -2.818087   -0.991966
     26          1           0       -3.883776   -3.317393   -0.997990
     27          1           0       -5.631295   -3.591049   -0.899529
     28          1           0       -4.992498   -2.315665   -1.955368
     29          6           0       -0.340210    0.363072   -0.240540
     30          6           0        0.561927    1.475241   -0.040796
     31          6           0        0.308906   -0.904768   -0.533278
     32          6           0        2.019331    1.291728   -0.085011
     33          6           0        1.657257   -1.070767   -0.574465
     34          1           0       -0.313198   -1.751477   -0.796306
     35          6           0        2.605787   -0.002143   -0.330888
     36          1           0        2.041884   -2.041304   -0.864884
     37          7           0        0.194200    2.722749    0.236955
     38          7           0        2.703930    2.406635    0.160651
     39         16           0        1.591720    3.636214    0.423322
     40          6           0        4.032751   -0.270843   -0.353281
     41          6           0        5.004407    0.747494   -0.539424
     42          6           0        4.522290   -1.596183   -0.200552
     43          6           0        6.358600    0.447962   -0.580987
     44          1           0        4.675911    1.770842   -0.658126
     45          6           0        5.879304   -1.878047   -0.231617
     46          1           0        3.831251   -2.411357   -0.016320
     47          6           0        6.832029   -0.864936   -0.427854
     48          1           0        7.071364    1.253778   -0.743954
     49          1           0        6.212864   -2.905092   -0.099701
     50          6           0        8.309393   -1.173881   -0.424969
     51          1           0        8.496287   -2.181546   -0.813211
     52          1           0        8.835867   -0.473512   -1.088296
     53          6           0        8.931621   -1.084677    0.981443
     54          1           0        8.734616   -0.079532    1.395676
     55          1           0        8.423018   -1.798571    1.640746
     56          7           0       10.350110   -1.451970    0.929619
     57          1           0       10.869994   -0.736110    0.422460
     58          1           0       10.736958   -1.462873    1.872051
 ---------------------------------------------------------------------
 Rotational constants (GHZ):           0.3474110           0.0397745           0.0363427
 Leave Link  202 at Thu Mar 14 09:28:27 2024, MaxMem= 32212254720 cpu:               0.0 elap:               0.0
 (Enter /home/<user>/g16/l301.exe)
 Standard basis: 6-31G(d) (6D, 7F)
 Ernie: Thresh=  0.10000D-02 Tol=  0.10000D-05 Strict=F.
 There are   549 symmetry adapted cartesian basis functions of A   symmetry.
 There are   549 symmetry adapted basis functions of A   symmetry.
   549 basis functions,  1048 primitive gaussians,   549 cartesian basis functions
   119 alpha electrons      117 beta electrons
       nuclear repulsion energy      3072.8775585332 Hartrees.
 IExCor=  402 DFT=T Ex+Corr=B3LYP ExCW=0 ScaHFX=  0.200000
 ScaDFX=  0.800000  0.720000  1.000000  0.810000 ScalE2=  1.000000  1.000000
 IRadAn=      5 IRanWt=     -1 IRanGd=            0 ICorTp=0 IEmpDi=  4
 NAtoms=   58 NActive=   58 NUniq=   58 SFac= 1.00D+00 NAtFMM=   60 NAOKFM=F Big=F
 Integral buffers will be    131072 words long.
 Raffenetti 2 integral format.
 Two-electron integral symmetry is turned on.
 Leave Link  301 at Thu Mar 14 09:28:27 2024, MaxMem= 32212254720 cpu:               0.8 elap:               0.0
 (Enter /home/<user>/g16/l302.exe)
 NPDir=0 NMtPBC=     1 NCelOv=     1 NCel=       1 NClECP=     1 NCelD=      1
         NCelK=      1 NCelE2=     1 NClLst=     1 CellRange=     0.0.
 One-electron integrals computed using PRISM.
 One-electron integral symmetry used in STVInt
 NBasis=   549 RedAO= T EigKep=  2.74D-04  NBF=   549
 NBsUse=   549 1.00D-06 EigRej= -1.00D+00 NBFU=   549
 Precomputing XC quadrature grid using
 IXCGrd= 4 IRadAn=           5 IRanWt=          -1 IRanGd=           0 AccXCQ= 0.00D+00.
 Generated NRdTot=       0 NPtTot=           0 NUsed=           0 NTot=          32
 NSgBfM=   512   512   512   512   512 MxSgAt=    58 MxSgA2=    58.
 Leave Link  302 at Thu Mar 14 09:28:28 2024, MaxMem= 32212254720 cpu:              12.8 elap:               0.4
 (Enter /home/<user>/g16/l303.exe)
 DipDrv:  MaxL=1.
 Leave Link  303 at Thu Mar 14 09:28:28 2024, MaxMem= 32212254720 cpu:               1.3 elap:               0.1
 (Enter /home/<user>/g16/l401.exe)
 Initial guess from the checkpoint file:  "FBTP_T1opt.chk"
 B after Tr=    -0.000000    0.000000   -0.000000
         Rot=    1.000000   -0.000044   -0.000000   -0.000002 Ang=  -0.01 deg.
 Guess basis will be translated and rotated to current coordinates.
 JPrj=2 DoOrth=T DoCkMO=T.
 Initial guess <Sx>= 0.0000 <Sy>= 0.0000 <Sz>= 1.0000 <S**2>= 2.0367 S= 1.0122
 Leave Link  401 at Thu Mar 14 09:28:28 2024, MaxMem= 32212254720 cpu:              16.8 elap:               0.6
 (Enter /home/<user>/g16/l502.exe)
 Integral symmetry usage will be decided dynamically.
 UHF open shell SCF:
 Using DIIS extrapolation, IDIIS=  1040.
 NGot= 32212254720 LenX= 32211628124 LenY= 32211326174
 Requested convergence on RMS density matrix=1.00D-08 within 128 cycles.
 Requested convergence on MAX density matrix=1.00D-06.
 Requested convergence on             energy=1.00D-06.
 No special actions if energy rises.
 Fock matrices will be formed incrementally for  20 cycles.

 Cycle   1  Pass 1  IDiag  1:
 FoFJK:  IHMeth= 1 ICntrl=       0 DoSepK=F KAlg= 0 I1Cent=           0 FoldK=F
 IRaf= 550000000 NMat=       1 IRICut=       1 DoRegI=T DoRafI=F ISym2E= 0 IDoP0=0 IntGTp=1.
 FoFCou: FMM=F IPFlag=           0 FMFlag=      100000 FMFlg1=           0
         NFxFlg=           0 DoJE=F BraDBF=F KetDBF=F FulRan=T
         wScrn=  0.000000 ICntrl=         0 IOpCl=  1 I1Cent=           0 NGrid=           0
         NMat0=    1 NMatS0=      1 NMatT0=    0 NMatD0=    1 NMtDS0=    0 NMtDT0=    0
 Symmetry not used in FoFCou.
 E= -1682.54393403972    
 DIIS: error= 1.78D-05 at cycle   1 NSaved=   1.
 NSaved= 1 IEnMin= 1 EnMin= -1682.54393403972     IErMin= 1 ErrMin= 1.78D-05
 ErrMax= 1.78D-05  0.00D+00 EMaxC= 1.00D-01 BMatC= 1.72D-06 BMatP= 1.72D-06
 IDIUse=1 WtCom= 1.00D+00 WtEn= 0.00D+00
 Coeff-Com:  0.100D+01
 Coeff:      0.100D+01
 Gap=     1.902 Goal=   None    Shift=    0.000
 Gap=     1.983 Goal=   None    Shift=    0.000
 RMSDP=2.23D-06 MaxDP=7.03D-05              OVMax= 1.65D-04

 Cycle   2  Pass 1  IDiag  1:
 RMSU=  2.23D-06    CP:  1.00D+00
 E= -1682.54393495219     Delta-E=       -0.000000912472 Rises=F Damp=F
 DIIS: error= 2.67D-06 at cycle   2 NSaved=   2.
 NSaved= 2 IEnMin= 2 EnMin= -1682.54393495219     IErMin= 2 ErrMin= 2.67D-06
 ErrMax= 2.67D-06  0.00D+00 EMaxC= 1.00D-01 BMatC= 2.35D-08 BMatP= 1.72D-06
 IDIUse=1 WtCom= 1.00D+00 WtEn= 0.00D+00
 Coeff-Com: -0.767D-01 0.108D+01
 Coeff:     -0.767D-01 0.108D+01
 Gap=     0.092 Goal=   None    Shift=    0.000
 Gap=     0.080 Goal=   None    Shift=    0.000
 RMSDP=3.93D-07 MaxDP=1.62D-05 DE=-9.12D-07 OVMax= 5.12D-05

 Cycle   3  Pass 1  IDiag  1:
 RMSU=  3.50D-07    CP:  1.00D+00  1.08D+00
 E= -1682.54393496102     Delta-E=       -0.000000008830 Rises=F Damp=F
 DIIS: error= 2.55D-06 at cycle   3 NSaved=   3.
 NSaved= 3 IEnMin= 3 EnMin= -1682.54393496102     IErMin= 3 ErrMin= 2.55D-06
 ErrMax= 2.55D-06  0.00D+00 EMaxC= 1.00D-01 BMatC= 1.91D-08 BMatP= 2.35D-08
 IDIUse=1 WtCom= 1.00D+00 WtEn= 0.00D+00
 Coeff-Com: -0.474D-01 0.583D+00 0.465D+00
 Coeff:     -0.474D-01 0.583D+00 0.465D+00
 Gap=     0.092 Goal=   None    Shift=    0.000
 Gap=     0.080 Goal=   None    Shift=    0.000
 RMSDP=2.12D-07 MaxDP=1.37D-05 DE=-8.83D-09 OVMax= 4.33D-05

 Cycle   4  Pass 1  IDiag  1:
 RMSU=  1.49D-07    CP:  1.00D+00  1.09D+00  5.76D-01
 E= -1682.54393496531     Delta-E=       -0.000000004292 Rises=F Damp=F
 DIIS: error= 9.87D-07 at cycle   4 NSaved=   4.
 NSaved= 4 IEnMin= 4 EnMin= -1682.54393496531     IErMin= 4 ErrMin= 9.87D-07
 ErrMax= 9.87D-07  0.00D+00 EMaxC= 1.00D-01 BMatC= 2.63D-09 BMatP= 1.91D-08
 IDIUse=1 WtCom= 1.00D+00 WtEn= 0.00D+00
 Coeff-Com: -0.122D-01 0.131D+00 0.276D+00 0.606D+00
 Coeff:     -0.122D-01 0.131D+00 0.276D+00 0.606D+00
 Gap=     0.092 Goal=   None    Shift=    0.000
 Gap=     0.080 Goal=   None    Shift=    0.000
 RMSDP=8.31D-08 MaxDP=7.14D-06 DE=-4.29D-09 OVMax= 2.42D-05

 Cycle   5  Pass 1  IDiag  1:
 RMSU=  5.74D-08    CP:  1.00D+00  1.09D+00  6.75D-01  6.75D-01
 E= -1682.54393496589     Delta-E=       -0.000000000582 Rises=F Damp=F
 DIIS: error= 4.35D-07 at cycle   5 NSaved=   5.
 NSaved= 5 IEnMin= 5 EnMin= -1682.54393496589     IErMin= 5 ErrMin= 4.35D-07
 ErrMax= 4.35D-07  0.00D+00 EMaxC= 1.00D-01 BMatC= 4.24D-10 BMatP= 2.63D-09
 IDIUse=1 WtCom= 1.00D+00 WtEn= 0.00D+00
 Coeff-Com: -0.191D-02 0.104D-01 0.110D+00 0.364D+00 0.518D+00
 Coeff:     -0.191D-02 0.104D-01 0.110D+00 0.364D+00 0.518D+00
 Gap=     0.092 Goal=   None    Shift=    0.000
 Gap=     0.080 Goal=   None    Shift=    0.000
 RMSDP=3.42D-08 MaxDP=2.24D-06 DE=-5.82D-10 OVMax= 7.55D-06

 Cycle   6  Pass 1  IDiag  1:
 RMSU=  2.25D-08    CP:  1.00D+00  1.09D+00  6.88D-01  7.58D-01  6.15D-01
 E= -1682.54393496595     Delta-E=       -0.000000000054 Rises=F Damp=F
 DIIS: error= 2.18D-07 at cycle   6 NSaved=   6.
 NSaved= 6 IEnMin= 6 EnMin= -1682.54393496595     IErMin= 6 ErrMin= 2.18D-07
 ErrMax= 2.18D-07  0.00D+00 EMaxC= 1.00D-01 BMatC= 1.03D-10 BMatP= 4.24D-10
 IDIUse=1 WtCom= 1.00D+00 WtEn= 0.00D+00
 Coeff-Com:  0.133D-02-0.218D-01 0.177D-01 0.124D+00 0.355D+00 0.523D+00
 Coeff:      0.133D-02-0.218D-01 0.177D-01 0.124D+00 0.355D+00 0.523D+00
 Gap=     0.092 Goal=   None    Shift=    0.000
 Gap=     0.080 Goal=   None    Shift=    0.000
 RMSDP=1.50D-08 MaxDP=1.23D-06 DE=-5.37D-11 OVMax= 2.94D-06

 Cycle   7  Pass 1  IDiag  1:
 RMSU=  9.37D-09    CP:  1.00D+00  1.09D+00  6.93D-01  7.71D-01  7.16D-01
                    CP:  5.62D-01
 E= -1682.54393496605     Delta-E=       -0.000000000108 Rises=F Damp=F
 DIIS: error= 8.21D-08 at cycle   7 NSaved=   7.
 NSaved= 7 IEnMin= 7 EnMin= -1682.54393496605     IErMin= 7 ErrMin= 8.21D-08
 ErrMax= 8.21D-08  0.00D+00 EMaxC= 1.00D-01 BMatC= 1.23D-11 BMatP= 1.03D-10
 IDIUse=1 WtCom= 1.00D+00 WtEn= 0.00D+00
 Coeff-Com:  0.103D-02-0.146D-01-0.289D-02 0.300D-01 0.149D+00 0.319D+00
 Coeff-Com:  0.518D+00
 Coeff:      0.103D-02-0.146D-01-0.289D-02 0.300D-01 0.149D+00 0.319D+00
 Coeff:      0.518D+00
 Gap=     0.092 Goal=   None    Shift=    0.000
 Gap=     0.080 Goal=   None    Shift=    0.000
 RMSDP=5.30D-09 MaxDP=4.30D-07 DE=-1.08D-10 OVMax= 1.05D-06

 SCF Done:  E(UB3LYP) =  -1682.54393497     A.U. after    7 cycles
            NFock=  7  Conv=0.53D-08     -V/T= 2.0082
 <Sx>= 0.0000 <Sy>= 0.0000 <Sz>= 1.0000 <S**2>= 2.0367 S= 1.0122
 <L.S>= 0.000000000000E+00
 KE= 1.668880127003D+03 PE=-1.006772415794D+04 EE= 3.643422537434D+03
 Annihilation of the first spin contaminant:
 S**2 before annihilation     2.0367,   after     2.0009
 Leave Link  502 at Thu Mar 14 09:28:49 2024, MaxMem= 32212254720 cpu:             607.5 elap:              20.3
 (Enter /home/<user>/g16/l701.exe)
 ... and contract with generalized density number  0.
 Compute integral first derivatives.
 Leave Link  701 at Thu Mar 14 09:28:49 2024, MaxMem= 32212254720 cpu:               5.0 elap:               0.2
 (Enter /home/<user>/g16/l702.exe)
 L702 exits ... SP integral derivatives will be done elsewhere.
 Leave Link  702 at Thu Mar 14 09:28:49 2024, MaxMem= 32212254720 cpu:               0.7 elap:               0.0
 (Enter /home/<user>/g16/l703.exe)
 Integral derivatives from FoFJK, PRISM(SPDF).
 Compute integral first derivatives, UseDBF=F ICtDFT=           0.
 Calling FoFJK, ICntrl=      2127 FMM=F ISym2X=0 I1Cent= 0 IOpClX= 1 NMat=1 NMatS=1 NMatT=0.
 FoFJK:  IHMeth= 1 ICntrl=    2127 DoSepK=F KAlg= 0 I1Cent=           0 FoldK=F
 IRaf=         0 NMat=       1 IRICut=       1 DoRegI=T DoRafI=F ISym2E= 0 IDoP0=0 IntGTp=1.
 FoFCou: FMM=F IPFlag=           0 FMFlag=      100000 FMFlg1=         800
         NFxFlg=           0 DoJE=F BraDBF=F KetDBF=F FulRan=T
         wScrn=  0.000000 ICntrl=      2127 IOpCl=  1 I1Cent=           0 NGrid=           0
         NMat0=    1 NMatS0=      1 NMatT0=    0 NMatD0=    1 NMtDS0=    0 NMtDT0=    0
 Symmetry not used in FoFCou.
 Leave Link  703 at Thu Mar 14 09:28:55 2024, MaxMem= 32212254720 cpu:             191.9 elap:               6.4
 (Enter /home/<user>/g16/l716.exe)
 Dipole        =-4.66421277D-01-9.83993904D-01 5.13556256D-02
 ***** Axes restored to original set *****
 -------------------------------------------------------------------
 Center     Atomic                   Forces (Hartrees/Bohr)
 Number     Number              X              Y              Z
 -------------------------------------------------------------------
      1        6           0.000008358    0.000001409   -0.000000843
      2        6          -0.000024358    0.000000213    0.000002258
      3        6           0.000012937    0.000000961    0.000000969
      4        6          -0.000007364    0.000004654    0.000000029
      5        6           0.000004768   -0.000000401    0.000001113
      6        6          -0.000005212   -0.000000762   -0.000000855
      7        1          -0.000001047   -0.000001259    0.000001231
      8        1          -0.000003424    0.000001691   -0.000000753
      9        1           0.000001657    0.000000330    0.000001519
     10        6           0.000000698   -0.000001599   -0.000000677
     11        6           0.000000860    0.000001211   -0.000000342
     12        6          -0.000000208   -0.000000208    0.000000051
     13        6           0.000000123    0.000000278   -0.000000024
     14        6          -0.000001156   -0.000000567    0.000000403
     15        6           0.000002214    0.000000317    0.000000359
     16        6          -0.000003257   -0.000003308    0.000000640
     17        1           0.000000343   -0.000000064   -0.000000096
     18        1           0.000000031    0.000000011    0.000000220
     19        1           0.000000282    0.000000233    0.000000386
     20        1          -0.000000335    0.000000042    0.000000226
     21        6           0.000000353    0.000000684    0.000000328
     22        1          -0.000000048   -0.000000421   -0.000000438
     23        1           0.000000069   -0.000000365   -0.000000010
     24        1           0.000000165   -0.000000571   -0.000000258
     25        6          -0.000000190    0.000000603    0.000000690
     26        1          -0.000000013   -0.000000095   -0.000000431
     27        1          -0.000000010   -0.000000098   -0.000000368
     28        1          -0.000000009   -0.000000049   -0.000000229
     29        6           0.000032380   -0.000031821   -0.000005396
     30        6          -0.000005763    0.000018039   -0.000000783
     31        6          -0.000020565    0.000022485    0.000000115
     32        6           0.000009470    0.000020433    0.000000323
     33        6           0.000019494    0.000013501   -0.000000182
     34        1           0.000008030   -0.000003726    0.000000523
     35        6          -0.000025877   -0.000020303   -0.000001998
     36        1          -0.000009876   -0.000001296   -0.000000457
     37        7          -0.000018553   -0.000016404    0.000007531
     38        7           0.000013316   -0.000022992    0.000005378
     39       16           0.000001936    0.000018024   -0.000007771
     40        6           0.000008356   -0.000003618   -0.000000021
     41        6           0.000000955    0.000005684   -0.000000704
     42        6          -0.000006218    0.000001566    0.000000720
     43        6           0.000000352    0.000000347    0.000000427
     44        1          -0.000000044   -0.000001216    0.000000873
     45        6           0.000004894    0.000001192   -0.000001821
     46        1           0.000004626    0.000000410   -0.000000793
     47        6          -0.000001558   -0.000003067    0.000000646
     48        1          -0.000001089    0.000000714    0.000000615
     49        1          -0.000000088   -0.000000156    0.000000205
     50        6          -0.000000593   -0.000000475   -0.000000288
     51        1          -0.000000402    0.000000313    0.000000124
     52        1          -0.000000110   -0.000000294   -0.000000661
     53        6           0.000000649    0.000000316   -0.000000472
     54        1           0.000000093   -0.000000124    0.000000036
     55        1          -0.000000156   -0.000000264   -0.000000423
     56        7           0.000000134    0.000000095   -0.000000091
     57        1          -0.000000018   -0.000000085   -0.000000372
     58        1          -0.000000004   -0.000000143   -0.000000380
 -------------------------------------------------------------------
 Cartesian Forces:  Max     0.000032380 RMS     0.000007098
 Leave Link  716 at Thu Mar 14 09:28:56 2024, MaxMem= 32212254720 cpu:               0.7 elap:               0.0
 (Enter /home/<user>/g16/l103.exe)

 GradGradGradGradGradGradGradGradGradGradGradGradGradGradGradGradGradGrad
 Berny optimization.
 Using GEDIIS/GDIIS optimizer.
 FormGI is forming the generalized inverse of G from B-inverse, IUseBI=4.
 GSVD:  received Info=                   1 from GESDD.
 Internal  Forces:  Max     0.000023889 RMS     0.000003194
 Search for a local minimum.
 Step number  12 out of a maximum of  346
 All quantities printed in internal units (Hartrees-Bohrs-Radians)
 RMS Force = .31941D-05 SwitMx=.10000D-02 MixMth= 2
 Mixed Optimization -- En-DIIS/RFO-DIIS
 Swapping is turned off.
 Update second derivatives using D2CorX and points    3    4    5    6    7
                                                      8    9   10   11   12
 DE= -3.63D-08 DEPred=-2.95D-08 R= 1.23D+00
 Trust test= 1.23D+00 RLast= 1.79D-03 DXMaxT set to 8.49D-01
 ITU=  0  0  0  1  1  1  1  1  1  1  1  0
     Eigenvalues ---    0.00230   0.00230   0.00250   0.00442   0.00647
     Eigenvalues ---    0.00741   0.00757   0.00811   0.01037   0.01255
     Eigenvalues ---    0.01457   0.01472   0.01605   0.01636   0.01645
     Eigenvalues ---    0.01662   0.01714   0.01730   0.01782   0.01835
     Eigenvalues ---    0.01863   0.01882   0.02002   0.02034   0.02041
     Eigenvalues ---    0.02060   0.02074   0.02090   0.02091   0.02093
     Eigenvalues ---    0.02095   0.02112   0.02119   0.02126   0.02129
     Eigenvalues ---    0.02134   0.02141   0.02146   0.02147   0.02151
     Eigenvalues ---    0.02161   0.02162   0.02172   0.03891   0.04048
     Eigenvalues ---    0.04278   0.04389   0.04469   0.05425   0.05428
     Eigenvalues ---    0.05433   0.05500   0.05500   0.05559   0.05992
     Eigenvalues ---    0.08022   0.08961   0.09276   0.11598   0.12605
     Eigenvalues ---    0.12824   0.15112   0.15371   0.15971   0.15971
     Eigenvalues ---    0.16000   0.16000   0.16000   0.16000   0.16000
     Eigenvalues ---    0.16000   0.16000   0.16000   0.16000   0.16000
     Eigenvalues ---    0.16000   0.16002   0.16004   0.16010   0.16017
     Eigenvalues ---    0.16052   0.16114   0.18929   0.20226   0.21875
     Eigenvalues ---    0.21955   0.22002   0.22088   0.22468   0.22487
     Eigenvalues ---    0.22624   0.22970   0.23496   0.23776   0.24392
     Eigenvalues ---    0.24558   0.24880   0.24972   0.24984   0.24996
     Eigenvalues ---    0.25231   0.25556   0.26947   0.28066   0.28083
     Eigenvalues ---    0.28515   0.28612   0.29015   0.31182   0.32480
     Eigenvalues ---    0.33128   0.33784   0.34008   0.34030   0.34091
     Eigenvalues ---    0.34100   0.34104   0.34106   0.34132   0.34277
     Eigenvalues ---    0.34289   0.34635   0.34889   0.35034   0.35050
     Eigenvalues ---    0.35084   0.35151   0.35160   0.35163   0.35187
     Eigenvalues ---    0.35189   0.35248   0.35267   0.35428   0.35506
     Eigenvalues ---    0.36141   0.36519   0.36861   0.37539   0.38342
     Eigenvalues ---    0.40258   0.40819   0.41516   0.41630   0.42092
     Eigenvalues ---    0.42491   0.42918   0.44073   0.44262   0.44365
     Eigenvalues ---    0.44523   0.44567   0.44804   0.44890   0.45053
     Eigenvalues ---    0.45795   0.45979   0.46081   0.46125   0.46747
     Eigenvalues ---    0.46916   0.47191   0.47425   0.49013   0.54492
     Eigenvalues ---    0.56765   0.63109   0.67692
 En-DIIS/RFO-DIIS/Sim-DIIS IScMMF=       -3 using points:    12   11   10    9    8    7    6    5    4    3
 RFO step:  Lambda=-1.02325872D-08.
 NNeg= 0 NGDIIS=10 SimSw=  2.50D-01 Rises=F DC= -3.63D-08 SmlDif=  1.00D-05
 NRisDI= 0 DoIntr=F SqrtH=F CThrHd= 10.0 CDAdj=  3.0
 RMS Error=  0.3252701128D-04 NUsed=10 OKEnD=F EnDIS=F
 InvSVX:  RCond= 1.61D-08 Info=           0 Equed=N FErr=  1.46D-13 BErr=  9.20D-17
 DIIS inversion failure, remove point  10.
 InvSVX:  RCond= 3.32D-08 Info=           0 Equed=N FErr=  1.10D-13 BErr=  9.82D-17
 DIIS inversion failure, remove point   9.
 InvSVX:  RCond= 2.59D-08 Info=           0 Equed=N FErr=  5.42D-14 BErr=  7.39D-17
 DIIS inversion failure, remove point   8.
 InvSVX:  RCond= 3.18D-08 Info=           0 Equed=N FErr=  4.28D-14 BErr=  5.00D-17
 DIIS inversion failure, remove point   7.
 InvSVX:  RCond= 3.73D-08 Info=           0 Equed=N FErr=  3.90D-14 BErr=  6.47D-17
 DIIS inversion failure, remove point   6.
 InvSVX:  RCond= 5.12D-08 Info=           0 Equed=N FErr=  3.31D-14 BErr=  1.04D-16
 DIIS inversion failure, remove point   5.
 InvSVX:  RCond= 6.87D-08 Info=           0 Equed=N FErr=  2.30D-14 BErr=  8.63D-17
 DIIS inversion failure, remove point   4.
 InvSVX:  RCond= 1.31D-07 Info=           0 Equed=N FErr=  4.44D-15 BErr=  7.49D-17
 RFO-DIIS uses    3 points instead of   10
 DidBck=F Rises=F RFO-DIIS coefs:    0.95566    0.14148   -0.09714    0.00000    0.00000
                  RFO-DIIS coefs:    0.00000    0.00000    0.00000    0.00000    0.00000
 Iteration  1 RMS(Cart)=  0.00010878 RMS(Int)=  0.00000000
 Iteration  2 RMS(Cart)=  0.00000001 RMS(Int)=  0.00000000
 ITry= 1 IFail=0 DXMaxC= 5.92D-04 DCOld= 1.00D+10 DXMaxT= 8.49D-01 DXLimC= 3.00D+00 Rises=F
 Variable       Old X    -DE/DX   Delta X   Delta X   Delta X     New X
                                 (Linear)    (Quad)   (Total)
    R1        2.69875  -0.00000  -0.00000  -0.00001  -0.00001   2.69873
    R2        2.61800   0.00000   0.00000   0.00001   0.00001   2.61800
    R3        2.04263  -0.00000   0.00000  -0.00001  -0.00000   2.04262
    R4        2.70302  -0.00001   0.00000  -0.00002  -0.00002   2.70300
    R5        2.72913   0.00001  -0.00001   0.00005   0.00004   2.72917
    R6        2.60359   0.00000   0.00000   0.00001   0.00001   2.60360
    R7        2.04950  -0.00000   0.00000  -0.00001  -0.00000   2.04949
    R8        2.67358  -0.00000   0.00000  -0.00001  -0.00001   2.67357
    R9        2.89139  -0.00000  -0.00000  -0.00000  -0.00000   2.89139
   R10        2.64799  -0.00000  -0.00000  -0.00000  -0.00000   2.64798
   R11        2.75520   0.00000   0.00000   0.00001   0.00001   2.75521
   R12        2.05411  -0.00000   0.00000  -0.00000  -0.00000   2.05411
   R13        2.88881  -0.00000   0.00000  -0.00000  -0.00000   2.88881
   R14        2.92024   0.00000   0.00000   0.00000   0.00000   2.92024
   R15        2.91976  -0.00000  -0.00000  -0.00000  -0.00000   2.91975
   R16        2.62582  -0.00000   0.00000  -0.00000   0.00000   2.62582
   R17        2.66908  -0.00000  -0.00000  -0.00000  -0.00000   2.66908
   R18        2.64662   0.00000  -0.00000   0.00000   0.00000   2.64662
   R19        2.05506  -0.00000   0.00000  -0.00000  -0.00000   2.05506
   R20        2.64608  -0.00000  -0.00000  -0.00000  -0.00000   2.64608
   R21        2.05351  -0.00000   0.00000  -0.00000  -0.00000   2.05351
   R22        2.63576   0.00000   0.00000   0.00000   0.00000   2.63576
   R23        2.05342  -0.00000   0.00000  -0.00000  -0.00000   2.05342
   R24        2.64448  -0.00000  -0.00000  -0.00000  -0.00000   2.64447
   R25        2.05386   0.00000   0.00000   0.00000   0.00000   2.05386
   R26        2.07140   0.00000  -0.00000   0.00000   0.00000   2.07140
   R27        2.07142   0.00000  -0.00000   0.00000   0.00000   2.07142
   R28        2.06843  -0.00000   0.00000  -0.00000  -0.00000   2.06843
   R29        2.07151   0.00000  -0.00000   0.00000  -0.00000   2.07151
   R30        2.07136   0.00000  -0.00000   0.00000   0.00000   2.07136
   R31        2.06856   0.00000   0.00000   0.00000   0.00000   2.06856
   R32        2.73238   0.00000  -0.00001   0.00001   0.00001   2.73239
   R33        2.74789  -0.00002   0.00002  -0.00007  -0.00005   2.74784
   R34        2.77710   0.00000   0.00000   0.00002   0.00002   2.77712
   R35        2.51315  -0.00001  -0.00000  -0.00001  -0.00002   2.51314
   R36        2.56843  -0.00000  -0.00000   0.00000   0.00000   2.56843
   R37        2.04677  -0.00000   0.00000  -0.00000  -0.00000   2.04677
   R38        2.72441   0.00001  -0.00001   0.00002   0.00001   2.72442
   R39        2.51557  -0.00001  -0.00000  -0.00002  -0.00002   2.51555
   R40        2.73912  -0.00002   0.00001  -0.00005  -0.00004   2.73909
   R41        2.04774  -0.00000  -0.00000  -0.00000  -0.00000   2.04773
   R42        2.74429   0.00001  -0.00000   0.00002   0.00002   2.74431
   R43        3.17464   0.00002   0.00001   0.00006   0.00007   3.17470
   R44        3.17219   0.00002   0.00001   0.00006   0.00007   3.17226
   R45        2.68299   0.00000  -0.00000   0.00000   0.00000   2.68300
   R46        2.68547  -0.00000   0.00000  -0.00001  -0.00001   2.68546
   R47        2.62208  -0.00000   0.00000   0.00000   0.00000   2.62208
   R48        2.04339  -0.00000   0.00000  -0.00000  -0.00000   2.04339
   R49        2.61978   0.00000  -0.00000   0.00001   0.00001   2.61978
   R50        2.04927  -0.00000   0.00000  -0.00000  -0.00000   2.04927
   R51        2.65322   0.00000  -0.00000   0.00000   0.00000   2.65323
   R52        2.05618  -0.00000   0.00000  -0.00000  -0.00000   2.05618
   R53        2.65410  -0.00000   0.00000  -0.00001  -0.00001   2.65409
   R54        2.05580   0.00000  -0.00000   0.00000   0.00000   2.05580
   R55        2.85221  -0.00000   0.00000  -0.00000  -0.00000   2.85221
   R56        2.07100  -0.00000  -0.00000  -0.00000  -0.00000   2.07100
   R57        2.07672   0.00000   0.00000  -0.00000   0.00000   2.07672
   R58        2.91111   0.00000  -0.00000   0.00000  -0.00000   2.91111
   R59        2.08788   0.00000   0.00000   0.00000   0.00000   2.08788
   R60        2.07268   0.00000  -0.00000   0.00000   0.00000   2.07268
   R61        2.77069  -0.00000   0.00000  -0.00000  -0.00000   2.77069
   R62        1.92710   0.00000   0.00000   0.00000   0.00000   1.92710
   R63        1.92525  -0.00000   0.00000  -0.00000  -0.00000   1.92525
    A1        2.12616  -0.00000   0.00000  -0.00001  -0.00000   2.12616
    A2        2.06789   0.00000  -0.00000   0.00001   0.00001   2.06789
    A3        2.08913   0.00000  -0.00000  -0.00000  -0.00000   2.08913
    A4        2.04498   0.00000  -0.00000   0.00002   0.00001   2.04499
    A5        2.13546  -0.00001   0.00000  -0.00002  -0.00001   2.13544
    A6        2.10272   0.00000   0.00000  -0.00000   0.00000   2.10273
    A7        2.10893  -0.00000   0.00000  -0.00001  -0.00001   2.10892
    A8        2.09248   0.00000  -0.00000   0.00003   0.00002   2.09250
    A9        2.08082  -0.00000  -0.00000  -0.00001  -0.00001   2.08080
   A10        2.10687   0.00000   0.00000   0.00000   0.00000   2.10688
   A11        2.24463  -0.00000   0.00000  -0.00001  -0.00001   2.24462
   A12        1.93167   0.00000  -0.00000   0.00001   0.00001   1.93168
   A13        2.08945   0.00000  -0.00000   0.00000   0.00000   2.08945
   A14        1.89817  -0.00000   0.00000  -0.00001  -0.00001   1.89816
   A15        2.29555   0.00000   0.00000   0.00000   0.00000   2.29556
   A16        2.08989  -0.00000  -0.00000  -0.00001  -0.00001   2.08989
   A17        2.08648  -0.00000   0.00000  -0.00001  -0.00001   2.08647
   A18        2.10681   0.00000  -0.00000   0.00002   0.00001   2.10682
   A19        1.76403  -0.00000   0.00000  -0.00001  -0.00001   1.76402
   A20        1.94472  -0.00000   0.00000  -0.00000  -0.00000   1.94472
   A21        1.94514   0.00000  -0.00000   0.00001   0.00001   1.94514
   A22        1.94266   0.00000  -0.00000  -0.00000  -0.00000   1.94265
   A23        1.94373   0.00000   0.00000   0.00000   0.00000   1.94374
   A24        1.91950  -0.00000  -0.00000   0.00000   0.00000   1.91950
   A25        2.24908   0.00000  -0.00000  -0.00000  -0.00000   2.24907
   A26        1.93695  -0.00000   0.00000   0.00000   0.00000   1.93695
   A27        2.09716  -0.00000   0.00000  -0.00000  -0.00000   2.09716
   A28        2.07978  -0.00000  -0.00000  -0.00000  -0.00000   2.07978
   A29        2.11025  -0.00000   0.00000  -0.00000  -0.00000   2.11025
   A30        2.09315   0.00000  -0.00000   0.00000   0.00000   2.09315
   A31        2.10580  -0.00000  -0.00000   0.00000   0.00000   2.10580
   A32        2.08876   0.00000   0.00000   0.00000   0.00000   2.08876
   A33        2.08863  -0.00000   0.00000  -0.00000  -0.00000   2.08862
   A34        2.10429  -0.00000   0.00000  -0.00000  -0.00000   2.10429
   A35        2.08878   0.00000  -0.00000   0.00000   0.00000   2.08879
   A36        2.09011  -0.00000   0.00000  -0.00000  -0.00000   2.09011
   A37        2.07384  -0.00000   0.00000  -0.00000  -0.00000   2.07384
   A38        2.10127  -0.00000  -0.00000  -0.00000  -0.00000   2.10127
   A39        2.10807   0.00000  -0.00000   0.00000   0.00000   2.10808
   A40        1.89392   0.00000  -0.00000   0.00000  -0.00000   1.89392
   A41        2.28377  -0.00000   0.00000  -0.00001  -0.00000   2.28376
   A42        2.10549   0.00000  -0.00000   0.00000   0.00000   2.10550
   A43        1.93131  -0.00000   0.00000  -0.00000  -0.00000   1.93130
   A44        1.93189   0.00000  -0.00000   0.00000   0.00000   1.93189
   A45        1.93981   0.00000  -0.00000   0.00000   0.00000   1.93981
   A46        1.88219  -0.00000  -0.00000  -0.00000  -0.00000   1.88219
   A47        1.88873   0.00000  -0.00000   0.00000   0.00000   1.88873
   A48        1.88808  -0.00000   0.00000   0.00000   0.00000   1.88808
   A49        1.93148   0.00000  -0.00000   0.00000   0.00000   1.93148
   A50        1.93175   0.00000  -0.00000   0.00000   0.00000   1.93175
   A51        1.94005   0.00000  -0.00000   0.00000   0.00000   1.94005
   A52        1.88175  -0.00000   0.00000  -0.00000  -0.00000   1.88175
   A53        1.88839  -0.00000   0.00000  -0.00000  -0.00000   1.88839
   A54        1.88856  -0.00000   0.00000  -0.00000  -0.00000   1.88856
   A55        2.18049  -0.00001   0.00002  -0.00003  -0.00001   2.18048
   A56        2.09851   0.00000  -0.00001   0.00000  -0.00001   2.09850
   A57        2.00417   0.00001  -0.00001   0.00003   0.00002   2.00419
   A58        2.11594  -0.00001   0.00000  -0.00002  -0.00002   2.11593
   A59        2.18690  -0.00000  -0.00000   0.00000  -0.00000   2.18689
   A60        1.97974   0.00001   0.00000   0.00002   0.00002   1.97976
   A61        2.15969   0.00000   0.00000  -0.00000  -0.00000   2.15968
   A62        2.06473   0.00001  -0.00002   0.00006   0.00005   2.06477
   A63        2.05666  -0.00001   0.00001  -0.00006  -0.00004   2.05661
   A64        2.11837  -0.00001   0.00001  -0.00002  -0.00002   2.11835
   A65        1.98218   0.00001   0.00000   0.00002   0.00002   1.98220
   A66        2.18209  -0.00000  -0.00001   0.00000  -0.00001   2.18209
   A67        2.15802   0.00000   0.00000   0.00000   0.00000   2.15803
   A68        2.05968  -0.00001   0.00001  -0.00006  -0.00005   2.05963
   A69        2.06357   0.00001  -0.00001   0.00006   0.00005   2.06362
   A70        2.00878   0.00000  -0.00001   0.00002   0.00001   2.00879
   A71        2.17535  -0.00001   0.00001  -0.00002  -0.00001   2.17534
   A72        2.09903   0.00001   0.00000  -0.00000   0.00000   2.09904
   A73        1.87885  -0.00001   0.00000  -0.00002  -0.00002   1.87883
   A74        1.87718  -0.00001  -0.00000  -0.00002  -0.00002   1.87716
   A75        1.70675   0.00000  -0.00000   0.00000   0.00000   1.70675
   A76        2.14335  -0.00001  -0.00001  -0.00001  -0.00002   2.14334
   A77        2.10528   0.00001   0.00001   0.00000   0.00001   2.10529
   A78        2.03450  -0.00000  -0.00000   0.00001   0.00000   2.03450
   A79        2.11416  -0.00000   0.00000  -0.00000   0.00000   2.11416
   A80        2.07749  -0.00000  -0.00000   0.00000   0.00000   2.07749
   A81        2.09151   0.00000  -0.00000  -0.00000  -0.00000   2.09151
   A82        2.12281  -0.00000   0.00000  -0.00000  -0.00000   2.12281
   A83        2.09417   0.00000   0.00000   0.00002   0.00002   2.09419
   A84        2.06546  -0.00000  -0.00000  -0.00002  -0.00002   2.06544
   A85        2.12667   0.00000  -0.00000  -0.00000  -0.00000   2.12666
   A86        2.07594  -0.00000   0.00000  -0.00001  -0.00001   2.07593
   A87        2.08055   0.00000  -0.00000   0.00001   0.00001   2.08057
   A88        2.11820   0.00000   0.00000   0.00000   0.00000   2.11820
   A89        2.08215  -0.00000  -0.00000  -0.00001  -0.00001   2.08215
   A90        2.08283  -0.00000  -0.00000   0.00000   0.00000   2.08283
   A91        2.04995   0.00000  -0.00000  -0.00000  -0.00000   2.04994
   A92        2.11960   0.00000  -0.00000   0.00000   0.00000   2.11960
   A93        2.11304  -0.00000   0.00000  -0.00000  -0.00000   2.11304
   A94        1.93313  -0.00000   0.00000  -0.00000  -0.00000   1.93312
   A95        1.91487  -0.00000   0.00000  -0.00000  -0.00000   1.91486
   A96        1.96628   0.00000  -0.00000   0.00000   0.00000   1.96628
   A97        1.86550   0.00000   0.00000  -0.00000  -0.00000   1.86550
   A98        1.88366   0.00000  -0.00000   0.00000   0.00000   1.88366
   A99        1.89722  -0.00000  -0.00000   0.00000   0.00000   1.89722
   A100       1.89964   0.00000  -0.00000   0.00000   0.00000   1.89964
   A101       1.90054  -0.00000   0.00000  -0.00000  -0.00000   1.90054
   A102       1.92197   0.00000   0.00000   0.00000   0.00000   1.92197
   A103       1.85885   0.00000  -0.00000  -0.00000  -0.00000   1.85885
   A104       1.99727  -0.00000  -0.00000  -0.00000  -0.00000   1.99727
   A105       1.88265   0.00000  -0.00000   0.00000   0.00000   1.88265
   A106       1.91234   0.00000   0.00000   0.00000   0.00000   1.91234
   A107       1.91489  -0.00000   0.00000  -0.00000  -0.00000   1.91489
   A108       1.84833   0.00000  -0.00000   0.00000   0.00000   1.84833
    D1       -0.01209  -0.00000  -0.00001  -0.00001  -0.00002  -0.01212
    D2        3.12183   0.00000  -0.00000  -0.00001  -0.00002   3.12181
    D3        3.13442  -0.00000  -0.00001  -0.00003  -0.00003   3.13439
    D4       -0.01485  -0.00000  -0.00000  -0.00003  -0.00003  -0.01487
    D5        0.01110   0.00000   0.00000  -0.00001  -0.00000   0.01110
    D6       -3.12826  -0.00000   0.00000  -0.00003  -0.00002  -3.12828
    D7       -3.13547   0.00000  -0.00000   0.00001   0.00000  -3.13546
    D8        0.00836  -0.00000  -0.00000  -0.00001  -0.00001   0.00835
    D9        0.00216   0.00000   0.00001   0.00002   0.00003   0.00220
   D10       -3.09194   0.00000   0.00002   0.00000   0.00003  -3.09191
   D11       -3.13191  -0.00000   0.00001   0.00002   0.00003  -3.13188
   D12        0.05717  -0.00000   0.00002   0.00000   0.00002   0.05719
   D13        0.29592   0.00000  -0.00002   0.00007   0.00005   0.29596
   D14       -2.83933   0.00000  -0.00003   0.00005   0.00003  -2.83930
   D15       -2.85360   0.00000  -0.00001   0.00007   0.00005  -2.85354
   D16        0.29435   0.00000  -0.00002   0.00005   0.00003   0.29438
   D17        0.00853  -0.00000  -0.00001  -0.00001  -0.00002   0.00852
   D18       -3.12670  -0.00000  -0.00000  -0.00001  -0.00001  -3.12671
   D19        3.10295   0.00000  -0.00002   0.00001  -0.00001   3.10294
   D20       -0.03228   0.00000  -0.00001   0.00001  -0.00000  -0.03228
   D21       -0.00975  -0.00000  -0.00000  -0.00001  -0.00001  -0.00976
   D22        3.13807  -0.00000   0.00000  -0.00002  -0.00001   3.13806
   D23        3.12653  -0.00000  -0.00000  -0.00001  -0.00002   3.12652
   D24       -0.00883  -0.00000   0.00000  -0.00002  -0.00002  -0.00885
   D25       -3.13872   0.00000  -0.00000   0.00002   0.00001  -3.13870
   D26        1.07927   0.00000  -0.00000   0.00002   0.00002   1.07929
   D27       -1.07210   0.00000  -0.00000   0.00002   0.00002  -1.07208
   D28        0.00872   0.00000  -0.00000   0.00002   0.00002   0.00874
   D29       -2.05647   0.00000  -0.00000   0.00003   0.00002  -2.05645
   D30        2.07534   0.00000   0.00000   0.00002   0.00002   2.07536
   D31       -0.00006   0.00000   0.00000   0.00002   0.00002  -0.00004
   D32        3.13927   0.00000   0.00000   0.00004   0.00004   3.13931
   D33        3.13366   0.00000  -0.00000   0.00003   0.00002   3.13368
   D34       -0.01020   0.00000  -0.00000   0.00005   0.00004  -0.01016
   D35        0.00498   0.00000  -0.00000   0.00001   0.00001   0.00498
   D36       -3.13736   0.00000  -0.00000   0.00002   0.00001  -3.13735
   D37       -3.12939   0.00000   0.00001   0.00000   0.00001  -3.12938
   D38        0.01146   0.00000   0.00000   0.00001   0.00001   0.01147
   D39        3.13700   0.00000  -0.00000  -0.00001  -0.00001   3.13699
   D40       -0.00563  -0.00000   0.00000  -0.00001  -0.00001  -0.00565
   D41       -1.07950  -0.00000   0.00000  -0.00002  -0.00002  -1.07951
   D42        2.06106  -0.00000   0.00000  -0.00002  -0.00002   2.06104
   D43        1.06936  -0.00000   0.00000  -0.00002  -0.00001   1.06935
   D44       -2.07327  -0.00000   0.00000  -0.00002  -0.00002  -2.07329
   D45        3.07373  -0.00000   0.00000  -0.00001  -0.00000   3.07373
   D46       -1.12384  -0.00000   0.00000  -0.00001  -0.00001  -1.12384
   D47        0.97473  -0.00000   0.00000  -0.00001  -0.00000   0.97473
   D48        1.11913   0.00000   0.00000   0.00000   0.00000   1.11913
   D49       -3.07844   0.00000   0.00000   0.00000   0.00000  -3.07844
   D50       -0.97987   0.00000   0.00000   0.00000   0.00001  -0.97986
   D51       -1.04354   0.00000   0.00000  -0.00000   0.00000  -1.04354
   D52        1.04208   0.00000   0.00000  -0.00000  -0.00000   1.04208
   D53        3.14065   0.00000   0.00000  -0.00000   0.00000   3.14065
   D54        1.12432   0.00000  -0.00000   0.00000   0.00000   1.12432
   D55       -3.07377   0.00000  -0.00000   0.00000   0.00000  -3.07377
   D56       -0.97453   0.00000  -0.00000   0.00000   0.00000  -0.97453
   D57        3.07979  -0.00000   0.00000   0.00000   0.00000   3.07979
   D58       -1.11831  -0.00000   0.00000   0.00000   0.00000  -1.11830
   D59        0.98094  -0.00000   0.00000   0.00000   0.00000   0.98094
   D60       -1.04136   0.00000  -0.00000   0.00000   0.00000  -1.04136
   D61        1.04374   0.00000  -0.00000   0.00000   0.00000   1.04374
   D62       -3.14021   0.00000  -0.00000   0.00000   0.00000  -3.14021
   D63        3.14036   0.00000  -0.00000   0.00000  -0.00000   3.14036
   D64       -0.00084   0.00000  -0.00000  -0.00000  -0.00000  -0.00084
   D65       -0.00011   0.00000  -0.00000   0.00000   0.00000  -0.00011
   D66       -3.14131   0.00000  -0.00000   0.00000   0.00000  -3.14131
   D67        0.00080  -0.00000   0.00000   0.00000   0.00000   0.00080
   D68       -3.14014  -0.00000   0.00000  -0.00000  -0.00000  -3.14014
   D69        3.14146  -0.00000   0.00000   0.00000   0.00000   3.14146
   D70        0.00052  -0.00000   0.00000  -0.00001  -0.00000   0.00051
   D71       -0.00020  -0.00000   0.00000  -0.00000   0.00000  -0.00020
   D72       -3.14153   0.00000   0.00000  -0.00000   0.00000  -3.14153
   D73        3.14100   0.00000  -0.00000   0.00000   0.00000   3.14100
   D74       -0.00033   0.00000  -0.00000   0.00000   0.00000  -0.00033
   D75        0.00012  -0.00000   0.00000  -0.00000  -0.00000   0.00012
   D76       -3.14145  -0.00000   0.00000  -0.00000  -0.00000  -3.14145
   D77        3.14145  -0.00000   0.00000  -0.00000  -0.00000   3.14145
   D78       -0.00012  -0.00000   0.00000  -0.00000  -0.00000  -0.00012
   D79        0.00028   0.00000  -0.00000   0.00000  -0.00000   0.00028
   D80       -3.14156  -0.00000   0.00000  -0.00001  -0.00000  -3.14156
   D81       -3.14134  -0.00000  -0.00000   0.00000  -0.00000  -3.14134
   D82        0.00001  -0.00000   0.00000  -0.00001  -0.00000   0.00000
   D83       -3.14137   0.00000   0.00000  -0.00000  -0.00000  -3.14137
   D84       -0.00059   0.00000  -0.00000   0.00000   0.00000  -0.00059
   D85        0.00047   0.00000  -0.00000   0.00000   0.00000   0.00047
   D86        3.14124   0.00000  -0.00000   0.00001   0.00001   3.14125
   D87        3.10793  -0.00000  -0.00007   0.00001  -0.00007   3.10786
   D88        0.00624  -0.00000  -0.00005   0.00000  -0.00004   0.00619
   D89       -0.03971  -0.00000  -0.00007   0.00002  -0.00005  -0.03975
   D90       -3.14140   0.00000  -0.00004   0.00002  -0.00002  -3.14142
   D91       -3.10742   0.00000   0.00007  -0.00001   0.00007  -3.10736
   D92        0.10568   0.00000   0.00008  -0.00006   0.00002   0.10570
   D93        0.03991   0.00000   0.00006  -0.00002   0.00005   0.03995
   D94       -3.03017  -0.00000   0.00007  -0.00007  -0.00000  -3.03017
   D95        0.00162   0.00000   0.00001  -0.00000   0.00000   0.00163
   D96       -3.10622   0.00000   0.00001   0.00000   0.00001  -3.10620
   D97        3.10773  -0.00000  -0.00002  -0.00000  -0.00002   3.10771
   D98       -0.00011  -0.00000  -0.00001   0.00000  -0.00001  -0.00012
   D99        3.11236   0.00000   0.00002   0.00006   0.00007   3.11243
   D100       0.00794   0.00000   0.00004   0.00006   0.00010   0.00804
   D101       0.00018   0.00000   0.00000   0.00000   0.00001   0.00018
   D102      -3.07371  -0.00000   0.00001  -0.00005  -0.00004  -3.07375
   D103       3.07057   0.00000  -0.00001   0.00006   0.00005   3.07062
   D104      -0.00332   0.00000   0.00000   0.00001   0.00001  -0.00331
   D105       0.03763   0.00000   0.00006  -0.00001   0.00005   0.03768
   D106      -3.11070   0.00000   0.00004   0.00002   0.00006  -3.11064
   D107       3.14145   0.00000   0.00005  -0.00002   0.00003   3.14148
   D108      -0.00689   0.00000   0.00004   0.00001   0.00005  -0.00684
   D109      -0.00778  -0.00000  -0.00003  -0.00006  -0.00009  -0.00787
   D110      -3.11419  -0.00000  -0.00002  -0.00005  -0.00007  -3.11426
   D111      -0.03952  -0.00000  -0.00006   0.00001  -0.00005  -0.03957
   D112       3.10850  -0.00000  -0.00005  -0.00002  -0.00007   3.10843
   D113       3.03423  -0.00000  -0.00007   0.00006  -0.00001   3.03422
   D114      -0.10094  -0.00000  -0.00006   0.00004  -0.00003  -0.10096
   D115      -0.34453   0.00000   0.00001   0.00007   0.00008  -0.34445
   D116       2.80921  -0.00000  -0.00000   0.00006   0.00006   2.80926
   D117       2.78999   0.00000  -0.00000   0.00010   0.00010   2.79008
   D118      -0.33946  -0.00000  -0.00001   0.00009   0.00007  -0.33939
   D119      -0.01101  -0.00001  -0.00005  -0.00008  -0.00013  -0.01114
   D120       0.01092   0.00001   0.00004   0.00008   0.00013   0.01105
   D121      -3.11940  -0.00000   0.00000  -0.00001  -0.00000  -3.11940
   D122       0.01352  -0.00000  -0.00000   0.00001   0.00001   0.01353
   D123       0.01051   0.00000   0.00001   0.00000   0.00002   0.01053
   D124      -3.13976   0.00000   0.00001   0.00002   0.00003  -3.13973
   D125       3.13052   0.00000  -0.00000  -0.00001  -0.00001   3.13051
   D126      -0.05322   0.00000  -0.00001   0.00001  -0.00000  -0.05322
   D127       0.00034  -0.00000  -0.00001  -0.00001  -0.00003   0.00031
   D128       3.09979  -0.00000  -0.00002   0.00000  -0.00002   3.09977
   D129      -0.01206  -0.00000  -0.00001   0.00001   0.00001  -0.01205
   D130       3.12186   0.00000  -0.00000   0.00002   0.00001   3.12188
   D131       3.13828  -0.00000  -0.00000  -0.00000  -0.00000   3.13827
   D132      -0.01099  -0.00000   0.00000   0.00000   0.00000  -0.01098
   D133      -0.01006   0.00000   0.00000   0.00001   0.00002  -0.01004
   D134       3.12987  -0.00000   0.00001   0.00001   0.00001   3.12988
   D135      -3.11018   0.00000   0.00001  -0.00000   0.00001  -3.11017
   D136       0.02974  -0.00000   0.00002  -0.00001   0.00001   0.02975
   D137       0.00225  -0.00000  -0.00001  -0.00002  -0.00002   0.00223
   D138      -3.10265  -0.00000   0.00000  -0.00003  -0.00002  -3.10268
   D139      -3.13165  -0.00000  -0.00001  -0.00002  -0.00003  -3.13168
   D140       0.04663  -0.00000   0.00000  -0.00003  -0.00003   0.04660
   D141       0.00870   0.00000   0.00001   0.00000   0.00001   0.00871
   D142       3.11375   0.00000  -0.00000   0.00001   0.00001   3.11377
   D143      -3.13122   0.00000   0.00000   0.00001   0.00001  -3.13121
   D144      -0.02617   0.00000  -0.00000   0.00002   0.00002  -0.02615
   D145      -2.62523  -0.00000  -0.00002  -0.00008  -0.00010  -2.62533
   D146      -0.56991  -0.00000  -0.00002  -0.00009  -0.00010  -0.57002
   D147       1.54622  -0.00000  -0.00002  -0.00008  -0.00010   1.54611
   D148       0.55437  -0.00000  -0.00001  -0.00009  -0.00010   0.55426
   D149       2.60968  -0.00000  -0.00001  -0.00010  -0.00011   2.60958
   D150      -1.55737  -0.00000  -0.00001  -0.00010  -0.00011  -1.55748
   D151      -0.98280  -0.00000   0.00000   0.00000   0.00000  -0.98280
   D152       1.03697  -0.00000   0.00000   0.00000   0.00000   1.03697
   D153       3.09791   0.00000   0.00000   0.00000   0.00000   3.09791
   D154      -3.12255   0.00000   0.00000   0.00000   0.00001  -3.12255
   D155      -1.10278  -0.00000   0.00000   0.00000   0.00001  -1.10277
   D156       0.95816   0.00000   0.00000   0.00000   0.00001   0.95816
   D157       1.14335   0.00000   0.00000   0.00000   0.00000   1.14335
   D158      -3.12006  -0.00000   0.00000   0.00000   0.00000  -3.12006
   D159      -1.05913   0.00000   0.00000   0.00000   0.00000  -1.05912
   D160       1.19745   0.00000   0.00000  -0.00001  -0.00001   1.19744
   D161      -3.06349   0.00000   0.00000  -0.00001  -0.00001  -3.06350
   D162      -0.94882  -0.00000   0.00000  -0.00001  -0.00001  -0.94883
   D163       1.07343  -0.00000   0.00000  -0.00001  -0.00001   1.07342
   D164      -3.01380  -0.00000   0.00000  -0.00001  -0.00001  -3.01381
   D165      -0.99156  -0.00000   0.00000  -0.00001  -0.00001  -0.99157
         Item               Value     Threshold  Converged?
 Maximum Force            0.000024     0.000450     YES
 RMS     Force            0.000003     0.000300     YES
 Maximum Displacement     0.000592     0.001800     YES
 RMS     Displacement     0.000109     0.001200     YES
 Predicted change in Energy=-7.282603D-09
 Optimization completed.
    -- Stationary point found.
                           ----------------------------
                           !   Optimized Parameters   !
                           ! (Angstroms and Degrees)  !
 --------------------------                            --------------------------
 ! Name  Definition              Value          Derivative Info.                !
 --------------------------------------------------------------------------------
 ! R1    R(1,2)                  1.4281         -DE/DX =    0.0                 !
 ! R2    R(1,6)                  1.3854         -DE/DX =    0.0                 !
 ! R3    R(1,7)                  1.0809         -DE/DX =    0.0                 !
 ! R4    R(2,3)                  1.4304         -DE/DX =    0.0                 !
 ! R5    R(2,29)                 1.4442         -DE/DX =    0.0                 !
 ! R6    R(3,4)                  1.3778         -DE/DX =    0.0                 !
 ! R7    R(3,8)                  1.0845         -DE/DX =    0.0                 !
 ! R8    R(4,5)                  1.4148         -DE/DX =    0.0                 !
 ! R9    R(4,10)                 1.5301         -DE/DX =    0.0                 !
 ! R10   R(5,6)                  1.4013         -DE/DX =    0.0                 !
 ! R11   R(5,16)                 1.458          -DE/DX =    0.0                 !
 ! R12   R(6,9)                  1.087          -DE/DX =    0.0                 !
 ! R13   R(10,11)                1.5287         -DE/DX =    0.0                 !
 ! R14   R(10,21)                1.5453         -DE/DX =    0.0                 !
 ! R15   R(10,25)                1.5451         -DE/DX =    0.0                 !
 ! R16   R(11,12)                1.3895         -DE/DX =    0.0                 !
 ! R17   R(11,16)                1.4124         -DE/DX =    0.0                 !
 ! R18   R(12,13)                1.4005         -DE/DX =    0.0                 !
 ! R19   R(12,17)                1.0875         -DE/DX =    0.0                 !
 ! R20   R(13,14)                1.4002         -DE/DX =    0.0                 !
 ! R21   R(13,18)                1.0867         -DE/DX =    0.0                 !
 ! R22   R(14,15)                1.3948         -DE/DX =    0.0                 !
 ! R23   R(14,19)                1.0866         -DE/DX =    0.0                 !
 ! R24   R(15,16)                1.3994         -DE/DX =    0.0                 !
 ! R25   R(15,20)                1.0869         -DE/DX =    0.0                 !
 ! R26   R(21,22)                1.0961         -DE/DX =    0.0                 !
 ! R27   R(21,23)                1.0961         -DE/DX =    0.0                 !
 ! R28   R(21,24)                1.0946         -DE/DX =    0.0                 !
 ! R29   R(25,26)                1.0962         -DE/DX =    0.0                 !
 ! R30   R(25,27)                1.0961         -DE/DX =    0.0                 !
 ! R31   R(25,28)                1.0946         -DE/DX =    0.0                 !
 ! R32   R(29,30)                1.4459         -DE/DX =    0.0                 !
 ! R33   R(29,31)                1.4541         -DE/DX =    0.0                 !
 ! R34   R(30,32)                1.4696         -DE/DX =    0.0                 !
 ! R35   R(30,37)                1.3299         -DE/DX =    0.0                 !
 ! R36   R(31,33)                1.3592         -DE/DX =    0.0                 !
 ! R37   R(31,34)                1.0831         -DE/DX =    0.0                 !
 ! R38   R(32,35)                1.4417         -DE/DX =    0.0                 !
 ! R39   R(32,38)                1.3312         -DE/DX =    0.0                 !
 ! R40   R(33,35)                1.4495         -DE/DX =    0.0                 !
 ! R41   R(33,36)                1.0836         -DE/DX =    0.0                 !
 ! R42   R(35,40)                1.4522         -DE/DX =    0.0                 !
 ! R43   R(37,39)                1.6799         -DE/DX =    0.0                 !
 ! R44   R(38,39)                1.6787         -DE/DX =    0.0                 !
 ! R45   R(40,41)                1.4198         -DE/DX =    0.0                 !
 ! R46   R(40,42)                1.4211         -DE/DX =    0.0                 !
 ! R47   R(41,43)                1.3875         -DE/DX =    0.0                 !
 ! R48   R(41,44)                1.0813         -DE/DX =    0.0                 !
 ! R49   R(42,45)                1.3863         -DE/DX =    0.0                 !
 ! R50   R(42,46)                1.0844         -DE/DX =    0.0                 !
 ! R51   R(43,47)                1.404          -DE/DX =    0.0                 !
 ! R52   R(43,48)                1.0881         -DE/DX =    0.0                 !
 ! R53   R(45,47)                1.4045         -DE/DX =    0.0                 !
 ! R54   R(45,49)                1.0879         -DE/DX =    0.0                 !
 ! R55   R(47,50)                1.5093         -DE/DX =    0.0                 !
 ! R56   R(50,51)                1.0959         -DE/DX =    0.0                 !
 ! R57   R(50,52)                1.099          -DE/DX =    0.0                 !
 ! R58   R(50,53)                1.5405         -DE/DX =    0.0                 !
 ! R59   R(53,54)                1.1049         -DE/DX =    0.0                 !
 ! R60   R(53,55)                1.0968         -DE/DX =    0.0                 !
 ! R61   R(53,56)                1.4662         -DE/DX =    0.0                 !
 ! R62   R(56,57)                1.0198         -DE/DX =    0.0                 !
 ! R63   R(56,58)                1.0188         -DE/DX =    0.0                 !
 ! A1    A(2,1,6)              121.82           -DE/DX =    0.0                 !
 ! A2    A(2,1,7)              118.4812         -DE/DX =    0.0                 !
 ! A3    A(6,1,7)              119.6983         -DE/DX =    0.0                 !
 ! A4    A(1,2,3)              117.1685         -DE/DX =    0.0                 !
 ! A5    A(1,2,29)             122.3528         -DE/DX =    0.0                 !
 ! A6    A(3,2,29)             120.4772         -DE/DX =    0.0                 !
 ! A7    A(2,3,4)              120.8326         -DE/DX =    0.0                 !
 ! A8    A(2,3,8)              119.8902         -DE/DX =    0.0                 !
 ! A9    A(4,3,8)              119.2221         -DE/DX =    0.0                 !
 ! A10   A(3,4,5)              120.715          -DE/DX =    0.0                 !
 ! A11   A(3,4,10)             128.6077         -DE/DX =    0.0                 !
 ! A12   A(5,4,10)             110.6765         -DE/DX =    0.0                 !
 ! A13   A(4,5,6)              119.7166         -DE/DX =    0.0                 !
 ! A14   A(4,5,16)             108.7568         -DE/DX =    0.0                 !
 ! A15   A(6,5,16)             131.5253         -DE/DX =    0.0                 !
 ! A16   A(1,6,5)              119.7421         -DE/DX =    0.0                 !
 ! A17   A(1,6,9)              119.5467         -DE/DX =    0.0                 !
 ! A18   A(5,6,9)              120.7111         -DE/DX =    0.0                 !
 ! A19   A(4,10,11)            101.0715         -DE/DX =    0.0                 !
 ! A20   A(4,10,21)            111.4242         -DE/DX =    0.0                 !
 ! A21   A(4,10,25)            111.448          -DE/DX =    0.0                 !
 ! A22   A(11,10,21)           111.3061         -DE/DX =    0.0                 !
 ! A23   A(11,10,25)           111.3677         -DE/DX =    0.0                 !
 ! A24   A(21,10,25)           109.9792         -DE/DX =    0.0                 !
 ! A25   A(10,11,12)           128.8625         -DE/DX =    0.0                 !
 ! A26   A(10,11,16)           110.9788         -DE/DX =    0.0                 !
 ! A27   A(12,11,16)           120.1586         -DE/DX =    0.0                 !
 ! A28   A(11,12,13)           119.1629         -DE/DX =    0.0                 !
 ! A29   A(11,12,17)           120.9086         -DE/DX =    0.0                 !
 ! A30   A(13,12,17)           119.9286         -DE/DX =    0.0                 !
 ! A31   A(12,13,14)           120.6536         -DE/DX =    0.0                 !
 ! A32   A(12,13,18)           119.677          -DE/DX =    0.0                 !
 ! A33   A(14,13,18)           119.6694         -DE/DX =    0.0                 !
 ! A34   A(13,14,15)           120.5669         -DE/DX =    0.0                 !
 ! A35   A(13,14,19)           119.6785         -DE/DX =    0.0                 !
 ! A36   A(15,14,19)           119.7547         -DE/DX =    0.0                 !
 ! A37   A(14,15,16)           118.8221         -DE/DX =    0.0                 !
 ! A38   A(14,15,20)           120.3942         -DE/DX =    0.0                 !
 ! A39   A(16,15,20)           120.7837         -DE/DX =    0.0                 !
 ! A40   A(5,16,11)            108.5138         -DE/DX =    0.0                 !
 ! A41   A(5,16,15)            130.8502         -DE/DX =    0.0                 !
 ! A42   A(11,16,15)           120.636          -DE/DX =    0.0                 !
 ! A43   A(10,21,22)           110.6557         -DE/DX =    0.0                 !
 ! A44   A(10,21,23)           110.6892         -DE/DX =    0.0                 !
 ! A45   A(10,21,24)           111.1427         -DE/DX =    0.0                 !
 ! A46   A(22,21,23)           107.8417         -DE/DX =    0.0                 !
 ! A47   A(22,21,24)           108.2162         -DE/DX =    0.0                 !
 ! A48   A(23,21,24)           108.1791         -DE/DX =    0.0                 !
 ! A49   A(10,25,26)           110.6658         -DE/DX =    0.0                 !
 ! A50   A(10,25,27)           110.6812         -DE/DX =    0.0                 !
 ! A51   A(10,25,28)           111.1568         -DE/DX =    0.0                 !
 ! A52   A(26,25,27)           107.8166         -DE/DX =    0.0                 !
 ! A53   A(26,25,28)           108.1968         -DE/DX =    0.0                 !
 ! A54   A(27,25,28)           108.2064         -DE/DX =    0.0                 !
 ! A55   A(2,29,30)            124.9328         -DE/DX =    0.0                 !
 ! A56   A(2,29,31)            120.2357         -DE/DX =    0.0                 !
 ! A57   A(30,29,31)           114.8307         -DE/DX =    0.0                 !
 ! A58   A(29,30,32)           121.2347         -DE/DX =    0.0                 !
 ! A59   A(29,30,37)           125.3            -DE/DX =    0.0                 !
 ! A60   A(32,30,37)           113.4306         -DE/DX =    0.0                 !
 ! A61   A(29,31,33)           123.7409         -DE/DX =    0.0                 !
 ! A62   A(29,31,34)           118.3            -DE/DX =    0.0                 !
 ! A63   A(33,31,34)           117.8378         -DE/DX =    0.0                 !
 ! A64   A(30,32,35)           121.3735         -DE/DX =    0.0                 !
 ! A65   A(30,32,38)           113.5707         -DE/DX =    0.0                 !
 ! A66   A(35,32,38)           125.0247         -DE/DX =    0.0                 !
 ! A67   A(31,33,35)           123.6457         -DE/DX =    0.0                 !
 ! A68   A(31,33,36)           118.0107         -DE/DX =    0.0                 !
 ! A69   A(35,33,36)           118.234          -DE/DX =    0.0                 !
 ! A70   A(32,35,33)           115.0947         -DE/DX =    0.0                 !
 ! A71   A(32,35,40)           124.6383         -DE/DX =    0.0                 !
 ! A72   A(33,35,40)           120.2658         -DE/DX =    0.0                 !
 ! A73   A(30,37,39)           107.6503         -DE/DX =    0.0                 !
 ! A74   A(32,38,39)           107.5544         -DE/DX =    0.0                 !
 ! A75   A(37,39,38)            97.7894         -DE/DX =    0.0                 !
 ! A76   A(35,40,41)           122.805          -DE/DX =    0.0                 !
 ! A77   A(35,40,42)           120.6235         -DE/DX =    0.0                 !
 ! A78   A(41,40,42)           116.568          -DE/DX =    0.0                 !
 ! A79   A(40,41,43)           121.1322         -DE/DX =    0.0                 !
 ! A80   A(40,41,44)           119.0311         -DE/DX =    0.0                 !
 ! A81   A(43,41,44)           119.8349         -DE/DX =    0.0                 !
 ! A82   A(40,42,45)           121.6283         -DE/DX =    0.0                 !
 ! A83   A(40,42,46)           119.9869         -DE/DX =    0.0                 !
 ! A84   A(45,42,46)           118.3422         -DE/DX =    0.0                 !
 ! A85   A(41,43,47)           121.849          -DE/DX =    0.0                 !
 ! A86   A(41,43,48)           118.9426         -DE/DX =    0.0                 !
 ! A87   A(47,43,48)           119.207          -DE/DX =    0.0                 !
 ! A88   A(42,45,47)           121.3639         -DE/DX =    0.0                 !
 ! A89   A(42,45,49)           119.2987         -DE/DX =    0.0                 !
 ! A90   A(47,45,49)           119.3374         -DE/DX =    0.0                 !
 ! A91   A(43,47,45)           117.4533         -DE/DX =    0.0                 !
 ! A92   A(43,47,50)           121.4442         -DE/DX =    0.0                 !
 ! A93   A(45,47,50)           121.0684         -DE/DX =    0.0                 !
 ! A94   A(47,50,51)           110.76           -DE/DX =    0.0                 !
 ! A95   A(47,50,52)           109.7137         -DE/DX =    0.0                 !
 ! A96   A(47,50,53)           112.6595         -DE/DX =    0.0                 !
 ! A97   A(51,50,52)           106.885          -DE/DX =    0.0                 !
 ! A98   A(51,50,53)           107.9259         -DE/DX =    0.0                 !
 ! A99   A(52,50,53)           108.7026         -DE/DX =    0.0                 !
 ! A100  A(50,53,54)           108.8411         -DE/DX =    0.0                 !
 ! A101  A(50,53,55)           108.8928         -DE/DX =    0.0                 !
 ! A102  A(50,53,56)           110.1207         -DE/DX =    0.0                 !
 ! A103  A(54,53,55)           106.5043         -DE/DX =    0.0                 !
 ! A104  A(54,53,56)           114.435          -DE/DX =    0.0                 !
 ! A105  A(55,53,56)           107.8677         -DE/DX =    0.0                 !
 ! A106  A(53,56,57)           109.5691         -DE/DX =    0.0                 !
 ! A107  A(53,56,58)           109.715          -DE/DX =    0.0                 !
 ! A108  A(57,56,58)           105.9014         -DE/DX =    0.0                 !
 ! D1    D(6,1,2,3)             -0.6928         -DE/DX =    0.0                 !
 ! D2    D(6,1,2,29)           178.8676         -DE/DX =    0.0                 !
 ! D3    D(7,1,2,3)            179.5889         -DE/DX =    0.0                 !
 ! D4    D(7,1,2,29)            -0.8507         -DE/DX =    0.0                 !
 ! D5    D(2,1,6,5)              0.636          -DE/DX =    0.0                 !
 ! D6    D(2,1,6,9)           -179.2359         -DE/DX =    0.0                 !
 ! D7    D(7,1,6,5)           -179.649          -DE/DX =    0.0                 !
 ! D8    D(7,1,6,9)              0.479          -DE/DX =    0.0                 !
 ! D9    D(1,2,3,4)              0.124          -DE/DX =    0.0                 !
 ! D10   D(1,2,3,8)           -177.1551         -DE/DX =    0.0                 !
 ! D11   D(29,2,3,4)          -179.4452         -DE/DX =    0.0                 !
 ! D12   D(29,2,3,8)             3.2758         -DE/DX =    0.0                 !
 ! D13   D(1,2,29,30)           16.9547         -DE/DX =    0.0                 !
 ! D14   D(1,2,29,31)         -162.6814         -DE/DX =    0.0                 !
 ! D15   D(3,2,29,30)         -163.499          -DE/DX =    0.0                 !
 ! D16   D(3,2,29,31)           16.8649         -DE/DX =    0.0                 !
 ! D17   D(2,3,4,5)              0.4889         -DE/DX =    0.0                 !
 ! D18   D(2,3,4,10)          -179.1466         -DE/DX =    0.0                 !
 ! D19   D(8,3,4,5)            177.7858         -DE/DX =    0.0                 !
 ! D20   D(8,3,4,10)            -1.8496         -DE/DX =    0.0                 !
 ! D21   D(3,4,5,6)             -0.5584         -DE/DX =    0.0                 !
 ! D22   D(3,4,5,16)           179.7984         -DE/DX =    0.0                 !
 ! D23   D(10,4,5,6)           179.1371         -DE/DX =    0.0                 !
 ! D24   D(10,4,5,16)           -0.5061         -DE/DX =    0.0                 !
 ! D25   D(3,4,10,11)         -179.8353         -DE/DX =    0.0                 !
 ! D26   D(3,4,10,21)           61.8378         -DE/DX =    0.0                 !
 ! D27   D(3,4,10,25)          -61.4266         -DE/DX =    0.0                 !
 ! D28   D(5,4,10,11)            0.4997         -DE/DX =    0.0                 !
 ! D29   D(5,4,10,21)         -117.8272         -DE/DX =    0.0                 !
 ! D30   D(5,4,10,25)          118.9084         -DE/DX =    0.0                 !
 ! D31   D(4,5,6,1)             -0.0035         -DE/DX =    0.0                 !
 ! D32   D(4,5,6,9)            179.8669         -DE/DX =    0.0                 !
 ! D33   D(16,5,6,1)           179.5452         -DE/DX =    0.0                 !
 ! D34   D(16,5,6,9)            -0.5844         -DE/DX =    0.0                 !
 ! D35   D(4,5,16,11)            0.2851         -DE/DX =    0.0                 !
 ! D36   D(4,5,16,15)         -179.7575         -DE/DX =    0.0                 !
 ! D37   D(6,5,16,11)         -179.301          -DE/DX =    0.0                 !
 ! D38   D(6,5,16,15)            0.6565         -DE/DX =    0.0                 !
 ! D39   D(4,10,11,12)         179.7368         -DE/DX =    0.0                 !
 ! D40   D(4,10,11,16)          -0.3227         -DE/DX =    0.0                 !
 ! D41   D(21,10,11,12)        -61.8507         -DE/DX =    0.0                 !
 ! D42   D(21,10,11,16)        118.0898         -DE/DX =    0.0                 !
 ! D43   D(25,10,11,12)         61.2699         -DE/DX =    0.0                 !
 ! D44   D(25,10,11,16)       -118.7896         -DE/DX =    0.0                 !
 ! D45   D(4,10,21,22)         176.1119         -DE/DX =    0.0                 !
 ! D46   D(4,10,21,23)         -64.3911         -DE/DX =    0.0                 !
 ! D47   D(4,10,21,24)          55.8481         -DE/DX =    0.0                 !
 ! D48   D(11,10,21,22)         64.1214         -DE/DX =    0.0                 !
 ! D49   D(11,10,21,23)       -176.3816         -DE/DX =    0.0                 !
 ! D50   D(11,10,21,24)        -56.1423         -DE/DX =    0.0                 !
 ! D51   D(25,10,21,22)        -59.7903         -DE/DX =    0.0                 !
 ! D52   D(25,10,21,23)         59.7067         -DE/DX =    0.0                 !
 ! D53   D(25,10,21,24)        179.946          -DE/DX =    0.0                 !
 ! D54   D(4,10,25,26)          64.4186         -DE/DX =    0.0                 !
 ! D55   D(4,10,25,27)        -176.1143         -DE/DX =    0.0                 !
 ! D56   D(4,10,25,28)         -55.8366         -DE/DX =    0.0                 !
 ! D57   D(11,10,25,26)        176.4588         -DE/DX =    0.0                 !
 ! D58   D(11,10,25,27)        -64.0742         -DE/DX =    0.0                 !
 ! D59   D(11,10,25,28)         56.2035         -DE/DX =    0.0                 !
 ! D60   D(21,10,25,26)        -59.6654         -DE/DX =    0.0                 !
 ! D61   D(21,10,25,27)         59.8017         -DE/DX =    0.0                 !
 ! D62   D(21,10,25,28)       -179.9206         -DE/DX =    0.0                 !
 ! D63   D(10,11,12,13)        179.9292         -DE/DX =    0.0                 !
 ! D64   D(10,11,12,17)         -0.0482         -DE/DX =    0.0                 !
 ! D65   D(16,11,12,13)         -0.0065         -DE/DX =    0.0                 !
 ! D66   D(16,11,12,17)       -179.9839         -DE/DX =    0.0                 !
 ! D67   D(10,11,16,5)           0.0459         -DE/DX =    0.0                 !
 ! D68   D(10,11,16,15)       -179.9167         -DE/DX =    0.0                 !
 ! D69   D(12,11,16,5)         179.9923         -DE/DX =    0.0                 !
 ! D70   D(12,11,16,15)          0.0297         -DE/DX =    0.0                 !
 ! D71   D(11,12,13,14)         -0.0116         -DE/DX =    0.0                 !
 ! D72   D(11,12,13,18)       -179.9966         -DE/DX =    0.0                 !
 ! D73   D(17,12,13,14)        179.966          -DE/DX =    0.0                 !
 ! D74   D(17,12,13,18)         -0.019          -DE/DX =    0.0                 !
 ! D75   D(12,13,14,15)          0.007          -DE/DX =    0.0                 !
 ! D76   D(12,13,14,19)       -179.9917         -DE/DX =    0.0                 !
 ! D77   D(18,13,14,15)        179.992          -DE/DX =    0.0                 !
 ! D78   D(18,13,14,19)         -0.0067         -DE/DX =    0.0                 !
 ! D79   D(13,14,15,16)          0.0158         -DE/DX =    0.0                 !
 ! D80   D(13,14,15,20)       -179.9981         -DE/DX =    0.0                 !
 ! D81   D(19,14,15,16)       -179.9856         -DE/DX =    0.0                 !
 ! D82   D(19,14,15,20)          0.0005         -DE/DX =    0.0                 !
 ! D83   D(14,15,16,5)        -179.9871         -DE/DX =    0.0                 !
 ! D84   D(14,15,16,11)         -0.034          -DE/DX =    0.0                 !
 ! D85   D(20,15,16,5)           0.0269         -DE/DX =    0.0                 !
 ! D86   D(20,15,16,11)        179.98           -DE/DX =    0.0                 !
 ! D87   D(2,29,30,32)         178.0714         -DE/DX =    0.0                 !
 ! D88   D(2,29,30,37)           0.3574         -DE/DX =    0.0                 !
 ! D89   D(31,29,30,32)         -2.275          -DE/DX =    0.0                 !
 ! D90   D(31,29,30,37)       -179.989          -DE/DX =    0.0                 !
 ! D91   D(2,29,31,33)        -178.0421         -DE/DX =    0.0                 !
 ! D92   D(2,29,31,34)           6.0553         -DE/DX =    0.0                 !
 ! D93   D(30,29,31,33)          2.2866         -DE/DX =    0.0                 !
 ! D94   D(30,29,31,34)       -173.616          -DE/DX =    0.0                 !
 ! D95   D(29,30,32,35)          0.0931         -DE/DX =    0.0                 !
 ! D96   D(29,30,32,38)       -177.9733         -DE/DX =    0.0                 !
 ! D97   D(37,30,32,35)        178.0598         -DE/DX =    0.0                 !
 ! D98   D(37,30,32,38)         -0.0065         -DE/DX =    0.0                 !
 ! D99   D(29,30,37,39)        178.3248         -DE/DX =    0.0                 !
 ! D100  D(32,30,37,39)          0.4551         -DE/DX =    0.0                 !
 ! D101  D(29,31,33,35)          0.0102         -DE/DX =    0.0                 !
 ! D102  D(29,31,33,36)       -176.1107         -DE/DX =    0.0                 !
 ! D103  D(34,31,33,35)        175.9305         -DE/DX =    0.0                 !
 ! D104  D(34,31,33,36)         -0.1905         -DE/DX =    0.0                 !
 ! D105  D(30,32,35,33)          2.1563         -DE/DX =    0.0                 !
 ! D106  D(30,32,35,40)       -178.2302         -DE/DX =    0.0                 !
 ! D107  D(38,32,35,33)        179.9919         -DE/DX =    0.0                 !
 ! D108  D(38,32,35,40)         -0.3946         -DE/DX =    0.0                 !
 ! D109  D(30,32,38,39)         -0.4457         -DE/DX =    0.0                 !
 ! D110  D(35,32,38,39)       -178.4297         -DE/DX =    0.0                 !
 ! D111  D(31,33,35,32)         -2.2642         -DE/DX =    0.0                 !
 ! D112  D(31,33,35,40)        178.1039         -DE/DX =    0.0                 !
 ! D113  D(36,33,35,32)        173.8486         -DE/DX =    0.0                 !
 ! D114  D(36,33,35,40)         -5.7832         -DE/DX =    0.0                 !
 ! D115  D(32,35,40,41)        -19.7403         -DE/DX =    0.0                 !
 ! D116  D(32,35,40,42)        160.9556         -DE/DX =    0.0                 !
 ! D117  D(33,35,40,41)        159.8545         -DE/DX =    0.0                 !
 ! D118  D(33,35,40,42)        -19.4496         -DE/DX =    0.0                 !
 ! D119  D(30,37,39,38)         -0.6306         -DE/DX =    0.0                 !
 ! D120  D(32,38,39,37)          0.6259         -DE/DX =    0.0                 !
 ! D121  D(35,40,41,43)       -178.7283         -DE/DX =    0.0                 !
 ! D122  D(35,40,41,44)          0.7747         -DE/DX =    0.0                 !
 ! D123  D(42,40,41,43)          0.6021         -DE/DX =    0.0                 !
 ! D124  D(42,40,41,44)       -179.8949         -DE/DX =    0.0                 !
 ! D125  D(35,40,42,45)        179.3653         -DE/DX =    0.0                 !
 ! D126  D(35,40,42,46)         -3.0491         -DE/DX =    0.0                 !
 ! D127  D(41,40,42,45)          0.0193         -DE/DX =    0.0                 !
 ! D128  D(41,40,42,46)        177.6049         -DE/DX =    0.0                 !
 ! D129  D(40,41,43,47)         -0.691          -DE/DX =    0.0                 !
 ! D130  D(40,41,43,48)        178.8697         -DE/DX =    0.0                 !
 ! D131  D(44,41,43,47)        179.81           -DE/DX =    0.0                 !
 ! D132  D(44,41,43,48)         -0.6294         -DE/DX =    0.0                 !
 ! D133  D(40,42,45,47)         -0.5764         -DE/DX =    0.0                 !
 ! D134  D(40,42,45,49)        179.3281         -DE/DX =    0.0                 !
 ! D135  D(46,42,45,47)       -178.2003         -DE/DX =    0.0                 !
 ! D136  D(46,42,45,49)          1.7041         -DE/DX =    0.0                 !
 ! D137  D(41,43,47,45)          0.1292         -DE/DX =    0.0                 !
 ! D138  D(41,43,47,50)       -177.7689         -DE/DX =    0.0                 !
 ! D139  D(48,43,47,45)       -179.4303         -DE/DX =    0.0                 !
 ! D140  D(48,43,47,50)          2.6716         -DE/DX =    0.0                 !
 ! D141  D(42,45,47,43)          0.4986         -DE/DX =    0.0                 !
 ! D142  D(42,45,47,50)        178.405          -DE/DX =    0.0                 !
 ! D143  D(49,45,47,43)       -179.4058         -DE/DX =    0.0                 !
 ! D144  D(49,45,47,50)         -1.4994         -DE/DX =    0.0                 !
 ! D145  D(43,47,50,51)       -150.4148         -DE/DX =    0.0                 !
 ! D146  D(43,47,50,52)        -32.6537         -DE/DX =    0.0                 !
 ! D147  D(43,47,50,53)         88.5916         -DE/DX =    0.0                 !
 ! D148  D(45,47,50,51)         31.7628         -DE/DX =    0.0                 !
 ! D149  D(45,47,50,52)        149.5239         -DE/DX =    0.0                 !
 ! D150  D(45,47,50,53)        -89.2308         -DE/DX =    0.0                 !
 ! D151  D(47,50,53,54)        -56.3105         -DE/DX =    0.0                 !
 ! D152  D(47,50,53,55)         59.414          -DE/DX =    0.0                 !
 ! D153  D(47,50,53,56)        177.497          -DE/DX =    0.0                 !
 ! D154  D(51,50,53,54)       -178.909          -DE/DX =    0.0                 !
 ! D155  D(51,50,53,55)        -63.1845         -DE/DX =    0.0                 !
 ! D156  D(51,50,53,56)         54.8984         -DE/DX =    0.0                 !
 ! D157  D(52,50,53,54)         65.509          -DE/DX =    0.0                 !
 ! D158  D(52,50,53,55)       -178.7665         -DE/DX =    0.0                 !
 ! D159  D(52,50,53,56)        -60.6835         -DE/DX =    0.0                 !
 ! D160  D(50,53,56,57)         68.6087         -DE/DX =    0.0                 !
 ! D161  D(50,53,56,58)       -175.5253         -DE/DX =    0.0                 !
 ! D162  D(54,53,56,57)        -54.3632         -DE/DX =    0.0                 !
 ! D163  D(54,53,56,58)         61.5028         -DE/DX =    0.0                 !
 ! D164  D(55,53,56,57)       -172.6782         -DE/DX =    0.0                 !
 ! D165  D(55,53,56,58)        -56.8122         -DE/DX =    0.0                 !
 --------------------------------------------------------------------------------
 Lowest energy point so far.  Saving SCF results.
 Largest change from initial coordinates is atom   22       0.552 Angstoms.
 GradGradGradGradGradGradGradGradGradGradGradGradGradGradGradGradGradGrad

 Leave Link  103 at Thu Mar 14 09:28:56 2024, MaxMem= 32212254720 cpu:               2.7 elap:               0.1
 (Enter /home/<user>/g16/l202.exe)
 Stoichiometry    C29H25N3S(3)
 Framework group  C1[X(C29H25N3S)]
 Deg. of freedom   168
 Full point group                 C1      NOp   1
 RotChk:  IX=0 Diff= 1.77D-15
 Largest Abelian subgroup         C1      NOp   1
 Largest concise Abelian subgroup C1      NOp   1
                         Standard orientation:                         
 ---------------------------------------------------------------------
 Center     Atomic      Atomic             Coordinates (Angstroms)
 Number     Number       Type             X           Y           Z
 ---------------------------------------------------------------------
      1          6           0       -2.480164    1.687094   -0.253245
      2          6           0       -1.780608    0.444522   -0.174830
      3          6           0       -2.568704   -0.741048   -0.035878
      4          6           0       -3.943792   -0.672831    0.016142
      5          6           0       -4.609600    0.572019   -0.077093
      6          6           0       -3.863490    1.750404   -0.212163
      7          1           0       -1.905129    2.597041   -0.351729
      8          1           0       -2.081804   -1.703882    0.074209
      9          1           0       -4.358392    2.715272   -0.287329
     10          6           0       -4.950827   -1.813307    0.178221
     11          6           0       -6.271885   -1.044580    0.150618
     12          6           0       -7.568180   -1.534891    0.250544
     13          6           0       -8.642732   -0.637976    0.201894
     14          6           0       -8.419312    0.736483    0.054786
     15          6           0       -7.121475    1.237331   -0.046161
     16          6           0       -6.047146    0.341885    0.001863
     17          1           0       -7.755236   -2.599974    0.365642
     18          1           0       -9.659944   -1.012331    0.279313
     19          1           0       -9.264732    1.418200    0.019059
     20          1           0       -6.951290    2.304703   -0.160242
     21          6           0       -4.757813   -2.549914    1.522906
     22          1           0       -5.527863   -3.318428    1.656810
     23          1           0       -3.780207   -3.044572    1.556663
     24          1           0       -4.818023   -1.854627    2.366130
     25          6           0       -4.859634   -2.818087   -0.991966
     26          1           0       -3.883776   -3.317393   -0.997990
     27          1           0       -5.631295   -3.591049   -0.899529
     28          1           0       -4.992498   -2.315665   -1.955368
     29          6           0       -0.340210    0.363072   -0.240540
     30          6           0        0.561927    1.475241   -0.040796
     31          6           0        0.308906   -0.904768   -0.533278
     32          6           0        2.019331    1.291728   -0.085011
     33          6           0        1.657257   -1.070767   -0.574465
     34          1           0       -0.313198   -1.751477   -0.796306
     35          6           0        2.605787   -0.002143   -0.330888
     36          1           0        2.041884   -2.041304   -0.864884
     37          7           0        0.194200    2.722749    0.236955
     38          7           0        2.703930    2.406635    0.160651
     39         16           0        1.591720    3.636214    0.423322
     40          6           0        4.032751   -0.270843   -0.353281
     41          6           0        5.004407    0.747494   -0.539424
     42          6           0        4.522290   -1.596183   -0.200552
     43          6           0        6.358600    0.447962   -0.580987
     44          1           0        4.675911    1.770842   -0.658126
     45          6           0        5.879304   -1.878047   -0.231617
     46          1           0        3.831251   -2.411357   -0.016320
     47          6           0        6.832029   -0.864936   -0.427854
     48          1           0        7.071364    1.253778   -0.743954
     49          1           0        6.212864   -2.905092   -0.099701
     50          6           0        8.309393   -1.173881   -0.424969
     51          1           0        8.496287   -2.181546   -0.813211
     52          1           0        8.835867   -0.473512   -1.088296
     53          6           0        8.931621   -1.084677    0.981443
     54          1           0        8.734616   -0.079532    1.395676
     55          1           0        8.423018   -1.798571    1.640746
     56          7           0       10.350110   -1.451970    0.929619
     57          1           0       10.869994   -0.736110    0.422460
     58          1           0       10.736958   -1.462873    1.872051
 ---------------------------------------------------------------------
 Rotational constants (GHZ):           0.3474110           0.0397745           0.0363427
 Leave Link  202 at Thu Mar 14 09:28:56 2024, MaxMem= 32212254720 cpu:               0.0 elap:               0.0
 (Enter /home/<user>/g16/l601.exe)
 Copying SCF densities to generalized density rwf, IOpCl= 1 IROHF=0.

 **********************************************************************

            Population analysis using the SCF Density.

 **********************************************************************

 Orbital symmetries:
 Alpha Orbitals:
       Occupied  (A) (A) (A) (A) (A) (A) (A) (A) (A) (A) (A) (A)
                 (A) (A) (A) (A) (A) (A) (A) (A) (A) (A) (A) (A)
                 (A) (A) (A) (A) (A) (A) (A) (A) (A) (A) (A) (A)
                 (A) (A) (A) (A) (A) (A) (A) (A) (A) (A) (A) (A)
                 (A) (A) (A) (A) (A) (A) (A) (A) (A) (A) (A) (A)
                 (A) (A) (A) (A) (A) (A) (A) (A) (A) (A) (A) (A)
                 (A) (A) (A) (A) (A) (A) (A) (A) (A) (A) (A) (A)
                 (A) (A) (A) (A) (A) (A) (A) (A) (A) (A) (A) (A)
                 (A) (A) (A) (A) (A) (A) (A) (A) (A) (A) (A) (A)
                 (A) (A) (A) (A) (A) (A) (A) (A) (A) (A) (A)
       Virtual   (A) (A) (A) (A) (A) (A) (A) (A) (A) (A) (A) (A)
                 (A) (A) (A) (A) (A) (A) (A) (A) (A) (A) (A) (A)
                 (A) (A) (A) (A) (A) (A) (A) (A) (A) (A) (A) (A)
                 (A) (A) (A) (A) (A) (A) (A) (A) (A) (A) (A) (A)
                 (A) (A) (A) (A) (A) (A) (A) (A) (A) (A) (A) (A)
                 (A) (A) (A) (A) (A) (A) (A) (A) (A) (A) (A) (A)
                 (A) (A) (A) (A) (A) (A) (A) (A) (A) (A) (A) (A)
                 (A) (A) (A) (A) (A) (A) (A) (A) (A) (A) (A) (A)
                 (A) (A) (A) (A) (A) (A) (A) (A) (A) (A) (A) (A)
                 (A) (A) (A) (A) (A) (A) (A) (A) (A) (A) (A) (A)
                 (A) (A) (A) (A) (A) (A) (A) (A) (A) (A) (A) (A)
                 (A) (A) (A) (A) (A) (A) (A) (A) (A) (A) (A) (A)
                 (A) (A) (A) (A) (A) (A) (A) (A) (A) (A) (A) (A)
                 (A) (A) (A) (A) (A) (A) (A) (A) (A) (A) (A) (A)
                 (A) (A) (A) (A) (A) (A) (A) (A) (A) (A) (A) (A)
                 (A) (A) (A) (A) (A) (A) (A) (A) (A) (A) (A) (A)
                 (A) (A) (A) (A) (A) (A) (A) (A) (A) (A) (A) (A)
                 (A) (A) (A) (A) (A) (A) (A) (A) (A) (A) (A) (A)
                 (A) (A) (A) (A) (A) (A) (A) (A) (A) (A) (A) (A)
                 (A) (A) (A) (A) (A) (A) (A) (A) (A) (A) (A) (A)
                 (A) (A) (A) (A) (A) (A) (A) (A) (A) (A) (A) (A)
                 (A) (A) (A) (A) (A) (A) (A) (A) (A) (A) (A) (A)
                 (A) (A) (A) (A) (A) (A) (A) (A) (A) (A) (A) (A)
                 (A) (A) (A) (A) (A) (A) (A) (A) (A) (A) (A) (A)
                 (A) (A) (A) (A) (A) (A) (A) (A) (A) (A) (A) (A)
                 (A) (A) (A) (A) (A) (A) (A) (A) (A) (A) (A) (A)
                 (A) (A) (A) (A) (A) (A) (A) (A) (A) (A) (A) (A)
                 (A) (A) (A) (A) (A) (A) (A) (A) (A) (A) (A) (A)
                 (A) (A) (A) (A) (A) (A) (A) (A) (A) (A) (A) (A)
                 (A) (A) (A) (A) (A) (A) (A) (A) (A) (A) (A) (A)
                 (A) (A) (A) (A) (A) (A) (A) (A) (A) (A) (A) (A)
                 (A) (A) (A) (A) (A) (A) (A) (A) (A) (A) (A) (A)
                 (A) (A) (A) (A) (A) (A) (A) (A) (A) (A) (A) (A)
                 (A) (A) (A) (A) (A) (A) (A) (A) (A) (A) (A) (A)
                 (A) (A) (A) (A) (A) (A) (A) (A) (A) (A) (A) (A)
                 (A) (A) (A) (A) (A) (A) (A) (A) (A) (A)
 Beta  Orbitals:
       Occupied  (A) (A) (A) (A) (A) (A) (A) (A) (A) (A) (A) (A)
                 (A) (A) (A) (A) (A) (A) (A) (A) (A) (A) (A) (A)
                 (A) (A) (A) (A) (A) (A) (A) (A) (A) (A) (A) (A)
                 (A) (A) (A) (A) (A) (A) (A) (A) (A) (A) (A) (A)
                 (A) (A) (A) (A) (A) (A) (A) (A) (A) (A) (A) (A)
                 (A) (A) (A) (A) (A) (A) (A) (A) (A) (A) (A) (A)
                 (A) (A) (A) (A) (A) (A) (A) (A) (A) (A) (A) (A)
                 (A) (A) (A) (A) (A) (A) (A) (A) (A) (A) (A) (A)
                 (A) (A) (A) (A) (A) (A) (A) (A) (A) (A) (A) (A)
                 (A) (A) (A) (A) (A) (A) (A) (A) (A)
       Virtual   (A) (A) (A) (A) (A) (A) (A) (A) (A) (A) (A) (A)
                 (A) (A) (A) (A) (A) (A) (A) (A) (A) (A) (A) (A)
                 (A) (A) (A) (A) (A) (A) (A) (A) (A) (A) (A) (A)
                 (A) (A) (A) (A) (A) (A) (A) (A) (A) (A) (A) (A)
                 (A) (A) (A) (A) (A) (A) (A) (A) (A) (A) (A) (A)
                 (A) (A) (A) (A) (A) (A) (A) (A) (A) (A) (A) (A)
                 (A) (A) (A) (A) (A) (A) (A) (A) (A) (A) (A) (A)
                 (A) (A) (A) (A) (A) (A) (A) (A) (A) (A) (A) (A)
                 (A) (A) (A) (A) (A) (A) (A) (A) (A) (A) (A) (A)
                 (A) (A) (A) (A) (A) (A) (A) (A) (A) (A) (A) (A)
                 (A) (A) (A) (A) (A) (A) (A) (A) (A) (A) (A) (A)
                 (A) (A) (A) (A) (A) (A) (A) (A) (A) (A) (A) (A)
                 (A) (A) (A) (A) (A) (A) (A) (A) (A) (A) (A) (A)
                 (A) (A) (A) (A) (A) (A) (A) (A) (A) (A) (A) (A)
                 (A) (A) (A) (A) (A) (A) (A) (A) (A) (A) (A) (A)
                 (A) (A) (A) (A) (A) (A) (A) (A) (A) (A) (A) (A)
                 (A) (A) (A) (A) (A) (A) (A) (A) (A) (A) (A) (A)
                 (A) (A) (A) (A) (A) (A) (A) (A) (A) (A) (A) (A)
                 (A) (A) (A) (A) (A) (A) (A) (A) (A) (A) (A) (A)
                 (A) (A) (A) (A) (A) (A) (A) (A) (A) (A) (A) (A)
                 (A) (A) (A) (A) (A) (A) (A) (A) (A) (A) (A) (A)
                 (A) (A) (A) (A) (A) (A) (A) (A) (A) (A) (A) (A)
                 (A) (A) (A) (A) (A) (A) (A) (A) (A) (A) (A) (A)
                 (A) (A) (A) (A) (A) (A) (A) (A) (A) (A) (A) (A)
                 (A) (A) (A) (A) (A) (A) (A) (A) (A) (A) (A) (A)
                 (A) (A) (A) (A) (A) (A) (A) (A) (A) (A) (A) (A)
                 (A) (A) (A) (A) (A) (A) (A) (A) (A) (A) (A) (A)
                 (A) (A) (A) (A) (A) (A) (A) (A) (A) (A) (A) (A)
                 (A) (A) (A) (A) (A) (A) (A) (A) (A) (A) (A) (A)
                 (A) (A) (A) (A) (A) (A) (A) (A) (A) (A) (A) (A)
                 (A) (A) (A) (A) (A) (A) (A) (A) (A) (A) (A) (A)
                 (A) (A) (A) (A) (A) (A) (A) (A) (A) (A) (A) (A)
                 (A) (A) (A) (A) (A) (A) (A) (A) (A) (A) (A) (A)
                 (A) (A) (A) (A) (A) (A) (A) (A) (A) (A) (A) (A)
                 (A) (A) (A) (A) (A) (A) (A) (A) (A) (A) (A) (A)
                 (A) (A) (A) (A) (A) (A) (A) (A) (A) (A) (A) (A)
 The electronic state is 3-A.
 Alpha  occ. eigenvalues --  -88.93275 -14.34543 -14.34542 -14.31405 -10.23263
 Alpha  occ. eigenvalues --  -10.23167 -10.21955 -10.21936 -10.21375 -10.21098
 Alpha  occ. eigenvalues --  -10.21031 -10.20511 -10.20269 -10.20196 -10.20084
 Alpha  occ. eigenvalues --  -10.19958 -10.19853 -10.19798 -10.19736 -10.19706
 Alpha  occ. eigenvalues --  -10.19690 -10.19597 -10.19523 -10.19511 -10.19498
 Alpha  occ. eigenvalues --  -10.19343 -10.19016 -10.18993 -10.18776 -10.18744
 Alpha  occ. eigenvalues --  -10.18698 -10.18576 -10.18521  -7.98907  -5.95494
 Alpha  occ. eigenvalues --   -5.94911  -5.94606  -0.98780  -0.89560  -0.88222
 Alpha  occ. eigenvalues --   -0.87719  -0.86769  -0.85347  -0.84150  -0.81761
 Alpha  occ. eigenvalues --   -0.79664  -0.78000  -0.75357  -0.75291  -0.74640
 Alpha  occ. eigenvalues --   -0.74354  -0.73632  -0.72095  -0.69346  -0.69245
 Alpha  occ. eigenvalues --   -0.65685  -0.64736  -0.62634  -0.61951  -0.61650
 Alpha  occ. eigenvalues --   -0.59726  -0.59084  -0.58182  -0.57689  -0.56826
 Alpha  occ. eigenvalues --   -0.55209  -0.51576  -0.51154  -0.50247  -0.49417
 Alpha  occ. eigenvalues --   -0.48948  -0.48291  -0.47543  -0.46803  -0.45680
 Alpha  occ. eigenvalues --   -0.45500  -0.45116  -0.44688  -0.44210  -0.44008
 Alpha  occ. eigenvalues --   -0.43699  -0.43440  -0.43339  -0.42153  -0.42028
 Alpha  occ. eigenvalues --   -0.41769  -0.41096  -0.39753  -0.39451  -0.39027
 Alpha  occ. eigenvalues --   -0.38685  -0.38572  -0.38247  -0.37334  -0.36756
 Alpha  occ. eigenvalues --   -0.36465  -0.36347  -0.35472  -0.35287  -0.34950
 Alpha  occ. eigenvalues --   -0.34915  -0.34570  -0.34182  -0.33357  -0.32775
 Alpha  occ. eigenvalues --   -0.32535  -0.32192  -0.29762  -0.29227  -0.27526
 Alpha  occ. eigenvalues --   -0.26835  -0.26032  -0.25554  -0.25387  -0.25124
 Alpha  occ. eigenvalues --   -0.23714  -0.23346  -0.20177  -0.13946
 Alpha virt. eigenvalues --   -0.04762  -0.02348  -0.01427  -0.00373   0.00304
 Alpha virt. eigenvalues --    0.01090   0.01843   0.02461   0.05247   0.07573
 Alpha virt. eigenvalues --    0.08025   0.08460   0.09429   0.09757   0.10585
 Alpha virt. eigenvalues --    0.11305   0.12031   0.12251   0.12843   0.13168
 Alpha virt. eigenvalues --    0.13985   0.14292   0.15149   0.15237   0.15793
 Alpha virt. eigenvalues --    0.16217   0.16545   0.16776   0.17399   0.17933
 Alpha virt. eigenvalues --    0.18239   0.18663   0.18906   0.19117   0.19423
 Alpha virt. eigenvalues --    0.20400   0.20959   0.21570   0.22051   0.22400
 Alpha virt. eigenvalues --    0.22854   0.23535   0.23868   0.24471   0.24747
 Alpha virt. eigenvalues --    0.25510   0.25761   0.26444   0.26941   0.26973
 Alpha virt. eigenvalues --    0.27420   0.28428   0.29296   0.30154   0.30498
 Alpha virt. eigenvalues --    0.30970   0.32726   0.32950   0.33695   0.34734
 Alpha virt. eigenvalues --    0.35815   0.36241   0.36422   0.36924   0.38205
 Alpha virt. eigenvalues --    0.39441   0.39899   0.41089   0.42937   0.44629
 Alpha virt. eigenvalues --    0.45578   0.46808   0.48657   0.48860   0.49110
 Alpha virt. eigenvalues --    0.49842   0.50420   0.50570   0.50947   0.51527
 Alpha virt. eigenvalues --    0.51733   0.52580   0.52703   0.53115   0.53530
 Alpha virt. eigenvalues --    0.53892   0.54119   0.54693   0.54844   0.55082
 Alpha virt. eigenvalues --    0.55473   0.55850   0.56382   0.56735   0.56975
 Alpha virt. eigenvalues --    0.57663   0.57803   0.57871   0.58738   0.58828
 Alpha virt. eigenvalues --    0.59154   0.59211   0.59961   0.60147   0.60438
 Alpha virt. eigenvalues --    0.60622   0.61316   0.61630   0.62116   0.62392
 Alpha virt. eigenvalues --    0.63302   0.63698   0.63839   0.64052   0.64750
 Alpha virt. eigenvalues --    0.64914   0.65425   0.65578   0.66019   0.66664
 Alpha virt. eigenvalues --    0.67272   0.67441   0.68287   0.68595   0.69743
 Alpha virt. eigenvalues --    0.71153   0.71748   0.72371   0.73504   0.74931
 Alpha virt. eigenvalues --    0.75509   0.76028   0.76378   0.76632   0.76758
 Alpha virt. eigenvalues --    0.78136   0.78621   0.78803   0.78891   0.79219
 Alpha virt. eigenvalues --    0.80711   0.80962   0.81186   0.82080   0.82578
 Alpha virt. eigenvalues --    0.83041   0.83373   0.84032   0.84578   0.84957
 Alpha virt. eigenvalues --    0.85818   0.85973   0.86442   0.86794   0.87962
 Alpha virt. eigenvalues --    0.88203   0.88420   0.88973   0.89255   0.89374
 Alpha virt. eigenvalues --    0.90698   0.90737   0.90933   0.91116   0.91335
 Alpha virt. eigenvalues --    0.91613   0.92026   0.92953   0.93924   0.94738
 Alpha virt. eigenvalues --    0.95365   0.95769   0.96426   0.96744   0.96840
 Alpha virt. eigenvalues --    0.97790   0.98220   0.98579   0.98795   0.99125
 Alpha virt. eigenvalues --    1.00038   1.00785   1.01168   1.01837   1.02277
 Alpha virt. eigenvalues --    1.03123   1.04091   1.05391   1.06152   1.06799
 Alpha virt. eigenvalues --    1.07269   1.08739   1.09337   1.09604   1.11365
 Alpha virt. eigenvalues --    1.12046   1.12860   1.13419   1.14144   1.15168
 Alpha virt. eigenvalues --    1.16432   1.16619   1.17619   1.19331   1.19710
 Alpha virt. eigenvalues --    1.21081   1.21985   1.22421   1.22738   1.23560
 Alpha virt. eigenvalues --    1.24195   1.25584   1.26462   1.27033   1.30484
 Alpha virt. eigenvalues --    1.30604   1.31351   1.33057   1.33969   1.34375
 Alpha virt. eigenvalues --    1.37069   1.37298   1.38511   1.38732   1.40292
 Alpha virt. eigenvalues --    1.40994   1.41231   1.42055   1.42390   1.43340
 Alpha virt. eigenvalues --    1.44961   1.45574   1.45759   1.46615   1.47497
 Alpha virt. eigenvalues --    1.47665   1.48522   1.48793   1.49286   1.49338
 Alpha virt. eigenvalues --    1.50748   1.51712   1.52021   1.52449   1.54071
 Alpha virt. eigenvalues --    1.55647   1.57290   1.57825   1.60593   1.61257
 Alpha virt. eigenvalues --    1.64191   1.64746   1.67209   1.67678   1.69954
 Alpha virt. eigenvalues --    1.71189   1.71559   1.73321   1.73372   1.73648
 Alpha virt. eigenvalues --    1.76009   1.77047   1.77728   1.78077   1.78827
 Alpha virt. eigenvalues --    1.79764   1.79854   1.80102   1.80879   1.81278
 Alpha virt. eigenvalues --    1.82132   1.83253   1.83760   1.84885   1.85483
 Alpha virt. eigenvalues --    1.86906   1.87552   1.89386   1.89474   1.90151
 Alpha virt. eigenvalues --    1.90278   1.90875   1.91577   1.91714   1.92582
 Alpha virt. eigenvalues --    1.92999   1.93593   1.95156   1.95472   1.97467
 Alpha virt. eigenvalues --    1.97936   1.99043   2.00023   2.00842   2.01369
 Alpha virt. eigenvalues --    2.02411   2.03363   2.03697   2.04068   2.05568
 Alpha virt. eigenvalues --    2.06142   2.07641   2.08955   2.09386   2.10696
 Alpha virt. eigenvalues --    2.11816   2.12026   2.13155   2.13605   2.14779
 Alpha virt. eigenvalues --    2.15486   2.17393   2.17955   2.18851   2.19004
 Alpha virt. eigenvalues --    2.19440   2.20301   2.23022   2.23267   2.24288
 Alpha virt. eigenvalues --    2.24622   2.25519   2.25974   2.26112   2.26925
 Alpha virt. eigenvalues --    2.27769   2.28029   2.29361   2.30235   2.30285
 Alpha virt. eigenvalues --    2.31183   2.31283   2.31638   2.31772   2.33725
 Alpha virt. eigenvalues --    2.34183   2.35537   2.37029   2.38538   2.39672
 Alpha virt. eigenvalues --    2.40168   2.42206   2.42283   2.42784   2.43903
 Alpha virt. eigenvalues --    2.44795   2.45395   2.47832   2.49541   2.50247
 Alpha virt. eigenvalues --    2.53092   2.54322   2.55557   2.56688   2.58258
 Alpha virt. eigenvalues --    2.59395   2.60473   2.61308   2.62077   2.62341
 Alpha virt. eigenvalues --    2.64223   2.65507   2.65703   2.66435   2.67725
 Alpha virt. eigenvalues --    2.68665   2.69543   2.71054   2.74168   2.74562
 Alpha virt. eigenvalues --    2.74864   2.74983   2.76703   2.77425   2.78844
 Alpha virt. eigenvalues --    2.80745   2.82247   2.83853   2.85335   2.88084
 Alpha virt. eigenvalues --    2.88780   2.91720   2.93368   2.94158   2.96235
 Alpha virt. eigenvalues --    2.97438   3.00660   3.01735   3.06253   3.08298
 Alpha virt. eigenvalues --    3.17424   3.27620   3.29548   3.34349   3.36763
 Alpha virt. eigenvalues --    3.44682   3.51155   3.78286   3.87873   4.03244
 Alpha virt. eigenvalues --    4.04376   4.05778   4.07778   4.09053   4.10315
 Alpha virt. eigenvalues --    4.11063   4.12020   4.14499   4.15274   4.15399
 Alpha virt. eigenvalues --    4.17876   4.19238   4.20955   4.22662   4.23701
 Alpha virt. eigenvalues --    4.28597   4.30112   4.33198   4.33902   4.35262
 Alpha virt. eigenvalues --    4.38467   4.42016   4.43124   4.48392   4.51901
 Alpha virt. eigenvalues --    4.60188   4.69504   4.79064   4.81063   4.85915
  Beta  occ. eigenvalues --  -88.93172 -14.34063 -14.34032 -14.31403 -10.23399
  Beta  occ. eigenvalues --  -10.23316 -10.21374 -10.21358 -10.21290 -10.21110
  Beta  occ. eigenvalues --  -10.21073 -10.20607 -10.20025 -10.19970 -10.19917
  Beta  occ. eigenvalues --  -10.19897 -10.19836 -10.19662 -10.19639 -10.19634
  Beta  occ. eigenvalues --  -10.19624 -10.19568 -10.19551 -10.19536 -10.19435
  Beta  occ. eigenvalues --  -10.19411 -10.19104 -10.18854 -10.18799 -10.18757
  Beta  occ. eigenvalues --  -10.18578 -10.18527 -10.18524  -7.98807  -5.95445
  Beta  occ. eigenvalues --   -5.94868  -5.94248  -0.98134  -0.89394  -0.88174
  Beta  occ. eigenvalues --   -0.86895  -0.86156  -0.84936  -0.83673  -0.81577
  Beta  occ. eigenvalues --   -0.79142  -0.77746  -0.75060  -0.74877  -0.74351
  Beta  occ. eigenvalues --   -0.74146  -0.73487  -0.71935  -0.69250  -0.68777
  Beta  occ. eigenvalues --   -0.65205  -0.64363  -0.62266  -0.61791  -0.61441
  Beta  occ. eigenvalues --   -0.59545  -0.58845  -0.58005  -0.57477  -0.56651
  Beta  occ. eigenvalues --   -0.55038  -0.51471  -0.51007  -0.50069  -0.49198
  Beta  occ. eigenvalues --   -0.48697  -0.48069  -0.47428  -0.46605  -0.45578
  Beta  occ. eigenvalues --   -0.45326  -0.44963  -0.44574  -0.44145  -0.43772
  Beta  occ. eigenvalues --   -0.43551  -0.43318  -0.42342  -0.42016  -0.41826
  Beta  occ. eigenvalues --   -0.41635  -0.40922  -0.39697  -0.39291  -0.38865
  Beta  occ. eigenvalues --   -0.38367  -0.38139  -0.37842  -0.37051  -0.35941
  Beta  occ. eigenvalues --   -0.35819  -0.35497  -0.35259  -0.35181  -0.34870
  Beta  occ. eigenvalues --   -0.34831  -0.34353  -0.33260  -0.32523  -0.32472
  Beta  occ. eigenvalues --   -0.32118  -0.30693  -0.29365  -0.27791  -0.26924
  Beta  occ. eigenvalues --   -0.25317  -0.25069  -0.24955  -0.24707  -0.24650
  Beta  occ. eigenvalues --   -0.23558  -0.22234
  Beta virt. eigenvalues --   -0.14231  -0.07257  -0.03288  -0.01149  -0.00937
  Beta virt. eigenvalues --    0.00240   0.00748   0.02187   0.02577   0.03594
  Beta virt. eigenvalues --    0.07067   0.07625   0.08036   0.08966   0.09540
  Beta virt. eigenvalues --    0.09834   0.10671   0.11387   0.12214   0.12719
  Beta virt. eigenvalues --    0.12894   0.13204   0.14173   0.14499   0.15290
  Beta virt. eigenvalues --    0.15523   0.15874   0.16261   0.16689   0.17042
  Beta virt. eigenvalues --    0.17594   0.17990   0.18549   0.18810   0.18972
  Beta virt. eigenvalues --    0.19464   0.19743   0.20440   0.21263   0.21766
  Beta virt. eigenvalues --    0.22178   0.22781   0.23114   0.23903   0.24006
  Beta virt. eigenvalues --    0.24909   0.25003   0.25759   0.25970   0.26533
  Beta virt. eigenvalues --    0.27045   0.27185   0.27578   0.28568   0.29554
  Beta virt. eigenvalues --    0.30355   0.30715   0.31205   0.32803   0.33311
  Beta virt. eigenvalues --    0.33829   0.34862   0.35963   0.36683   0.36912
  Beta virt. eigenvalues --    0.37225   0.38388   0.39639   0.40193   0.41451
  Beta virt. eigenvalues --    0.43279   0.44841   0.45938   0.46950   0.48826
  Beta virt. eigenvalues --    0.48947   0.49550   0.50158   0.50688   0.50844
  Beta virt. eigenvalues --    0.51243   0.51678   0.51914   0.52840   0.52926
  Beta virt. eigenvalues --    0.53345   0.53859   0.54217   0.54420   0.54870
  Beta virt. eigenvalues --    0.55014   0.55401   0.55635   0.56022   0.56633
  Beta virt. eigenvalues --    0.56981   0.57193   0.57811   0.58081   0.58186
  Beta virt. eigenvalues --    0.58940   0.59174   0.59323   0.59469   0.60046
  Beta virt. eigenvalues --    0.60337   0.60620   0.60799   0.61615   0.61859
  Beta virt. eigenvalues --    0.62237   0.62582   0.63553   0.63949   0.64177
  Beta virt. eigenvalues --    0.64268   0.64991   0.65040   0.65734   0.65909
  Beta virt. eigenvalues --    0.66848   0.67358   0.67587   0.67928   0.68551
  Beta virt. eigenvalues --    0.68847   0.70530   0.71475   0.72158   0.72659
  Beta virt. eigenvalues --    0.73686   0.75247   0.75616   0.76161   0.76645
  Beta virt. eigenvalues --    0.76839   0.76960   0.78423   0.78821   0.78875
  Beta virt. eigenvalues --    0.79113   0.79904   0.80894   0.81099   0.81376
  Beta virt. eigenvalues --    0.82283   0.82926   0.83244   0.83496   0.84101
  Beta virt. eigenvalues --    0.84668   0.85219   0.86052   0.86217   0.86752
  Beta virt. eigenvalues --    0.87159   0.88371   0.88474   0.88657   0.89228
  Beta virt. eigenvalues --    0.89496   0.89631   0.90737   0.90774   0.91069
  Beta virt. eigenvalues --    0.91212   0.91424   0.91839   0.92193   0.93112
  Beta virt. eigenvalues --    0.94048   0.94961   0.95561   0.95929   0.96565
  Beta virt. eigenvalues --    0.96843   0.96949   0.98038   0.98369   0.98752
  Beta virt. eigenvalues --    0.98939   0.99378   1.00257   1.01041   1.01338
  Beta virt. eigenvalues --    1.02116   1.02528   1.03374   1.04217   1.05550
  Beta virt. eigenvalues --    1.06346   1.07017   1.07529   1.09113   1.09526
  Beta virt. eigenvalues --    1.09809   1.11531   1.12310   1.13068   1.13602
  Beta virt. eigenvalues --    1.14256   1.15570   1.16635   1.16766   1.17775
  Beta virt. eigenvalues --    1.19666   1.20357   1.21379   1.22222   1.22872
  Beta virt. eigenvalues --    1.23110   1.23886   1.24341   1.25971   1.26843
  Beta virt. eigenvalues --    1.27312   1.30769   1.30916   1.31680   1.33242
  Beta virt. eigenvalues --    1.34183   1.34784   1.37440   1.37547   1.38800
  Beta virt. eigenvalues --    1.39179   1.40653   1.41170   1.41442   1.42415
  Beta virt. eigenvalues --    1.42955   1.43498   1.45110   1.45782   1.46025
  Beta virt. eigenvalues --    1.46832   1.47758   1.47913   1.48854   1.49298
  Beta virt. eigenvalues --    1.49419   1.49701   1.51067   1.52116   1.52280
  Beta virt. eigenvalues --    1.52709   1.54441   1.55837   1.57486   1.58084
  Beta virt. eigenvalues --    1.60891   1.61470   1.64263   1.65172   1.67542
  Beta virt. eigenvalues --    1.67760   1.70370   1.71399   1.71822   1.73706
  Beta virt. eigenvalues --    1.73995   1.74057   1.76443   1.77447   1.78075
  Beta virt. eigenvalues --    1.78983   1.79084   1.79870   1.80415   1.80492
  Beta virt. eigenvalues --    1.81135   1.81600   1.82504   1.83495   1.84128
  Beta virt. eigenvalues --    1.85094   1.85527   1.87569   1.88786   1.89637
  Beta virt. eigenvalues --    1.89880   1.90350   1.90566   1.91253   1.91821
  Beta virt. eigenvalues --    1.92396   1.92758   1.93142   1.93729   1.95289
  Beta virt. eigenvalues --    1.95611   1.97829   1.98052   1.99618   2.00604
  Beta virt. eigenvalues --    2.01165   2.01520   2.02486   2.03539   2.03854
  Beta virt. eigenvalues --    2.04257   2.05657   2.06372   2.07850   2.09191
  Beta virt. eigenvalues --    2.09587   2.10983   2.12053   2.12373   2.13435
  Beta virt. eigenvalues --    2.14140   2.15050   2.16099   2.17732   2.18369
  Beta virt. eigenvalues --    2.19002   2.19367   2.19958   2.20905   2.23218
  Beta virt. eigenvalues --    2.23400   2.24560   2.24847   2.25860   2.26174
  Beta virt. eigenvalues --    2.26437   2.27076   2.28494   2.28746   2.29606
  Beta virt. eigenvalues --    2.30405   2.30800   2.31475   2.31523   2.31992
  Beta virt. eigenvalues --    2.32309   2.33888   2.34459   2.35973   2.37298
  Beta virt. eigenvalues --    2.38883   2.39828   2.40616   2.42384   2.42697
  Beta virt. eigenvalues --    2.43151   2.44039   2.45441   2.45698   2.48508
  Beta virt. eigenvalues --    2.49661   2.50731   2.53404   2.54741   2.55968
  Beta virt. eigenvalues --    2.57263   2.58589   2.59799   2.60829   2.61704
  Beta virt. eigenvalues --    2.62497   2.62639   2.64405   2.65718   2.66190
  Beta virt. eigenvalues --    2.66885   2.68009   2.68942   2.69843   2.71629
  Beta virt. eigenvalues --    2.74323   2.74635   2.74914   2.75143   2.77023
  Beta virt. eigenvalues --    2.77634   2.79041   2.80860   2.82335   2.83995
  Beta virt. eigenvalues --    2.85471   2.88240   2.88915   2.91905   2.93488
  Beta virt. eigenvalues --    2.94386   2.96291   2.97550   3.00844   3.02136
  Beta virt. eigenvalues --    3.06960   3.08587   3.17571   3.27750   3.29660
  Beta virt. eigenvalues --    3.34512   3.36855   3.44801   3.51238   3.78297
  Beta virt. eigenvalues --    3.88432   4.04146   4.04938   4.06387   4.07926
  Beta virt. eigenvalues --    4.09154   4.10553   4.11363   4.12156   4.14568
  Beta virt. eigenvalues --    4.15438   4.15606   4.18051   4.19450   4.21299
  Beta virt. eigenvalues --    4.22853   4.24054   4.28593   4.30324   4.33346
  Beta virt. eigenvalues --    4.34248   4.35405   4.38841   4.42066   4.43258
  Beta virt. eigenvalues --    4.48461   4.52281   4.60325   4.69759   4.79285
  Beta virt. eigenvalues --    4.81179   4.86224
          Condensed to atoms (all electrons):
          Atomic-Atomic Spin Densities.
 Mulliken charges and spin densities:
               1          2
     1  C   -0.172722   0.152013
     2  C    0.100489  -0.081014
     3  C   -0.261557   0.142554
     4  C    0.105601  -0.079926
     5  C    0.088570   0.186705
     6  C   -0.198961  -0.080320
     7  H    0.184648  -0.007310
     8  H    0.131909  -0.006131
     9  H    0.136263   0.002914
    10  C   -0.062608   0.000397
    11  C    0.106481   0.055844
    12  C   -0.203590  -0.031329
    13  C   -0.128934   0.064514
    14  C   -0.136384  -0.029240
    15  C   -0.186138   0.056158
    16  C    0.076297  -0.045654
    17  H    0.127972   0.001156
    18  H    0.131787  -0.003095
    19  H    0.132635   0.001062
    20  H    0.135220  -0.002537
    21  C   -0.437375  -0.000800
    22  H    0.145589  -0.000457
    23  H    0.146100   0.000417
    24  H    0.160258  -0.000073
    25  C   -0.436945  -0.000827
    26  H    0.143658   0.000546
    27  H    0.145951  -0.000452
    28  H    0.159101  -0.000072
    29  C    0.085723   0.442806
    30  C    0.218331  -0.106467
    31  C   -0.186356   0.119375
    32  C    0.211911  -0.117742
    33  C   -0.195268   0.066815
    34  H    0.137678  -0.007251
    35  C    0.094864   0.479500
    36  H    0.139359  -0.005014
    37  N   -0.613194   0.228281
    38  N   -0.608617   0.242734
    39  S    0.481716   0.160814
    40  C    0.086886  -0.092712
    41  C   -0.154844   0.141160
    42  C   -0.168583   0.140953
    43  C   -0.191064  -0.075700
    44  H    0.179622  -0.006742
    45  C   -0.190202  -0.076638
    46  H    0.134113  -0.006283
    47  C    0.178956   0.168124
    48  H    0.126818   0.002963
    49  H    0.129541   0.002892
    50  C   -0.343915  -0.012055
    51  H    0.159865   0.002392
    52  H    0.138618   0.002450
    53  C   -0.131677   0.008884
    54  H    0.123025   0.000125
    55  H    0.145859  -0.000160
    56  N   -0.714452   0.001187
    57  H    0.293301  -0.000070
    58  H    0.298672   0.000339
 Sum of Mulliken charges =  -0.00000   2.00000
 Mulliken charges and spin densities with hydrogens summed into heavy atoms:
               1          2
     1  C    0.011926   0.144704
     2  C    0.100489  -0.081014
     3  C   -0.129648   0.136423
     4  C    0.105601  -0.079926
     5  C    0.088570   0.186705
     6  C   -0.062697  -0.077406
    10  C   -0.062608   0.000397
    11  C    0.106481   0.055844
    12  C   -0.075618  -0.030173
    13  C    0.002853   0.061419
    14  C   -0.003749  -0.028178
    15  C   -0.050918   0.053621
    16  C    0.076297  -0.045654
    21  C    0.014572  -0.000912
    25  C    0.011765  -0.000805
    29  C    0.085723   0.442806
    30  C    0.218331  -0.106467
    31  C   -0.048678   0.112124
    32  C    0.211911  -0.117742
    33  C   -0.055909   0.061800
    35  C    0.094864   0.479500
    37  N   -0.613194   0.228281
    38  N   -0.608617   0.242734
    39  S    0.481716   0.160814
    40  C    0.086886  -0.092712
    41  C    0.024778   0.134417
    42  C   -0.034470   0.134670
    43  C   -0.064247  -0.072738
    45  C   -0.060661  -0.073746
    47  C    0.178956   0.168124
    50  C   -0.045432  -0.007213
    53  C    0.137206   0.008848
    56  N   -0.122479   0.001456
 Electronic spatial extent (au):  <R**2>=          27713.0278
 Charge=             -0.0000 electrons
 Dipole moment (field-independent basis, Debye):
    X=             -1.1855    Y=             -2.5011    Z=              0.1305  Tot=              2.7709
 Quadrupole moment (field-independent basis, Debye-Ang):
   XX=           -156.7845   YY=           -192.3274   ZZ=           -201.6385
   XY=              8.9701   XZ=              5.4246   YZ=             -2.7141
 Traceless Quadrupole moment (field-independent basis, Debye-Ang):
   XX=             26.7990   YY=             -8.7440   ZZ=            -18.0550
   XY=              8.9701   XZ=              5.4246   YZ=             -2.7141
 Octapole moment (field-independent basis, Debye-Ang**2):
  XXX=             63.2376  YYY=             -5.9017  ZZZ=             15.1026  XYY=            -59.4169
  XXY=            106.6783  XXZ=             81.1197  XZZ=             47.7558  YZZ=             -2.7873
  YYZ=             -1.4900  XYZ=             -4.2052
 Hexadecapole moment (field-independent basis, Debye-Ang**3):
 XXXX=         -29288.5510 YYYY=          -3626.8616 ZZZZ=           -581.3434 XXXY=           1396.3071
 XXXZ=            788.6715 YYYX=             46.1386 YYYZ=              0.2220 ZZZX=            115.7416
 ZZZY=            -12.1376 XXYY=          -6295.5705 XXZZ=          -5698.6661 YYZZ=           -729.2149
 XXYZ=           -154.0268 YYXZ=              1.9774 ZZXY=            -29.6903
 N-N= 3.072877558533D+03 E-N=-1.006772416668D+04  KE= 1.668880127003D+03
                          Isotropic Fermi Contact Couplings
        Atom                 a.u.       MegaHertz       Gauss      10(-4) cm-1
     1  C(13)              0.01584       8.90595       3.17786       2.97070
     2  C(13)             -0.01735      -9.75411      -3.48051      -3.25362
     3  C(13)              0.01675       9.41614       3.35991       3.14089
     4  C(13)             -0.01143      -6.42503      -2.29261      -2.14316
     5  C(13)              0.02028      11.40184       4.06846       3.80324
     6  C(13)             -0.01227      -6.89536      -2.46044      -2.30005
     7  H(1)              -0.00231      -5.15281      -1.83865      -1.71879
     8  H(1)              -0.00211      -4.71201      -1.68136      -1.57176
     9  H(1)               0.00093       2.08304       0.74328       0.69483
    10  C(13)              0.00024       0.13619       0.04860       0.04543
    11  C(13)              0.00611       3.43449       1.22551       1.14562
    12  C(13)             -0.00459      -2.57883      -0.92019      -0.86021
    13  C(13)              0.00690       3.87819       1.38384       1.29363
    14  C(13)             -0.00440      -2.47268      -0.88231      -0.82480
    15  C(13)              0.00610       3.43009       1.22394       1.14415
    16  C(13)             -0.00796      -4.47391      -1.59640      -1.49233
    17  H(1)               0.00036       0.80120       0.28589       0.26725
    18  H(1)              -0.00097      -2.15723      -0.76975      -0.71957
    19  H(1)               0.00033       0.73183       0.26114       0.24411
    20  H(1)              -0.00084      -1.86949      -0.66708      -0.62360
    21  C(13)             -0.00095      -0.53426      -0.19064      -0.17821
    22  H(1)              -0.00017      -0.38779      -0.13837      -0.12935
    23  H(1)               0.00008       0.18721       0.06680       0.06245
    24  H(1)               0.00002       0.03853       0.01375       0.01285
    25  C(13)             -0.00091      -0.51005      -0.18200      -0.17014
    26  H(1)               0.00009       0.20484       0.07309       0.06833
    27  H(1)              -0.00016      -0.36750      -0.13113      -0.12259
    28  H(1)               0.00001       0.03217       0.01148       0.01073
    29  C(13)              0.04633      26.04360       9.29301       8.68721
    30  C(13)             -0.02117     -11.89972      -4.24612      -3.96932
    31  C(13)              0.00453       2.54862       0.90941       0.85013
    32  C(13)             -0.02305     -12.95751      -4.62356      -4.32216
    33  C(13)             -0.00166      -0.93572      -0.33389      -0.31212
    34  H(1)              -0.00254      -5.66977      -2.02312      -1.89123
    35  C(13)              0.05098      28.65528      10.22492       9.55837
    36  H(1)              -0.00182      -4.06805      -1.45158      -1.35696
    37  N(14)              0.03520       5.68646       2.02907       1.89680
    38  N(14)              0.03751       6.05953       2.16219       2.02124
    39  S(33)              0.02011       3.45392       1.23244       1.15210
    40  C(13)             -0.01895     -10.65222      -3.80098      -3.55320
    41  C(13)              0.01512       8.49940       3.03280       2.83509
    42  C(13)              0.01718       9.65657       3.44570       3.22108
    43  C(13)             -0.01134      -6.37291      -2.27401      -2.12577
    44  H(1)              -0.00213      -4.76020      -1.69856      -1.58783
    45  C(13)             -0.01124      -6.31985      -2.25508      -2.10808
    46  H(1)              -0.00211      -4.71977      -1.68413      -1.57434
    47  C(13)              0.01861      10.45890       3.73200       3.48871
    48  H(1)               0.00090       2.00252       0.71455       0.66797
    49  H(1)               0.00092       2.05264       0.73243       0.68469
    50  C(13)             -0.00452      -2.54066      -0.90657      -0.84747
    51  H(1)               0.00123       2.74888       0.98087       0.91693
    52  H(1)               0.00118       2.64796       0.94486       0.88326
    53  C(13)              0.01191       6.69468       2.38883       2.23310
    54  H(1)              -0.00016      -0.35629      -0.12713      -0.11885
    55  H(1)              -0.00017      -0.37867      -0.13512      -0.12631
    56  N(14)              0.00147       0.23728       0.08467       0.07915
    57  H(1)              -0.00002      -0.05134      -0.01832      -0.01712
    58  H(1)               0.00018       0.40448       0.14433       0.13492
 --------------------------------------------------------
       Center         ----  Spin Dipole Couplings  ----
                      3XX-RR        3YY-RR        3ZZ-RR
 --------------------------------------------------------
     1   Atom       -0.070328     -0.064383      0.134711
     2   Atom        0.024410      0.009148     -0.033558
     3   Atom       -0.063214     -0.062643      0.125857
     4   Atom        0.034381      0.025507     -0.059888
     5   Atom       -0.088365     -0.094645      0.183009
     6   Atom        0.034336      0.026510     -0.060845
     7   Atom        0.001556      0.004268     -0.005824
     8   Atom       -0.002316      0.007535     -0.005219
     9   Atom        0.003863     -0.000600     -0.003263
    10   Atom        0.001255      0.001107     -0.002362
    11   Atom       -0.026345     -0.026373      0.052718
    12   Atom        0.014171      0.010415     -0.024586
    13   Atom       -0.029785     -0.031940      0.061724
    14   Atom        0.011721      0.010676     -0.022397
    15   Atom       -0.025878     -0.026245      0.052123
    16   Atom        0.016801      0.009468     -0.026268
    17   Atom        0.001860     -0.000712     -0.001148
    18   Atom        0.003865     -0.003283     -0.000582
    19   Atom        0.000585      0.000470     -0.001055
    20   Atom       -0.001979      0.003267     -0.001288
    21   Atom        0.001478     -0.000132     -0.001347
    22   Atom        0.000155      0.000457     -0.000613
    23   Atom        0.000366      0.000593     -0.000959
    24   Atom        0.000709     -0.000312     -0.000397
    25   Atom        0.001521     -0.000275     -0.001246
    26   Atom        0.000472      0.000880     -0.001353
    27   Atom        0.000199      0.000665     -0.000864
    28   Atom        0.000783      0.000124     -0.000906
    29   Atom       -0.233588     -0.206949      0.440537
    30   Atom        0.030162      0.053574     -0.083736
    31   Atom       -0.079277     -0.061754      0.141031
    32   Atom        0.034562      0.057474     -0.092035
    33   Atom       -0.051998     -0.046194      0.098192
    34   Atom       -0.002814      0.008912     -0.006099
    35   Atom       -0.249508     -0.225132      0.474640
    36   Atom       -0.005435      0.011629     -0.006195
    37   Atom       -0.261351     -0.219645      0.480995
    38   Atom       -0.280135     -0.234278      0.514414
    39   Atom       -0.429927     -0.409147      0.839075
    40   Atom        0.029686      0.014860     -0.044545
    41   Atom       -0.061185     -0.054901      0.116086
    42   Atom       -0.066610     -0.056251      0.122861
    43   Atom        0.031417      0.025487     -0.056904
    44   Atom       -0.000636      0.006124     -0.005488
    45   Atom        0.033508      0.024653     -0.058161
    46   Atom       -0.000939      0.005998     -0.005059
    47   Atom       -0.080963     -0.084591      0.165554
    48   Atom        0.002745      0.000246     -0.002991
    49   Atom        0.003485     -0.000634     -0.002851
    50   Atom        0.001620     -0.003296      0.001676
    51   Atom        0.001708     -0.000015     -0.001693
    52   Atom        0.003107     -0.001558     -0.001549
    53   Atom       -0.000023     -0.006953      0.006977
    54   Atom        0.001120     -0.000801     -0.000320
    55   Atom        0.000470     -0.001029      0.000559
    56   Atom        0.003831     -0.002042     -0.001789
    57   Atom        0.001213     -0.000622     -0.000591
    58   Atom        0.000730     -0.000619     -0.000111
 --------------------------------------------------------
                        XY            XZ            YZ
 --------------------------------------------------------
     1   Atom       -0.000346      0.002427      0.043318
     2   Atom       -0.001587     -0.000993     -0.007417
     3   Atom        0.005494      0.021809      0.033803
     4   Atom       -0.001466     -0.001668     -0.008455
     5   Atom       -0.000203      0.008869      0.021430
     6   Atom        0.001724     -0.003858     -0.007641
     7   Atom        0.006187     -0.000024     -0.001515
     8   Atom       -0.002409      0.000091     -0.000236
     9   Atom        0.001510     -0.000246     -0.000363
    10   Atom        0.001525     -0.000538     -0.000581
    11   Atom        0.001270      0.002178      0.009056
    12   Atom        0.000125     -0.001435     -0.003588
    13   Atom        0.001418      0.003825      0.009155
    14   Atom        0.001111     -0.001392     -0.003404
    15   Atom        0.000013      0.003174      0.008292
    16   Atom       -0.000749     -0.001976     -0.003621
    17   Atom        0.000141     -0.000124     -0.000038
    18   Atom        0.003136     -0.000477      0.000137
    19   Atom        0.000742     -0.000126     -0.000181
    20   Atom       -0.000111      0.000047     -0.000498
    21   Atom        0.000652     -0.000223      0.000118
    22   Atom        0.000529     -0.000346     -0.000654
    23   Atom        0.001409     -0.000779     -0.000986
    24   Atom        0.000577     -0.000594     -0.001194
    25   Atom        0.000655     -0.000077     -0.000390
    26   Atom        0.001575      0.000346      0.000505
    27   Atom        0.000614      0.000166      0.000354
    28   Atom        0.000712      0.000358      0.001043
    29   Atom       -0.007855      0.022378     -0.131993
    30   Atom        0.003016     -0.001902      0.027954
    31   Atom       -0.003598     -0.002239     -0.066888
    32   Atom        0.004879      0.001735      0.030502
    33   Atom        0.004301     -0.001141     -0.047937
    34   Atom        0.011658      0.003020      0.004429
    35   Atom        0.005353     -0.011859     -0.138580
    36   Atom       -0.005552     -0.001324      0.005015
    37   Atom       -0.001427      0.028957     -0.167944
    38   Atom        0.002654     -0.027512     -0.171664
    39   Atom       -0.003837      0.008098     -0.245328
    40   Atom       -0.003247     -0.004835     -0.011230
    41   Atom        0.006320      0.022634      0.049044
    42   Atom       -0.002970     -0.002135      0.047173
    43   Atom       -0.004293     -0.004490     -0.011594
    44   Atom       -0.004135     -0.000876     -0.001395
    45   Atom       -0.000680     -0.006334     -0.011004
    46   Atom        0.004458     -0.000543     -0.000696
    47   Atom       -0.000206      0.012137      0.030912
    48   Atom       -0.002292     -0.000185     -0.000318
    49   Atom        0.000506     -0.000530     -0.000374
    50   Atom       -0.001034      0.000873      0.000871
    51   Atom       -0.002368     -0.000400      0.000300
    52   Atom        0.000567     -0.001025     -0.000140
    53   Atom       -0.000143      0.008583      0.000272
    54   Atom        0.000328      0.001443      0.001269
    55   Atom       -0.000904      0.001018     -0.001522
    56   Atom       -0.000168      0.001418     -0.000141
    57   Atom        0.000037      0.000137     -0.000107
    58   Atom       -0.000275      0.000518     -0.000097
 --------------------------------------------------------


 ---------------------------------------------------------------------------------
              Anisotropic Spin Dipole Couplings in Principal Axis System
 ---------------------------------------------------------------------------------

       Atom             a.u.   MegaHertz   Gauss  10(-4) cm-1        Axes

              Baa    -0.0736    -9.878    -3.525    -3.295  0.2476  0.9480 -0.2000
     1 C(13)  Bbb    -0.0701    -9.412    -3.358    -3.140  0.9688 -0.2446  0.0402
              Bcc     0.1438    19.290     6.883     6.435  0.0108  0.2037  0.9790
 
              Baa    -0.0348    -4.675    -1.668    -1.559  0.0210  0.1670  0.9857
     2 C(13)  Bbb     0.0103     1.377     0.491     0.459  0.0982  0.9808 -0.1682
              Bcc     0.0246     3.298     1.177     1.100  0.9949 -0.1003 -0.0042
 
              Baa    -0.0693    -9.300    -3.318    -3.102 -0.4227  0.8997 -0.1086
     3 C(13)  Bbb    -0.0650    -8.719    -3.111    -2.908  0.8992  0.4015 -0.1739
              Bcc     0.1343    18.019     6.430     6.011  0.1128  0.1712  0.9788
 
              Baa    -0.0608    -8.152    -2.909    -2.719  0.0190  0.0979  0.9950
     4 C(13)  Bbb     0.0261     3.507     1.251     1.170  0.1546  0.9829 -0.0996
              Bcc     0.0346     4.645     1.658     1.550  0.9878 -0.1557 -0.0035
 
              Baa    -0.0964   -12.935    -4.615    -4.314  0.1130  0.9904 -0.0796
     5 C(13)  Bbb    -0.0885   -11.882    -4.240    -3.964  0.9931 -0.1152 -0.0233
              Bcc     0.1849    24.817     8.855     8.278  0.0323  0.0764  0.9966
 
              Baa    -0.0617    -8.273    -2.952    -2.760  0.0385  0.0855  0.9956
     6 C(13)  Bbb     0.0266     3.575     1.275     1.192 -0.2527  0.9648 -0.0731
              Bcc     0.0350     4.698     1.677     1.567  0.9668  0.2488 -0.0587
 
              Baa    -0.0062    -3.322    -1.185    -1.108 -0.1991  0.2540  0.9465
     7 H(1)   Bbb    -0.0031    -1.662    -0.593    -0.554  0.7586 -0.5715  0.3129
              Bcc     0.0093     4.984     1.778     1.662  0.6204  0.7803 -0.0789
 
              Baa    -0.0052    -2.787    -0.995    -0.930 -0.0188  0.0149  0.9997
     8 H(1)   Bbb    -0.0029    -1.533    -0.547    -0.511  0.9741  0.2258  0.0149
              Bcc     0.0081     4.320     1.541     1.441 -0.2255  0.9741 -0.0188
 
              Baa    -0.0033    -1.767    -0.631    -0.589  0.0069  0.1288  0.9917
     9 H(1)   Bbb    -0.0010    -0.549    -0.196    -0.183 -0.2982  0.9468 -0.1209
              Bcc     0.0043     2.316     0.827     0.773  0.9545  0.2949 -0.0449
 
              Baa    -0.0025    -0.333    -0.119    -0.111  0.0932  0.1205  0.9883
    10 C(13)  Bbb    -0.0003    -0.046    -0.017    -0.015 -0.6938  0.7199 -0.0224
              Bcc     0.0028     0.379     0.135     0.127  0.7142  0.6836 -0.1507
 
              Baa    -0.0280    -3.762    -1.342    -1.255 -0.5309  0.8436 -0.0803
    11 C(13)  Bbb    -0.0258    -3.459    -1.234    -1.154  0.8469  0.5250 -0.0841
              Bcc     0.0538     7.221     2.576     2.409  0.0288  0.1126  0.9932
 
              Baa    -0.0250    -3.355    -1.197    -1.119  0.0361  0.1006  0.9943
    12 C(13)  Bbb     0.0108     1.444     0.515     0.482 -0.0775  0.9922 -0.0976
              Bcc     0.0142     1.911     0.682     0.638  0.9963  0.0735 -0.0436
 
              Baa    -0.0332    -4.450    -1.588    -1.484 -0.3084  0.9480 -0.0790
    13 C(13)  Bbb    -0.0296    -3.974    -1.418    -1.326  0.9503  0.3033 -0.0702
              Bcc     0.0628     8.424     3.006     2.810  0.0426  0.0967  0.9944
 
              Baa    -0.0228    -3.058    -1.091    -1.020  0.0369  0.0999  0.9943
    14 C(13)  Bbb     0.0101     1.355     0.483     0.452 -0.5969  0.8002 -0.0583
              Bcc     0.0127     1.704     0.608     0.568  0.8015  0.5913 -0.0891
 
              Baa    -0.0272    -3.650    -1.302    -1.217  0.2568  0.9601 -0.1106
    15 C(13)  Bbb    -0.0259    -3.478    -1.241    -1.160  0.9656 -0.2596 -0.0117
              Bcc     0.0531     7.128     2.543     2.378  0.0399  0.1038  0.9938
 
              Baa    -0.0267    -3.587    -1.280    -1.196  0.0468  0.1004  0.9938
    16 C(13)  Bbb     0.0098     1.314     0.469     0.438  0.0767  0.9916 -0.1038
              Bcc     0.0169     2.273     0.811     0.758  0.9960 -0.0811 -0.0388
 
              Baa    -0.0012    -0.616    -0.220    -0.206  0.0377  0.0723  0.9967
    17 H(1)   Bbb    -0.0007    -0.383    -0.137    -0.128 -0.0579  0.9959 -0.0701
              Bcc     0.0019     0.999     0.357     0.333  0.9976  0.0551 -0.0418
 
              Baa    -0.0045    -2.394    -0.854    -0.798 -0.3543  0.9320 -0.0760
    18 H(1)   Bbb    -0.0006    -0.314    -0.112    -0.105  0.0389  0.0959  0.9946
              Bcc     0.0051     2.707     0.966     0.903  0.9343  0.3494 -0.0703
 
              Baa    -0.0011    -0.575    -0.205    -0.192  0.0299  0.1020  0.9943
    19 H(1)   Bbb    -0.0002    -0.114    -0.041    -0.038 -0.6842  0.7273 -0.0540
              Bcc     0.0013     0.689     0.246     0.230  0.7287  0.6787 -0.0916
 
              Baa    -0.0020    -1.058    -0.378    -0.353  0.9983  0.0158 -0.0567
    20 H(1)   Bbb    -0.0013    -0.715    -0.255    -0.238  0.0546  0.1087  0.9926
              Bcc     0.0033     1.773     0.633     0.591 -0.0218  0.9939 -0.1077
 
              Baa    -0.0014    -0.186    -0.067    -0.062  0.1103 -0.1493  0.9826
    21 C(13)  Bbb    -0.0003    -0.044    -0.016    -0.015 -0.3145  0.9326  0.1770
              Bcc     0.0017     0.231     0.082     0.077  0.9428  0.3286 -0.0559
 
              Baa    -0.0009    -0.497    -0.177    -0.166  0.0999  0.3925  0.9143
    22 H(1)   Bbb    -0.0002    -0.122    -0.043    -0.041  0.8417 -0.5233  0.1327
              Bcc     0.0012     0.619     0.221     0.206  0.5305  0.7564 -0.3826
 
              Baa    -0.0014    -0.772    -0.275    -0.257  0.1072  0.3717  0.9222
    23 H(1)   Bbb    -0.0009    -0.490    -0.175    -0.164  0.7717 -0.6159  0.1585
              Bcc     0.0024     1.262     0.450     0.421  0.6269  0.6946 -0.3528
 
              Baa    -0.0015    -0.827    -0.295    -0.276  0.0135  0.6909  0.7228
    24 H(1)   Bbb    -0.0001    -0.030    -0.011    -0.010  0.7345 -0.4974  0.4617
              Bcc     0.0016     0.857     0.306     0.286  0.6785  0.5246 -0.5142
 
              Baa    -0.0014    -0.187    -0.067    -0.062 -0.0560  0.3582  0.9320
    25 C(13)  Bbb    -0.0004    -0.048    -0.017    -0.016 -0.3207  0.8775 -0.3566
              Bcc     0.0017     0.234     0.084     0.078  0.9455  0.3188 -0.0657
 
              Baa    -0.0015    -0.780    -0.278    -0.260 -0.0066 -0.2067  0.9784
    26 H(1)   Bbb    -0.0009    -0.481    -0.172    -0.161  0.7610 -0.6358 -0.1292
              Bcc     0.0024     1.261     0.450     0.421  0.6487  0.7437  0.1615
 
              Baa    -0.0009    -0.503    -0.179    -0.168 -0.0338 -0.2025  0.9787
    27 H(1)   Bbb    -0.0002    -0.117    -0.042    -0.039  0.8340 -0.5453 -0.0840
              Bcc     0.0012     0.620     0.221     0.207  0.5507  0.8134  0.1873
 
              Baa    -0.0016    -0.831    -0.296    -0.277  0.0349 -0.5375  0.8425
    28 H(1)   Bbb    -0.0000    -0.008    -0.003    -0.003  0.7036 -0.5855 -0.4027
              Bcc     0.0016     0.839     0.299     0.280  0.7098  0.6068  0.3578
 
              Baa    -0.2371   -31.815   -11.352   -10.612  0.7813  0.6169  0.0944
    29 C(13)  Bbb    -0.2301   -30.878   -11.018   -10.300 -0.6232  0.7631  0.1710
              Bcc     0.4672    62.693    22.371    20.912  0.0335 -0.1924  0.9807
 
              Baa    -0.0893   -11.978    -4.274    -3.995  0.0205 -0.1924  0.9811
    30 C(13)  Bbb     0.0300     4.023     1.436     1.342  0.9958 -0.0833 -0.0371
              Bcc     0.0593     7.955     2.838     2.653  0.0889  0.9778  0.1899
 
              Baa    -0.0848   -11.385    -4.062    -3.797  0.5927  0.7707  0.2341
    31 C(13)  Bbb    -0.0763   -10.235    -3.652    -3.414  0.8054 -0.5688 -0.1668
              Bcc     0.1611    21.620     7.714     7.212 -0.0046 -0.2874  0.9578
 
              Baa    -0.0980   -13.154    -4.694    -4.388 -0.0058 -0.1923  0.9813
    32 C(13)  Bbb     0.0337     4.520     1.613     1.508  0.9855 -0.1675 -0.0270
              Bcc     0.0643     8.634     3.081     2.880  0.1695  0.9669  0.1905
 
              Baa    -0.0621    -8.331    -2.973    -2.779 -0.3524  0.8973  0.2659
    33 C(13)  Bbb    -0.0506    -6.791    -2.423    -2.265  0.9357  0.3336  0.1146
              Bcc     0.1127    15.122     5.396     5.044 -0.0142 -0.2892  0.9572
 
              Baa    -0.0100    -5.347    -1.908    -1.784  0.8573 -0.5075 -0.0871
    34 H(1)   Bbb    -0.0073    -3.896    -1.390    -1.299 -0.0409 -0.2358  0.9709
              Bcc     0.0173     9.243     3.298     3.083  0.5133  0.8288  0.2229
 
              Baa    -0.2538   -34.061   -12.154   -11.361 -0.5947  0.7915  0.1409
    35 C(13)  Bbb    -0.2475   -33.209   -11.850   -11.077  0.8038  0.5817  0.1248
              Bcc     0.5013    67.269    24.003    22.439 -0.0168 -0.1875  0.9821
 
              Baa    -0.0075    -4.023    -1.436    -1.342 -0.2377 -0.3097  0.9206
    36 H(1)   Bbb    -0.0070    -3.752    -1.339    -1.251  0.9318  0.1950  0.3062
              Bcc     0.0146     7.775     2.774     2.593 -0.2743  0.9306  0.2423
 
              Baa    -0.2656   -10.245    -3.656    -3.417  0.8403 -0.5210 -0.1498
    37 N(14)  Bbb    -0.2546    -9.819    -3.504    -3.275  0.5408  0.8244  0.1669
              Bcc     0.5202    20.064     7.159     6.692  0.0365 -0.2213  0.9745
 
              Baa    -0.2821   -10.879    -3.882    -3.629  0.9526  0.2888  0.0952
    38 N(14)  Bbb    -0.2707   -10.441    -3.726    -3.483 -0.3023  0.9334  0.1935
              Bcc     0.5528    21.320     7.608     7.112 -0.0329 -0.2131  0.9765
 
              Baa    -0.4558   -18.689    -6.669    -6.234  0.0872  0.9789  0.1849
    39 S(33)  Bbb    -0.4298   -17.621    -6.288    -5.878  0.9962 -0.0845 -0.0227
              Bcc     0.8856    36.310    12.956    12.112  0.0066 -0.1862  0.9825
 
              Baa    -0.0470    -6.303    -2.249    -2.102  0.0696  0.1818  0.9809
    40 C(13)  Bbb     0.0165     2.216     0.791     0.739  0.1682  0.9670 -0.1912
              Bcc     0.0305     4.087     1.458     1.363  0.9833 -0.1783 -0.0367
 
              Baa    -0.0680    -9.123    -3.255    -3.043 -0.0695  0.9660 -0.2488
    41 C(13)  Bbb    -0.0640    -8.591    -3.066    -2.866  0.9902  0.0366 -0.1344
              Bcc     0.1320    17.715     6.321     5.909  0.1207  0.2558  0.9592
 
              Baa    -0.0697    -9.358    -3.339    -3.121  0.6089  0.7720 -0.1823
    42 C(13)  Bbb    -0.0648    -8.699    -3.104    -2.902  0.7931 -0.5885  0.1569
              Bcc     0.1346    18.057     6.443     6.023 -0.0138  0.2402  0.9706
 
              Baa    -0.0588    -7.888    -2.815    -2.631  0.0558  0.1389  0.9887
    43 C(13)  Bbb     0.0251     3.367     1.201     1.123  0.4810  0.8641 -0.1485
              Bcc     0.0337     4.522     1.613     1.508  0.8750 -0.4838  0.0186
 
              Baa    -0.0061    -3.252    -1.160    -1.085  0.3081  0.2102  0.9278
    44 H(1)   Bbb    -0.0020    -1.093    -0.390    -0.364  0.8537  0.3693 -0.3672
              Bcc     0.0081     4.344     1.550     1.449 -0.4198  0.9052 -0.0657
 
              Baa    -0.0600    -8.056    -2.874    -2.687  0.0679  0.1291  0.9893
    45 C(13)  Bbb     0.0261     3.501     1.249     1.168 -0.0185  0.9916 -0.1281
              Bcc     0.0339     4.555     1.625     1.519  0.9975  0.0096 -0.0697
 
              Baa    -0.0051    -2.738    -0.977    -0.913  0.1093  0.0184  0.9938
    46 H(1)   Bbb    -0.0031    -1.655    -0.591    -0.552  0.8917 -0.4437 -0.0898
              Bcc     0.0082     4.393     1.568     1.465  0.4393  0.8960 -0.0649
 
              Baa    -0.0887   -11.908    -4.249    -3.972  0.2256  0.9658 -0.1282
    47 C(13)  Bbb    -0.0812   -10.890    -3.886    -3.632  0.9730 -0.2298 -0.0191
              Bcc     0.1699    22.798     8.135     7.605  0.0479  0.1204  0.9916
 
              Baa    -0.0031    -1.633    -0.583    -0.545  0.0946  0.1600  0.9826
    48 H(1)   Bbb    -0.0010    -0.558    -0.199    -0.186  0.5018  0.8448 -0.1859
              Bcc     0.0041     2.191     0.782     0.731  0.8598 -0.5107  0.0004
 
              Baa    -0.0029    -1.571    -0.560    -0.524  0.0701  0.1445  0.9870
    49 H(1)   Bbb    -0.0007    -0.349    -0.125    -0.116 -0.1372  0.9814 -0.1339
              Bcc     0.0036     1.920     0.685     0.640  0.9881  0.1261 -0.0886
 
              Baa    -0.0037    -0.497    -0.177    -0.166  0.2172  0.9574 -0.1902
    50 C(13)  Bbb     0.0012     0.158     0.057     0.053 -0.6737  0.2880  0.6806
              Bcc     0.0025     0.339     0.121     0.113  0.7064 -0.0197  0.7076
 
              Baa    -0.0017    -0.932    -0.332    -0.311 -0.0481 -0.2342  0.9710
    51 H(1)   Bbb    -0.0017    -0.891    -0.318    -0.297  0.5774  0.7867  0.2183
              Bcc     0.0034     1.823     0.650     0.608  0.8150 -0.5712 -0.0974
 
              Baa    -0.0018    -0.943    -0.336    -0.315  0.1881  0.1402  0.9721
    52 H(1)   Bbb    -0.0016    -0.866    -0.309    -0.289 -0.1427  0.9832 -0.1142
              Bcc     0.0034     1.809     0.646     0.604  0.9717  0.1172 -0.2049
 
              Baa    -0.0070    -0.941    -0.336    -0.314  0.1755  0.9763 -0.1267
    53 C(13)  Bbb    -0.0057    -0.769    -0.274    -0.257  0.8112 -0.2163 -0.5432
              Bcc     0.0127     1.710     0.610     0.571  0.5578  0.0074  0.8300
 
              Baa    -0.0020    -1.083    -0.386    -0.361 -0.2545 -0.6611  0.7058
    54 H(1)   Bbb    -0.0003    -0.157    -0.056    -0.052 -0.5932  0.6831  0.4260
              Bcc     0.0023     1.240     0.442     0.413  0.7638  0.3102  0.5660
 
              Baa    -0.0020    -1.058    -0.377    -0.353  0.1257  0.8726  0.4720
    55 H(1)   Bbb    -0.0004    -0.229    -0.082    -0.076  0.8119  0.1830 -0.5544
              Bcc     0.0024     1.287     0.459     0.429  0.5702 -0.4529  0.6854
 
              Baa    -0.0022    -0.085    -0.030    -0.028 -0.1746  0.5622  0.8084
    56 N(14)  Bbb    -0.0020    -0.076    -0.027    -0.025  0.1558  0.8264 -0.5410
              Bcc     0.0042     0.161     0.057     0.054  0.9722 -0.0315  0.2319
 
              Baa    -0.0007    -0.385    -0.137    -0.128 -0.0618  0.7409  0.6688
    57 H(1)   Bbb    -0.0005    -0.268    -0.096    -0.089 -0.0446 -0.6714  0.7397
              Bcc     0.0012     0.653     0.233     0.218  0.9971  0.0158  0.0745
 
              Baa    -0.0007    -0.359    -0.128    -0.120  0.1965  0.9804 -0.0116
    58 H(1)   Bbb    -0.0004    -0.189    -0.068    -0.063 -0.4098  0.0929  0.9074
              Bcc     0.0010     0.549     0.196     0.183  0.8907 -0.1735  0.4201
 

 ---------------------------------------------------------------------------------

 No NMR shielding tensors so no spin-rotation constants.
 Leave Link  601 at Thu Mar 14 09:28:56 2024, MaxMem= 32212254720 cpu:               8.3 elap:               0.3
 (Enter /home/<user>/g16/l9999.exe)

 Test job not archived.
 1\1\GINC-PB-207\FOpt\UB3LYP\6-31G(d)\C29H25N3S1(3)\PB-207\14-Mar-2024\
 0\\#p opt b3lyp/6-31g(d)\\T1OPT\\0,3\C,-2.4850647046,1.6766636086,-0.5
 303003958\C,-1.781790651,0.4549000644,-0.301801276\C,-2.5659035273,-0.
 7054247985,-0.0106077474\C,-3.9408111938,-0.633720254,0.0414962006\C,-
 4.6104365299,0.5885134268,-0.2022123846\C,-3.8682657992,1.7421183544,-
 0.4883802051\H,-1.9130346124,2.5682012832,-0.7455002944\H,-2.075811775
 5,-1.6460699891,0.2157489926\H,-4.3661446301,2.6891320191,-0.680292141
 6\C,-4.9438302498,-1.7468080602,0.3514346761\C,-6.2670361904,-0.989941
 4094,0.2366434107\C,-7.561394546,-1.4662545277,0.4055611043\C,-8.63856
 62891,-0.5843913526,0.2522503354\C,-8.4196607468,0.761302909,-0.066937
 1965\C,-7.1237939393,1.24794474,-0.238195097\C,-6.0468527967,0.3674611
 23,-0.0856880339\H,-7.7449448228,-2.508934819,0.6540880307\H,-9.654292
 4897,-0.9479675825,0.3825172937\H,-9.2670638134,1.4316838754,-0.182034
 8746\H,-6.9571132474,2.2929928311,-0.4858881486\C,-4.740451967,-2.3092
 210039,1.7763387645\H,-5.5076385885,-3.0563590637,2.0102850836\H,-3.76
 13661997,-2.7940174217,1.8652376882\H,-4.7971768225,-1.5141027713,2.52
 64364333\C,-4.8573697404,-2.8898014587,-0.6845803495\H,-3.8802700482,-
 3.3841858167,-0.6345568244\H,-5.6264161113,-3.6465391514,-0.4912092273
 \H,-4.9975931357,-2.5119731586,-1.7023258915\C,-0.3416268491,0.3684717
 736,-0.3662628134\C,0.5588435476,1.4985100117,-0.3129970548\C,0.308941
 8935,-0.9248425951,-0.5025103876\C,2.0164144568,1.3135367105,-0.343489
 0759\C,1.6574361845,-1.0922565644,-0.5314712929\H,-0.3125917458,-1.798
 907266,-0.6535744615\C,2.6046867055,0.0001398066,-0.4295795621\H,2.042
 7615369,-2.0907864743,-0.7008387362\N,0.1896161883,2.7702852359,-0.190
 9232513\N,2.6996330723,2.4516376587,-0.2435821488\S,1.5858923869,3.702
 398348,-0.1293463567\C,4.0321780805,-0.2666793144,-0.427575397\C,4.999
 9864586,0.7221560591,-0.7458927098\C,4.5261216302,-1.5616527201,-0.113
 625829\C,6.3546678831,0.42222008,-0.7585776195\H,4.6680828526,1.722049
 5117,-0.9893985765\C,5.883644307,-1.8427422022,-0.1181216971\H,3.83838
 24945,-2.3486523233,0.1755654566\C,6.8324729233,-0.8603880093,-0.44567
 57161\H,7.0642898714,1.2026315495,-1.0256434437\H,6.2207048136,-2.8446
 429903,0.1389228956\C,8.3106258484,-1.1638853647,-0.4138932979\H,8.497
 7050925,-2.2118356745,-0.6743776876\H,8.8310943187,-0.5509683472,-1.16
 2985364\C,8.9414425857,-0.8984756263,0.9662333647\H,8.7444220896,0.150
 204372,1.2528849236\H,8.4388549675,-1.5252825157,1.7129067452\N,10.360
 5309923,-1.2668082345,0.9514152712\H,10.8753500781,-0.6190141174,0.355
 3694841\H,10.7533185036,-1.1591363737,1.8852634128\\Version=ES64L-G16R
 evC.01\State=3-A\HF=-1682.543935\S2=2.036734\S2-1=0.\S2A=2.000889\RMSD
 =5.298e-09\RMSF=7.098e-06\Dipole=-0.4635214,-0.9706981,0.176984\Quadru
 pole=19.9388203,-7.0837742,-12.8550462,7.150929,2.9581217,-2.8545464\P
 G=C01 [X(C29H25N3S1)]\\@


 Boundary, n.  In political geography, an imaginary
 line between two nations, separating the imaginary
 rights of one from the imaginary rights of another.
                               -- Ambrose Bierce
 Job cpu time:       0 days  4 hours 30 minutes 14.9 seconds.
 Elapsed time:       0 days  0 hours  9 minutes  1.4 seconds.
 File lengths (MBytes):  RWF=    335 Int=      0 D2E=      0 Chk=     32 Scr=      1
 Normal termination of Gaussian 16 at Thu Mar 14 09:28:56 2024.
