%mem=240GB
%nprocshared=30
%chk=FBTP_T1abs.chk
#p td=(nstates=10) m062x/def2tzvp

T1ABS

0 3
C	 -2.480164    1.687094   -0.253245
C	 -1.780608    0.444522   -0.174830
C	 -2.568704   -0.741048   -0.035878
C	 -3.943792   -0.672831    0.016142
C	 -4.609600    0.572019   -0.077093
C	 -3.863490    1.750404   -0.212163
H	 -1.905129    2.597041   -0.351729
H	 -2.081804   -1.703882    0.074209
H	 -4.358392    2.715272   -0.287329
C	 -4.950827   -1.813307    0.178221
C	 -6.271885   -1.044580    0.150618
C	 -7.568180   -1.534891    0.250544
C	 -8.642732   -0.637976    0.201894
C	 -8.419312    0.736483    0.054786
C	 -7.121475    1.237331   -0.046161
C	 -6.047146    0.341885    0.001863
H	 -7.755236   -2.599974    0.365642
H	 -9.659944   -1.012331    0.279313
H	 -9.264732    1.418200    0.019059
H	 -6.951290    2.304703   -0.160242
C	 -4.757813   -2.549914    1.522906
H	 -5.527863   -3.318428    1.656810
H	 -3.780207   -3.044572    1.556663
H	 -4.818023   -1.854627    2.366130
C	 -4.859634   -2.818087   -0.991966
H	 -3.883776   -3.317393   -0.997990
H	 -5.631295   -3.591049   -0.899529
H	 -4.992498   -2.315665   -1.955368
C	 -0.340210    0.363072   -0.240540
C	  0.561927    1.475241   -0.040796
C	  0.308906   -0.904768   -0.533278
C	  2.019331    1.291728   -0.085011
C	  1.657257   -1.070767   -0.574465
H	 -0.313198   -1.751477   -0.796306
C	  2.605787   -0.002143   -0.330888
H	  2.041884   -2.041304   -0.864884
N	  0.194200    2.722749    0.236955
N	  2.703930    2.406635    0.160651
S	  1.591720    3.636214    0.423322
C	  4.032751   -0.270843   -0.353281
C	  5.004407    0.747494   -0.539424
C	  4.522290   -1.596183   -0.200552
C	  6.358600    0.447962   -0.580987
H	  4.675911    1.770842   -0.658126
C	  5.879304   -1.878047   -0.231617
H	  3.831251   -2.411357   -0.016320
C	  6.832029   -0.864936   -0.427854
H	  7.071364    1.253778   -0.743954
H	  6.212864   -2.905092   -0.099701
C	  8.309393   -1.173881   -0.424969
H	  8.496287   -2.181546   -0.813211
H	  8.835867   -0.473512   -1.088296
C	  8.931621   -1.084677    0.981443
H	  8.734616   -0.079532    1.395676
H	  8.423018   -1.798571    1.640746
N	 10.350110   -1.451970    0.929619
H	 10.869994   -0.736110    0.422460
H	 10.736958   -1.462873    1.872051

