 Entering Gaussian System, Link 0=g16
 Initial command:
 /home/<user>/g16/l1.exe "/media/<user>/Gaussian/g16/scratch/Gau-212945.inp" -scrdir="/media/<user>/Gaussian/g16/scratch/"
 Default is to use a total of  96 processors:
                               96 via shared-memory
                                1 via Linda
 Entering Link 1 = /home/<user>/g16/l1.exe PID=    212947.
  
 Copyright (c) 1988-2019, Gaussian, Inc.  All Rights Reserved.
  
 This is part of the Gaussian(R) 16 program.  It is based on
 the Gaussian(R) 09 system (copyright 2009, Gaussian, Inc.),
 the Gaussian(R) 03 system (copyright 2003, Gaussian, Inc.),
 the Gaussian(R) 98 system (copyright 1998, Gaussian, Inc.),
 the Gaussian(R) 94 system (copyright 1995, Gaussian, Inc.),
 the Gaussian 92(TM) system (copyright 1992, Gaussian, Inc.),
 the Gaussian 90(TM) system (copyright 1990, Gaussian, Inc.),
 the Gaussian 88(TM) system (copyright 1988, Gaussian, Inc.),
 the Gaussian 86(TM) system (copyright 1986, Carnegie Mellon
 University), and the Gaussian 82(TM) system (copyright 1983,
 Carnegie Mellon University). Gaussian is a federally registered
 trademark of Gaussian, Inc.
  
 This software contains proprietary and confidential information,
 including trade secrets, belonging to Gaussian, Inc.
  
 This software is provided under written license and may be
 used, copied, transmitted, or stored only in accord with that
 written license.
  
 The following legend is applicable only to US Government
 contracts under FAR:
  
                    RESTRICTED RIGHTS LEGEND
  
 Use, reproduction and disclosure by the US Government is
 subject to restrictions as set forth in subparagraphs (a)
 and (c) of the Commercial Computer Software - Restricted
 Rights clause in FAR 52.227-19.
  
 Gaussian, Inc.
 340 Quinnipiac St., Bldg. 40, Wallingford CT 06492
  
  
 ---------------------------------------------------------------
 Warning -- This program may not be used in any manner that
 competes with the business of Gaussian, Inc. or will provide
 assistance to any competitor of Gaussian, Inc.  The licensee
 of this program is prohibited from giving any competitor of
 Gaussian, Inc. access to this program.  By using this program,
 the user acknowledges that Gaussian, Inc. is engaged in the
 business of creating and licensing software in the field of
 computational chemistry and represents and warrants to the
 licensee that it is not a competitor of Gaussian, Inc. and that
 it will not use this program in any manner prohibited above.
 ---------------------------------------------------------------
  

 Cite this work as:
 Gaussian 16, Revision C.01,
 M. J. Frisch, G. W. Trucks, H. B. Schlegel, G. E. Scuseria, 
 M. A. Robb, J. R. Cheeseman, G. Scalmani, V. Barone, 
 G. A. Petersson, H. Nakatsuji, X. Li, M. Caricato, A. V. Marenich, 
 J. Bloino, B. G. Janesko, R. Gomperts, B. Mennucci, H. P. Hratchian, 
 J. V. Ortiz, A. F. Izmaylov, J. L. Sonnenberg, D. Williams-Young, 
 F. Ding, F. Lipparini, F. Egidi, J. Goings, B. Peng, A. Petrone, 
 T. Henderson, D. Ranasinghe, V. G. Zakrzewski, J. Gao, N. Rega, 
 G. Zheng, W. Liang, M. Hada, M. Ehara, K. Toyota, R. Fukuda, 
 J. Hasegawa, M. Ishida, T. Nakajima, Y. Honda, O. Kitao, H. Nakai, 
 T. Vreven, K. Throssell, J. A. Montgomery, Jr., J. E. Peralta, 
 F. Ogliaro, M. J. Bearpark, J. J. Heyd, E. N. Brothers, K. N. Kudin, 
 V. N. Staroverov, T. A. Keith, R. Kobayashi, J. Normand, 
 K. Raghavachari, A. P. Rendell, J. C. Burant, S. S. Iyengar, 
 J. Tomasi, M. Cossi, J. M. Millam, M. Klene, C. Adamo, R. Cammi, 
 J. W. Ochterski, R. L. Martin, K. Morokuma, O. Farkas, 
 J. B. Foresman, and D. J. Fox, Gaussian, Inc., Wallingford CT, 2019.
 
 ******************************************
 Gaussian 16:  ES64L-G16RevC.01  3-Jul-2019
                14-Mar-2024 
 ******************************************
 %mem=240GB
 %nprocshared=30
 Will use up to   30 processors via shared memory.
 %chk=FBTP_E0opt.chk
 Default route: IOp(8/117=-99) IOp(7/127=-99)
 ---------------------
 #p opt b3lyp/6-31g(d)
 ---------------------
 1/18=20,19=15,26=3,38=1/1,3;
 2/9=110,12=2,17=6,18=5,40=1/2;
 3/5=1,6=6,7=1,11=2,25=1,30=1,71=1,74=-5/1,2,3;
 4//1;
 5/5=2,38=5/2;
 6/7=2,8=2,9=2,10=2,28=1/1;
 7/127=-99/1,2,3,16;
 1/18=20,19=15,26=3/3(2);
 2/9=110/2;
 99//99;
 2/9=110/2;
 3/5=1,6=6,7=1,11=2,25=1,30=1,71=1,74=-5/1,2,3;
 4/5=5,16=3,69=1/1;
 5/5=2,38=5/2;
 7/127=-99/1,2,3,16;
 1/18=20,19=15,26=3/3(-5);
 2/9=110/2;
 6/7=2,8=2,9=2,10=2,19=2,28=1/1;
 99/9=1/99;
 Leave Link    1 at Thu Mar 14 10:06:56 2024, MaxMem= 32212254720 cpu:               1.2 elap:               0.0
 (Enter /home/<user>/g16/l101.exe)
 -----
 E0OPT
 -----
 Symbolic Z-matrix:
 Charge = -1 Multiplicity = 2
 C                    -2.44542   1.57695  -0.64076 
 C                    -1.80077   0.3779   -0.27654 
 C                    -2.59319  -0.73283   0.08439 
 C                    -3.97616  -0.63937   0.06755 
 C                    -4.60488   0.56401  -0.30831 
 C                    -3.8351    1.67379  -0.66176 
 H                    -1.84701   2.4381   -0.91227 
 H                    -2.10824  -1.65197   0.40334 
 H                    -4.30591   2.60911  -0.95355 
 C                    -5.01102  -1.70522   0.42978 
 C                    -6.31491  -0.94163   0.19669 
 C                    -7.62391  -1.38318   0.3531 
 C                    -8.6784   -0.50296   0.08175 
 C                    -8.42139   0.80541  -0.34166 
 C                    -7.1091    1.25543  -0.5009 
 C                    -6.05737   0.37695  -0.23066 
 H                    -7.83509  -2.39808   0.68234 
 H                    -9.70499  -0.83893   0.20136 
 H                    -9.2502    1.47734  -0.54828 
 H                    -6.91421   2.27303  -0.82994 
 C                    -4.87345  -2.14582   1.90459 
 H                    -5.66193  -2.85955   2.17027 
 H                    -3.90685  -2.6342    2.07473 
 H                    -4.94654  -1.28807   2.58062 
 C                    -4.90395  -2.93496  -0.49962 
 H                    -3.93825  -3.43701  -0.36795 
 H                    -5.6931   -3.66141  -0.2734 
 H                    -4.99819  -2.64437  -1.55083 
 C                    -0.3266    0.25076  -0.29718 
 C                     0.5618    1.31728   0.08692 
 C                     0.29685  -0.92087  -0.68218 
 C                     2.01063   1.14113   0.06218 
 C                     1.70739  -1.09191  -0.70634 
 H                    -0.31617  -1.75125  -1.01973 
 C                     2.60447  -0.10485  -0.34686 
 H                     2.09278  -2.04338  -1.06061 
 N                     0.18514   2.52621   0.51989 
 N                     2.68058   2.22307   0.47675 
 S                     1.5587    3.35942   0.85873 
 C                     4.06691  -0.33176  -0.37637 
 C                     4.97177   0.6724   -0.76291 
 C                     4.59257  -1.59367  -0.04558 
 C                     6.33845   0.41378  -0.82591 
 H                     4.60057   1.65686  -1.02192 
 C                     5.96046  -1.84282  -0.10778 
 H                     3.92282  -2.3818    0.28715 
 C                     6.86199  -0.84468  -0.5009 
 H                     7.01344   1.20664  -1.14169 
 H                     6.33657  -2.82831   0.15869 
 C                     8.35077  -1.10594  -0.52408 
 H                     8.55692  -2.15344  -0.7719 
 H                     8.82176  -0.4961   -1.3078 
 C                     9.02992  -0.7933    0.82109 
 H                     8.81369   0.25527   1.09479 
 H                     8.57745  -1.41786   1.60108 
 N                     10.45827  -1.11993   0.75581 
 H                     10.92674  -0.47468   0.12 
 H                     10.8867  -0.97225   1.66832 
 
 ITRead=  0  0  0  0  0  0  0  0  0  0  0  0  0  0  0  0  0  0  0  0
 ITRead=  0  0  0  0  0  0  0  0  0  0  0  0  0  0  0  0  0  0  0  0
 ITRead=  0  0  0  0  0  0  0  0  0  0  0  0  0  0  0  0  0  0
 MicOpt= -1 -1 -1 -1 -1 -1 -1 -1 -1 -1 -1 -1 -1 -1 -1 -1 -1 -1 -1 -1
 MicOpt= -1 -1 -1 -1 -1 -1 -1 -1 -1 -1 -1 -1 -1 -1 -1 -1 -1 -1 -1 -1
 MicOpt= -1 -1 -1 -1 -1 -1 -1 -1 -1 -1 -1 -1 -1 -1 -1 -1 -1 -1
 NAtoms=     58 NQM=       58 NQMF=       0 NMMI=      0 NMMIF=      0
                NMic=       0 NMicF=      0.
                    Isotopes and Nuclear Properties:
 (Nuclear quadrupole moments (NQMom) in fm**2, nuclear magnetic moments (NMagM)
  in nuclear magnetons)

  Atom         1           2           3           4           5           6           7           8           9          10
 IAtWgt=          12          12          12          12          12          12           1           1           1          12
 AtmWgt=  12.0000000  12.0000000  12.0000000  12.0000000  12.0000000  12.0000000   1.0078250   1.0078250   1.0078250  12.0000000
 NucSpn=           0           0           0           0           0           0           1           1           1           0
 AtZEff=  -0.0000000  -0.0000000  -0.0000000  -0.0000000  -0.0000000  -0.0000000  -0.0000000  -0.0000000  -0.0000000  -0.0000000
 NQMom=    0.0000000   0.0000000   0.0000000   0.0000000   0.0000000   0.0000000   0.0000000   0.0000000   0.0000000   0.0000000
 NMagM=    0.0000000   0.0000000   0.0000000   0.0000000   0.0000000   0.0000000   2.7928460   2.7928460   2.7928460   0.0000000
 AtZNuc=   6.0000000   6.0000000   6.0000000   6.0000000   6.0000000   6.0000000   1.0000000   1.0000000   1.0000000   6.0000000

  Atom        11          12          13          14          15          16          17          18          19          20
 IAtWgt=          12          12          12          12          12          12           1           1           1           1
 AtmWgt=  12.0000000  12.0000000  12.0000000  12.0000000  12.0000000  12.0000000   1.0078250   1.0078250   1.0078250   1.0078250
 NucSpn=           0           0           0           0           0           0           1           1           1           1
 AtZEff=  -0.0000000  -0.0000000  -0.0000000  -0.0000000  -0.0000000  -0.0000000  -0.0000000  -0.0000000  -0.0000000  -0.0000000
 NQMom=    0.0000000   0.0000000   0.0000000   0.0000000   0.0000000   0.0000000   0.0000000   0.0000000   0.0000000   0.0000000
 NMagM=    0.0000000   0.0000000   0.0000000   0.0000000   0.0000000   0.0000000   2.7928460   2.7928460   2.7928460   2.7928460
 AtZNuc=   6.0000000   6.0000000   6.0000000   6.0000000   6.0000000   6.0000000   1.0000000   1.0000000   1.0000000   1.0000000

  Atom        21          22          23          24          25          26          27          28          29          30
 IAtWgt=          12           1           1           1          12           1           1           1          12          12
 AtmWgt=  12.0000000   1.0078250   1.0078250   1.0078250  12.0000000   1.0078250   1.0078250   1.0078250  12.0000000  12.0000000
 NucSpn=           0           1           1           1           0           1           1           1           0           0
 AtZEff=  -0.0000000  -0.0000000  -0.0000000  -0.0000000  -0.0000000  -0.0000000  -0.0000000  -0.0000000  -0.0000000  -0.0000000
 NQMom=    0.0000000   0.0000000   0.0000000   0.0000000   0.0000000   0.0000000   0.0000000   0.0000000   0.0000000   0.0000000
 NMagM=    0.0000000   2.7928460   2.7928460   2.7928460   0.0000000   2.7928460   2.7928460   2.7928460   0.0000000   0.0000000
 AtZNuc=   6.0000000   1.0000000   1.0000000   1.0000000   6.0000000   1.0000000   1.0000000   1.0000000   6.0000000   6.0000000

  Atom        31          32          33          34          35          36          37          38          39          40
 IAtWgt=          12          12          12           1          12           1          14          14          32          12
 AtmWgt=  12.0000000  12.0000000  12.0000000   1.0078250  12.0000000   1.0078250  14.0030740  14.0030740  31.9720718  12.0000000
 NucSpn=           0           0           0           1           0           1           2           2           0           0
 AtZEff=  -0.0000000  -0.0000000  -0.0000000  -0.0000000  -0.0000000  -0.0000000  -0.0000000  -0.0000000  -0.0000000  -0.0000000
 NQMom=    0.0000000   0.0000000   0.0000000   0.0000000   0.0000000   0.0000000   2.0440000   2.0440000   0.0000000   0.0000000
 NMagM=    0.0000000   0.0000000   0.0000000   2.7928460   0.0000000   2.7928460   0.4037610   0.4037610   0.0000000   0.0000000
 AtZNuc=   6.0000000   6.0000000   6.0000000   1.0000000   6.0000000   1.0000000   7.0000000   7.0000000  16.0000000   6.0000000

  Atom        41          42          43          44          45          46          47          48          49          50
 IAtWgt=          12          12          12           1          12           1          12           1           1          12
 AtmWgt=  12.0000000  12.0000000  12.0000000   1.0078250  12.0000000   1.0078250  12.0000000   1.0078250   1.0078250  12.0000000
 NucSpn=           0           0           0           1           0           1           0           1           1           0
 AtZEff=  -0.0000000  -0.0000000  -0.0000000  -0.0000000  -0.0000000  -0.0000000  -0.0000000  -0.0000000  -0.0000000  -0.0000000
 NQMom=    0.0000000   0.0000000   0.0000000   0.0000000   0.0000000   0.0000000   0.0000000   0.0000000   0.0000000   0.0000000
 NMagM=    0.0000000   0.0000000   0.0000000   2.7928460   0.0000000   2.7928460   0.0000000   2.7928460   2.7928460   0.0000000
 AtZNuc=   6.0000000   6.0000000   6.0000000   1.0000000   6.0000000   1.0000000   6.0000000   1.0000000   1.0000000   6.0000000

  Atom        51          52          53          54          55          56          57          58
 IAtWgt=           1           1          12           1           1          14           1           1
 AtmWgt=   1.0078250   1.0078250  12.0000000   1.0078250   1.0078250  14.0030740   1.0078250   1.0078250
 NucSpn=           1           1           0           1           1           2           1           1
 AtZEff=  -0.0000000  -0.0000000  -0.0000000  -0.0000000  -0.0000000  -0.0000000  -0.0000000  -0.0000000
 NQMom=    0.0000000   0.0000000   0.0000000   0.0000000   0.0000000   2.0440000   0.0000000   0.0000000
 NMagM=    2.7928460   2.7928460   0.0000000   2.7928460   2.7928460   0.4037610   2.7928460   2.7928460
 AtZNuc=   1.0000000   1.0000000   6.0000000   1.0000000   1.0000000   7.0000000   1.0000000   1.0000000
 Leave Link  101 at Thu Mar 14 10:06:57 2024, MaxMem= 32212254720 cpu:              15.1 elap:               0.5
 (Enter /home/<user>/g16/l103.exe)

 GradGradGradGradGradGradGradGradGradGradGradGradGradGradGradGradGradGrad
 Berny optimization.
 Initialization pass.
                           ----------------------------
                           !    Initial Parameters    !
                           ! (Angstroms and Degrees)  !
 --------------------------                            --------------------------
 ! Name  Definition              Value          Derivative Info.                !
 --------------------------------------------------------------------------------
 ! R1    R(1,2)                  1.4092         estimate D2E/DX2                !
 ! R2    R(1,6)                  1.3932         estimate D2E/DX2                !
 ! R3    R(1,7)                  1.0832         estimate D2E/DX2                !
 ! R4    R(2,3)                  1.4114         estimate D2E/DX2                !
 ! R5    R(2,29)                 1.4798         estimate D2E/DX2                !
 ! R6    R(3,4)                  1.3862         estimate D2E/DX2                !
 ! R7    R(3,8)                  1.0871         estimate D2E/DX2                !
 ! R8    R(4,5)                  1.4088         estimate D2E/DX2                !
 ! R9    R(4,10)                 1.5291         estimate D2E/DX2                !
 ! R10   R(5,6)                  1.3961         estimate D2E/DX2                !
 ! R11   R(5,16)                 1.4665         estimate D2E/DX2                !
 ! R12   R(6,9)                  1.087          estimate D2E/DX2                !
 ! R13   R(10,11)                1.5289         estimate D2E/DX2                !
 ! R14   R(10,21)                1.5454         estimate D2E/DX2                !
 ! R15   R(10,25)                1.5452         estimate D2E/DX2                !
 ! R16   R(11,12)                1.3903         estimate D2E/DX2                !
 ! R17   R(11,16)                1.4098         estimate D2E/DX2                !
 ! R18   R(12,13)                1.4001         estimate D2E/DX2                !
 ! R19   R(12,17)                1.0877         estimate D2E/DX2                !
 ! R20   R(13,14)                1.399          estimate D2E/DX2                !
 ! R21   R(13,18)                1.0868         estimate D2E/DX2                !
 ! R22   R(14,15)                1.3964         estimate D2E/DX2                !
 ! R23   R(14,19)                1.0868         estimate D2E/DX2                !
 ! R24   R(15,16)                1.3967         estimate D2E/DX2                !
 ! R25   R(15,20)                1.0871         estimate D2E/DX2                !
 ! R26   R(21,22)                1.0962         estimate D2E/DX2                !
 ! R27   R(21,23)                1.0963         estimate D2E/DX2                !
 ! R28   R(21,24)                1.0946         estimate D2E/DX2                !
 ! R29   R(25,26)                1.0963         estimate D2E/DX2                !
 ! R30   R(25,27)                1.0962         estimate D2E/DX2                !
 ! R31   R(25,28)                1.0947         estimate D2E/DX2                !
 ! R32   R(29,30)                1.4402         estimate D2E/DX2                !
 ! R33   R(29,31)                1.3819         estimate D2E/DX2                !
 ! R34   R(30,32)                1.4597         estimate D2E/DX2                !
 ! R35   R(30,37)                1.3382         estimate D2E/DX2                !
 ! R36   R(31,33)                1.4211         estimate D2E/DX2                !
 ! R37   R(31,34)                1.0859         estimate D2E/DX2                !
 ! R38   R(32,35)                1.4396         estimate D2E/DX2                !
 ! R39   R(32,38)                1.3384         estimate D2E/DX2                !
 ! R40   R(33,35)                1.3814         estimate D2E/DX2                !
 ! R41   R(33,36)                1.086          estimate D2E/DX2                !
 ! R42   R(35,40)                1.4802         estimate D2E/DX2                !
 ! R43   R(37,39)                1.6419         estimate D2E/DX2                !
 ! R44   R(38,39)                1.6419         estimate D2E/DX2                !
 ! R45   R(40,41)                1.4059         estimate D2E/DX2                !
 ! R46   R(40,42)                1.4065         estimate D2E/DX2                !
 ! R47   R(41,43)                1.3924         estimate D2E/DX2                !
 ! R48   R(41,44)                1.0835         estimate D2E/DX2                !
 ! R49   R(42,45)                1.3918         estimate D2E/DX2                !
 ! R50   R(42,46)                1.0865         estimate D2E/DX2                !
 ! R51   R(43,47)                1.4012         estimate D2E/DX2                !
 ! R52   R(43,48)                1.0881         estimate D2E/DX2                !
 ! R53   R(45,47)                1.4013         estimate D2E/DX2                !
 ! R54   R(45,49)                1.088          estimate D2E/DX2                !
 ! R55   R(47,50)                1.5117         estimate D2E/DX2                !
 ! R56   R(50,51)                1.096          estimate D2E/DX2                !
 ! R57   R(50,52)                1.0991         estimate D2E/DX2                !
 ! R58   R(50,53)                1.539          estimate D2E/DX2                !
 ! R59   R(53,54)                1.1051         estimate D2E/DX2                !
 ! R60   R(53,55)                1.0969         estimate D2E/DX2                !
 ! R61   R(53,56)                1.4667         estimate D2E/DX2                !
 ! R62   R(56,57)                1.0198         estimate D2E/DX2                !
 ! R63   R(56,58)                1.0188         estimate D2E/DX2                !
 ! A1    A(2,1,6)              121.2868         estimate D2E/DX2                !
 ! A2    A(2,1,7)              119.241          estimate D2E/DX2                !
 ! A3    A(6,1,7)              119.4719         estimate D2E/DX2                !
 ! A4    A(1,2,3)              118.6118         estimate D2E/DX2                !
 ! A5    A(1,2,29)             121.6822         estimate D2E/DX2                !
 ! A6    A(3,2,29)             119.6882         estimate D2E/DX2                !
 ! A7    A(2,3,4)              120.2635         estimate D2E/DX2                !
 ! A8    A(2,3,8)              119.3396         estimate D2E/DX2                !
 ! A9    A(4,3,8)              120.3727         estimate D2E/DX2                !
 ! A10   A(3,4,5)              120.4023         estimate D2E/DX2                !
 ! A11   A(3,4,10)             128.7053         estimate D2E/DX2                !
 ! A12   A(5,4,10)             110.8896         estimate D2E/DX2                !
 ! A13   A(4,5,6)              120.0316         estimate D2E/DX2                !
 ! A14   A(4,5,16)             108.5981         estimate D2E/DX2                !
 ! A15   A(6,5,16)             131.3685         estimate D2E/DX2                !
 ! A16   A(1,6,5)              119.4009         estimate D2E/DX2                !
 ! A17   A(1,6,9)              119.7272         estimate D2E/DX2                !
 ! A18   A(5,6,9)              120.8718         estimate D2E/DX2                !
 ! A19   A(4,10,11)            101.1241         estimate D2E/DX2                !
 ! A20   A(4,10,21)            111.3808         estimate D2E/DX2                !
 ! A21   A(4,10,25)            111.4299         estimate D2E/DX2                !
 ! A22   A(11,10,21)           111.3347         estimate D2E/DX2                !
 ! A23   A(11,10,25)           111.4002         estimate D2E/DX2                !
 ! A24   A(21,10,25)           109.9349         estimate D2E/DX2                !
 ! A25   A(10,11,12)           128.8435         estimate D2E/DX2                !
 ! A26   A(10,11,16)           110.9487         estimate D2E/DX2                !
 ! A27   A(12,11,16)           120.2078         estimate D2E/DX2                !
 ! A28   A(11,12,13)           119.185          estimate D2E/DX2                !
 ! A29   A(11,12,17)           120.8776         estimate D2E/DX2                !
 ! A30   A(13,12,17)           119.9373         estimate D2E/DX2                !
 ! A31   A(12,13,14)           120.5472         estimate D2E/DX2                !
 ! A32   A(12,13,18)           119.7192         estimate D2E/DX2                !
 ! A33   A(14,13,18)           119.7336         estimate D2E/DX2                !
 ! A34   A(13,14,15)           120.5672         estimate D2E/DX2                !
 ! A35   A(13,14,19)           119.7133         estimate D2E/DX2                !
 ! A36   A(15,14,19)           119.7195         estimate D2E/DX2                !
 ! A37   A(14,15,16)           118.8733         estimate D2E/DX2                !
 ! A38   A(14,15,20)           120.3087         estimate D2E/DX2                !
 ! A39   A(16,15,20)           120.818          estimate D2E/DX2                !
 ! A40   A(5,16,11)            108.4379         estimate D2E/DX2                !
 ! A41   A(5,16,15)            130.9426         estimate D2E/DX2                !
 ! A42   A(11,16,15)           120.6195         estimate D2E/DX2                !
 ! A43   A(10,21,22)           110.6649         estimate D2E/DX2                !
 ! A44   A(10,21,23)           110.7091         estimate D2E/DX2                !
 ! A45   A(10,21,24)           111.1032         estimate D2E/DX2                !
 ! A46   A(22,21,23)           107.8508         estimate D2E/DX2                !
 ! A47   A(22,21,24)           108.2097         estimate D2E/DX2                !
 ! A48   A(23,21,24)           108.1878         estimate D2E/DX2                !
 ! A49   A(10,25,26)           110.6864         estimate D2E/DX2                !
 ! A50   A(10,25,27)           110.6954         estimate D2E/DX2                !
 ! A51   A(10,25,28)           111.123          estimate D2E/DX2                !
 ! A52   A(26,25,27)           107.8094         estimate D2E/DX2                !
 ! A53   A(26,25,28)           108.223          estimate D2E/DX2                !
 ! A54   A(27,25,28)           108.1866         estimate D2E/DX2                !
 ! A55   A(2,29,30)            123.1726         estimate D2E/DX2                !
 ! A56   A(2,29,31)            121.747          estimate D2E/DX2                !
 ! A57   A(30,29,31)           115.0785         estimate D2E/DX2                !
 ! A58   A(29,30,32)           121.2228         estimate D2E/DX2                !
 ! A59   A(29,30,37)           125.5659         estimate D2E/DX2                !
 ! A60   A(32,30,37)           113.1954         estimate D2E/DX2                !
 ! A61   A(29,31,33)           123.6823         estimate D2E/DX2                !
 ! A62   A(29,31,34)           118.7014         estimate D2E/DX2                !
 ! A63   A(33,31,34)           117.5807         estimate D2E/DX2                !
 ! A64   A(30,32,35)           121.2448         estimate D2E/DX2                !
 ! A65   A(30,32,38)           113.2054         estimate D2E/DX2                !
 ! A66   A(35,32,38)           125.5344         estimate D2E/DX2                !
 ! A67   A(31,33,35)           123.6528         estimate D2E/DX2                !
 ! A68   A(31,33,36)           117.597          estimate D2E/DX2                !
 ! A69   A(35,33,36)           118.7163         estimate D2E/DX2                !
 ! A70   A(32,35,33)           115.1186         estimate D2E/DX2                !
 ! A71   A(32,35,40)           123.0857         estimate D2E/DX2                !
 ! A72   A(33,35,40)           121.7943         estimate D2E/DX2                !
 ! A73   A(30,37,39)           106.8427         estimate D2E/DX2                !
 ! A74   A(32,38,39)           106.8291         estimate D2E/DX2                !
 ! A75   A(37,39,38)            99.927          estimate D2E/DX2                !
 ! A76   A(35,40,41)           122.1323         estimate D2E/DX2                !
 ! A77   A(35,40,42)           120.1391         estimate D2E/DX2                !
 ! A78   A(41,40,42)           117.7073         estimate D2E/DX2                !
 ! A79   A(40,41,43)           120.7653         estimate D2E/DX2                !
 ! A80   A(40,41,44)           119.6151         estimate D2E/DX2                !
 ! A81   A(43,41,44)           119.618          estimate D2E/DX2                !
 ! A82   A(40,42,45)           121.1602         estimate D2E/DX2                !
 ! A83   A(40,42,46)           119.5034         estimate D2E/DX2                !
 ! A84   A(45,42,46)           119.3203         estimate D2E/DX2                !
 ! A85   A(41,43,47)           121.5378         estimate D2E/DX2                !
 ! A86   A(41,43,48)           119.1223         estimate D2E/DX2                !
 ! A87   A(47,43,48)           119.3385         estimate D2E/DX2                !
 ! A88   A(42,45,47)           121.154          estimate D2E/DX2                !
 ! A89   A(42,45,49)           119.405          estimate D2E/DX2                !
 ! A90   A(47,45,49)           119.4402         estimate D2E/DX2                !
 ! A91   A(43,47,45)           117.6728         estimate D2E/DX2                !
 ! A92   A(43,47,50)           121.3071         estimate D2E/DX2                !
 ! A93   A(45,47,50)           120.984          estimate D2E/DX2                !
 ! A94   A(47,50,51)           110.7255         estimate D2E/DX2                !
 ! A95   A(47,50,52)           109.6983         estimate D2E/DX2                !
 ! A96   A(47,50,53)           112.7116         estimate D2E/DX2                !
 ! A97   A(51,50,52)           106.7673         estimate D2E/DX2                !
 ! A98   A(51,50,53)           107.987          estimate D2E/DX2                !
 ! A99   A(52,50,53)           108.7501         estimate D2E/DX2                !
 ! A100  A(50,53,54)           108.8386         estimate D2E/DX2                !
 ! A101  A(50,53,55)           108.8946         estimate D2E/DX2                !
 ! A102  A(50,53,56)           110.2197         estimate D2E/DX2                !
 ! A103  A(54,53,55)           106.4654         estimate D2E/DX2                !
 ! A104  A(54,53,56)           114.3872         estimate D2E/DX2                !
 ! A105  A(55,53,56)           107.8526         estimate D2E/DX2                !
 ! A106  A(53,56,57)           109.5245         estimate D2E/DX2                !
 ! A107  A(53,56,58)           109.7172         estimate D2E/DX2                !
 ! A108  A(57,56,58)           105.8733         estimate D2E/DX2                !
 ! D1    D(6,1,2,3)             -0.6548         estimate D2E/DX2                !
 ! D2    D(6,1,2,29)           177.8063         estimate D2E/DX2                !
 ! D3    D(7,1,2,3)            179.5348         estimate D2E/DX2                !
 ! D4    D(7,1,2,29)            -2.004          estimate D2E/DX2                !
 ! D5    D(2,1,6,5)              0.3501         estimate D2E/DX2                !
 ! D6    D(2,1,6,9)           -179.5662         estimate D2E/DX2                !
 ! D7    D(7,1,6,5)           -179.84           estimate D2E/DX2                !
 ! D8    D(7,1,6,9)              0.2438         estimate D2E/DX2                !
 ! D9    D(1,2,3,4)              0.5036         estimate D2E/DX2                !
 ! D10   D(1,2,3,8)           -177.7142         estimate D2E/DX2                !
 ! D11   D(29,2,3,4)          -177.9891         estimate D2E/DX2                !
 ! D12   D(29,2,3,8)             3.7931         estimate D2E/DX2                !
 ! D13   D(1,2,29,30)           37.3343         estimate D2E/DX2                !
 ! D14   D(1,2,29,31)         -143.1958         estimate D2E/DX2                !
 ! D15   D(3,2,29,30)         -144.2207         estimate D2E/DX2                !
 ! D16   D(3,2,29,31)           35.2491         estimate D2E/DX2                !
 ! D17   D(2,3,4,5)             -0.0579         estimate D2E/DX2                !
 ! D18   D(2,3,4,10)          -179.3905         estimate D2E/DX2                !
 ! D19   D(8,3,4,5)            178.1414         estimate D2E/DX2                !
 ! D20   D(8,3,4,10)            -1.1912         estimate D2E/DX2                !
 ! D21   D(3,4,5,6)             -0.2562         estimate D2E/DX2                !
 ! D22   D(3,4,5,16)          -179.809          estimate D2E/DX2                !
 ! D23   D(10,4,5,6)           179.1863         estimate D2E/DX2                !
 ! D24   D(10,4,5,16)           -0.3665         estimate D2E/DX2                !
 ! D25   D(3,4,10,11)          179.7934         estimate D2E/DX2                !
 ! D26   D(3,4,10,21)           61.4231         estimate D2E/DX2                !
 ! D27   D(3,4,10,25)          -61.7391         estimate D2E/DX2                !
 ! D28   D(5,4,10,11)            0.4095         estimate D2E/DX2                !
 ! D29   D(5,4,10,21)         -117.9607         estimate D2E/DX2                !
 ! D30   D(5,4,10,25)          118.877          estimate D2E/DX2                !
 ! D31   D(4,5,6,1)              0.1108         estimate D2E/DX2                !
 ! D32   D(4,5,6,9)           -179.974          estimate D2E/DX2                !
 ! D33   D(16,5,6,1)           179.546          estimate D2E/DX2                !
 ! D34   D(16,5,6,9)            -0.5388         estimate D2E/DX2                !
 ! D35   D(4,5,16,11)            0.1542         estimate D2E/DX2                !
 ! D36   D(4,5,16,15)         -179.8343         estimate D2E/DX2                !
 ! D37   D(6,5,16,11)         -179.3299         estimate D2E/DX2                !
 ! D38   D(6,5,16,15)            0.6816         estimate D2E/DX2                !
 ! D39   D(4,10,11,12)         179.747          estimate D2E/DX2                !
 ! D40   D(4,10,11,16)          -0.3125         estimate D2E/DX2                !
 ! D41   D(21,10,11,12)        -61.8494         estimate D2E/DX2                !
 ! D42   D(21,10,11,16)        118.091          estimate D2E/DX2                !
 ! D43   D(25,10,11,12)         61.258          estimate D2E/DX2                !
 ! D44   D(25,10,11,16)       -118.8016         estimate D2E/DX2                !
 ! D45   D(4,10,21,22)         176.2195         estimate D2E/DX2                !
 ! D46   D(4,10,21,23)         -64.2533         estimate D2E/DX2                !
 ! D47   D(4,10,21,24)          55.984          estimate D2E/DX2                !
 ! D48   D(11,10,21,22)         64.1734         estimate D2E/DX2                !
 ! D49   D(11,10,21,23)       -176.2995         estimate D2E/DX2                !
 ! D50   D(11,10,21,24)        -56.0621         estimate D2E/DX2                !
 ! D51   D(25,10,21,22)        -59.7683         estimate D2E/DX2                !
 ! D52   D(25,10,21,23)         59.7588         estimate D2E/DX2                !
 ! D53   D(25,10,21,24)        179.9962         estimate D2E/DX2                !
 ! D54   D(4,10,25,26)          64.3077         estimate D2E/DX2                !
 ! D55   D(4,10,25,27)        -176.2118         estimate D2E/DX2                !
 ! D56   D(4,10,25,28)         -55.972          estimate D2E/DX2                !
 ! D57   D(11,10,25,26)        176.4205         estimate D2E/DX2                !
 ! D58   D(11,10,25,27)        -64.099          estimate D2E/DX2                !
 ! D59   D(11,10,25,28)         56.1408         estimate D2E/DX2                !
 ! D60   D(21,10,25,26)        -59.6759         estimate D2E/DX2                !
 ! D61   D(21,10,25,27)         59.8046         estimate D2E/DX2                !
 ! D62   D(21,10,25,28)       -179.9556         estimate D2E/DX2                !
 ! D63   D(10,11,12,13)        179.9088         estimate D2E/DX2                !
 ! D64   D(10,11,12,17)         -0.0545         estimate D2E/DX2                !
 ! D65   D(16,11,12,13)         -0.0268         estimate D2E/DX2                !
 ! D66   D(16,11,12,17)       -179.9901         estimate D2E/DX2                !
 ! D67   D(10,11,16,5)           0.1174         estimate D2E/DX2                !
 ! D68   D(10,11,16,15)       -179.8926         estimate D2E/DX2                !
 ! D69   D(12,11,16,5)        -179.9363         estimate D2E/DX2                !
 ! D70   D(12,11,16,15)          0.0537         estimate D2E/DX2                !
 ! D71   D(11,12,13,14)         -0.0026         estimate D2E/DX2                !
 ! D72   D(11,12,13,18)       -179.9841         estimate D2E/DX2                !
 ! D73   D(17,12,13,14)        179.961          estimate D2E/DX2                !
 ! D74   D(17,12,13,18)         -0.0205         estimate D2E/DX2                !
 ! D75   D(12,13,14,15)          0.0061         estimate D2E/DX2                !
 ! D76   D(12,13,14,19)       -179.9853         estimate D2E/DX2                !
 ! D77   D(18,13,14,15)        179.9876         estimate D2E/DX2                !
 ! D78   D(18,13,14,19)         -0.0038         estimate D2E/DX2                !
 ! D79   D(13,14,15,16)          0.02           estimate D2E/DX2                !
 ! D80   D(13,14,15,20)       -179.9874         estimate D2E/DX2                !
 ! D81   D(19,14,15,16)       -179.9887         estimate D2E/DX2                !
 ! D82   D(19,14,15,20)          0.004          estimate D2E/DX2                !
 ! D83   D(14,15,16,5)         179.9378         estimate D2E/DX2                !
 ! D84   D(14,15,16,11)         -0.0496         estimate D2E/DX2                !
 ! D85   D(20,15,16,5)          -0.0549         estimate D2E/DX2                !
 ! D86   D(20,15,16,11)        179.9578         estimate D2E/DX2                !
 ! D87   D(2,29,30,32)         179.4232         estimate D2E/DX2                !
 ! D88   D(2,29,30,37)           0.9746         estimate D2E/DX2                !
 ! D89   D(31,29,30,32)         -0.0791         estimate D2E/DX2                !
 ! D90   D(31,29,30,37)       -178.5276         estimate D2E/DX2                !
 ! D91   D(2,29,31,33)        -179.4397         estimate D2E/DX2                !
 ! D92   D(2,29,31,34)           2.7851         estimate D2E/DX2                !
 ! D93   D(30,29,31,33)          0.0704         estimate D2E/DX2                !
 ! D94   D(30,29,31,34)       -177.7049         estimate D2E/DX2                !
 ! D95   D(29,30,32,35)         -0.0054         estimate D2E/DX2                !
 ! D96   D(29,30,32,38)       -178.6544         estimate D2E/DX2                !
 ! D97   D(37,30,32,35)        178.6216         estimate D2E/DX2                !
 ! D98   D(37,30,32,38)         -0.0273         estimate D2E/DX2                !
 ! D99   D(29,30,37,39)        178.7105         estimate D2E/DX2                !
 ! D100  D(32,30,37,39)          0.1539         estimate D2E/DX2                !
 ! D101  D(29,31,33,35)          0.0289         estimate D2E/DX2                !
 ! D102  D(29,31,33,36)       -177.821          estimate D2E/DX2                !
 ! D103  D(34,31,33,35)        177.8274         estimate D2E/DX2                !
 ! D104  D(34,31,33,36)         -0.0225         estimate D2E/DX2                !
 ! D105  D(30,32,35,33)          0.0997         estimate D2E/DX2                !
 ! D106  D(30,32,35,40)       -179.4686         estimate D2E/DX2                !
 ! D107  D(38,32,35,33)        178.5737         estimate D2E/DX2                !
 ! D108  D(38,32,35,40)         -0.9945         estimate D2E/DX2                !
 ! D109  D(30,32,38,39)         -0.1141         estimate D2E/DX2                !
 ! D110  D(35,32,38,39)       -178.6946         estimate D2E/DX2                !
 ! D111  D(31,33,35,32)         -0.1132         estimate D2E/DX2                !
 ! D112  D(31,33,35,40)        179.4612         estimate D2E/DX2                !
 ! D113  D(36,33,35,32)        177.7141         estimate D2E/DX2                !
 ! D114  D(36,33,35,40)         -2.7116         estimate D2E/DX2                !
 ! D115  D(32,35,40,41)        -37.2314         estimate D2E/DX2                !
 ! D116  D(32,35,40,42)        144.4877         estimate D2E/DX2                !
 ! D117  D(33,35,40,41)        143.2286         estimate D2E/DX2                !
 ! D118  D(33,35,40,42)        -35.0524         estimate D2E/DX2                !
 ! D119  D(30,37,39,38)         -0.199          estimate D2E/DX2                !
 ! D120  D(32,38,39,37)          0.1838         estimate D2E/DX2                !
 ! D121  D(35,40,41,43)       -177.707          estimate D2E/DX2                !
 ! D122  D(35,40,41,44)          1.8345         estimate D2E/DX2                !
 ! D123  D(42,40,41,43)          0.6138         estimate D2E/DX2                !
 ! D124  D(42,40,41,44)       -179.8447         estimate D2E/DX2                !
 ! D125  D(35,40,42,45)        177.9115         estimate D2E/DX2                !
 ! D126  D(35,40,42,46)         -3.5585         estimate D2E/DX2                !
 ! D127  D(41,40,42,45)         -0.4442         estimate D2E/DX2                !
 ! D128  D(41,40,42,46)        178.0858         estimate D2E/DX2                !
 ! D129  D(40,41,43,47)         -0.4117         estimate D2E/DX2                !
 ! D130  D(40,41,43,48)        179.1605         estimate D2E/DX2                !
 ! D131  D(44,41,43,47)       -179.9532         estimate D2E/DX2                !
 ! D132  D(44,41,43,48)         -0.381          estimate D2E/DX2                !
 ! D133  D(40,42,45,47)          0.0634         estimate D2E/DX2                !
 ! D134  D(40,42,45,49)        179.7307         estimate D2E/DX2                !
 ! D135  D(46,42,45,47)       -178.4692         estimate D2E/DX2                !
 ! D136  D(46,42,45,49)          1.1981         estimate D2E/DX2                !
 ! D137  D(41,43,47,45)          0.0168         estimate D2E/DX2                !
 ! D138  D(41,43,47,50)       -177.8182         estimate D2E/DX2                !
 ! D139  D(48,43,47,45)       -179.5545         estimate D2E/DX2                !
 ! D140  D(48,43,47,50)          2.6105         estimate D2E/DX2                !
 ! D141  D(42,45,47,43)          0.1561         estimate D2E/DX2                !
 ! D142  D(42,45,47,50)        177.9984         estimate D2E/DX2                !
 ! D143  D(49,45,47,43)       -179.5111         estimate D2E/DX2                !
 ! D144  D(49,45,47,50)         -1.6688         estimate D2E/DX2                !
 ! D145  D(43,47,50,51)       -150.0404         estimate D2E/DX2                !
 ! D146  D(43,47,50,52)        -32.4542         estimate D2E/DX2                !
 ! D147  D(43,47,50,53)         88.8758         estimate D2E/DX2                !
 ! D148  D(45,47,50,51)         32.1961         estimate D2E/DX2                !
 ! D149  D(45,47,50,52)        149.7824         estimate D2E/DX2                !
 ! D150  D(45,47,50,53)        -88.8876         estimate D2E/DX2                !
 ! D151  D(47,50,53,54)        -56.2397         estimate D2E/DX2                !
 ! D152  D(47,50,53,55)         59.4382         estimate D2E/DX2                !
 ! D153  D(47,50,53,56)        177.5618         estimate D2E/DX2                !
 ! D154  D(51,50,53,54)       -178.8718         estimate D2E/DX2                !
 ! D155  D(51,50,53,55)        -63.1939         estimate D2E/DX2                !
 ! D156  D(51,50,53,56)         54.9297         estimate D2E/DX2                !
 ! D157  D(52,50,53,54)         65.6278         estimate D2E/DX2                !
 ! D158  D(52,50,53,55)       -178.6943         estimate D2E/DX2                !
 ! D159  D(52,50,53,56)        -60.5708         estimate D2E/DX2                !
 ! D160  D(50,53,56,57)         68.1479         estimate D2E/DX2                !
 ! D161  D(50,53,56,58)       -176.0441         estimate D2E/DX2                !
 ! D162  D(54,53,56,57)        -54.8629         estimate D2E/DX2                !
 ! D163  D(54,53,56,58)         60.9451         estimate D2E/DX2                !
 ! D164  D(55,53,56,57)       -173.0895         estimate D2E/DX2                !
 ! D165  D(55,53,56,58)        -57.2816         estimate D2E/DX2                !
 --------------------------------------------------------------------------------
 Trust Radius=3.00D-01 FncErr=1.00D-07 GrdErr=1.00D-06 EigMax=2.50D+02 EigMin=1.00D-04
 Number of steps in this run=    346 maximum allowed number of steps=    348.
 GradGradGradGradGradGradGradGradGradGradGradGradGradGradGradGradGradGrad

 Leave Link  103 at Thu Mar 14 10:06:57 2024, MaxMem= 32212254720 cpu:               0.3 elap:               0.0
 (Enter /home/<user>/g16/l202.exe)
 Stoichiometry    C29H25N3S(1-,2)
 Framework group  C1[X(C29H25N3S)]
 Deg. of freedom   168
 Full point group                 C1      NOp   1
 Largest Abelian subgroup         C1      NOp   1
 Largest concise Abelian subgroup C1      NOp   1
                         Standard orientation:                         
 ---------------------------------------------------------------------
 Center     Atomic      Atomic             Coordinates (Angstroms)
 Number     Number       Type             X           Y           Z
 ---------------------------------------------------------------------
      1          6           0       -2.445420    1.576952   -0.640756
      2          6           0       -1.800770    0.377898   -0.276543
      3          6           0       -2.593188   -0.732829    0.084386
      4          6           0       -3.976156   -0.639371    0.067553
      5          6           0       -4.604884    0.564012   -0.308309
      6          6           0       -3.835098    1.673787   -0.661764
      7          1           0       -1.847013    2.438095   -0.912271
      8          1           0       -2.108244   -1.651967    0.403337
      9          1           0       -4.305906    2.609112   -0.953548
     10          6           0       -5.011020   -1.705216    0.429783
     11          6           0       -6.314910   -0.941629    0.196693
     12          6           0       -7.623913   -1.383182    0.353095
     13          6           0       -8.678397   -0.502959    0.081747
     14          6           0       -8.421388    0.805409   -0.341662
     15          6           0       -7.109101    1.255427   -0.500897
     16          6           0       -6.057367    0.376946   -0.230661
     17          1           0       -7.835091   -2.398082    0.682337
     18          1           0       -9.704987   -0.838925    0.201362
     19          1           0       -9.250200    1.477337   -0.548281
     20          1           0       -6.914211    2.273031   -0.829937
     21          6           0       -4.873450   -2.145823    1.904592
     22          1           0       -5.661933   -2.859551    2.170274
     23          1           0       -3.906850   -2.634198    2.074728
     24          1           0       -4.946541   -1.288068    2.580623
     25          6           0       -4.903949   -2.934957   -0.499622
     26          1           0       -3.938253   -3.437009   -0.367953
     27          1           0       -5.693098   -3.661406   -0.273395
     28          1           0       -4.998190   -2.644371   -1.550825
     29          6           0       -0.326596    0.250758   -0.297183
     30          6           0        0.561803    1.317276    0.086920
     31          6           0        0.296845   -0.920873   -0.682176
     32          6           0        2.010629    1.141126    0.062178
     33          6           0        1.707388   -1.091909   -0.706344
     34          1           0       -0.316167   -1.751252   -1.019726
     35          6           0        2.604471   -0.104847   -0.346857
     36          1           0        2.092779   -2.043380   -1.060607
     37          7           0        0.185135    2.526214    0.519893
     38          7           0        2.680579    2.223073    0.476747
     39         16           0        1.558695    3.359421    0.858730
     40          6           0        4.066915   -0.331759   -0.376367
     41          6           0        4.971773    0.672396   -0.762914
     42          6           0        4.592573   -1.593667   -0.045584
     43          6           0        6.338455    0.413776   -0.825905
     44          1           0        4.600567    1.656859   -1.021918
     45          6           0        5.960456   -1.842817   -0.107780
     46          1           0        3.922815   -2.381800    0.287153
     47          6           0        6.861990   -0.844676   -0.500902
     48          1           0        7.013438    1.206643   -1.141689
     49          1           0        6.336570   -2.828307    0.158693
     50          6           0        8.350770   -1.105944   -0.524079
     51          1           0        8.556915   -2.153440   -0.771898
     52          1           0        8.821757   -0.496101   -1.307801
     53          6           0        9.029919   -0.793298    0.821086
     54          1           0        8.813687    0.255269    1.094789
     55          1           0        8.577448   -1.417855    1.601077
     56          7           0       10.458266   -1.119926    0.755806
     57          1           0       10.926743   -0.474683    0.119996
     58          1           0       10.886698   -0.972254    1.668323
 ---------------------------------------------------------------------
 Rotational constants (GHZ):           0.3750593           0.0391474           0.0364047
 Leave Link  202 at Thu Mar 14 10:06:57 2024, MaxMem= 32212254720 cpu:               0.1 elap:               0.0
 (Enter /home/<user>/g16/l301.exe)
 Standard basis: 6-31G(d) (6D, 7F)
 Ernie: Thresh=  0.10000D-02 Tol=  0.10000D-05 Strict=F.
 There are   549 symmetry adapted cartesian basis functions of A   symmetry.
 There are   549 symmetry adapted basis functions of A   symmetry.
   549 basis functions,  1048 primitive gaussians,   549 cartesian basis functions
   119 alpha electrons      118 beta electrons
       nuclear repulsion energy      3077.1700958446 Hartrees.
 IExCor=  402 DFT=T Ex+Corr=B3LYP ExCW=0 ScaHFX=  0.200000
 ScaDFX=  0.800000  0.720000  1.000000  0.810000 ScalE2=  1.000000  1.000000
 IRadAn=      5 IRanWt=     -1 IRanGd=            0 ICorTp=0 IEmpDi=  4
 NAtoms=   58 NActive=   58 NUniq=   58 SFac= 1.00D+00 NAtFMM=   60 NAOKFM=F Big=F
 Integral buffers will be    131072 words long.
 Raffenetti 2 integral format.
 Two-electron integral symmetry is turned on.
 Leave Link  301 at Thu Mar 14 10:06:57 2024, MaxMem= 32212254720 cpu:               0.8 elap:               0.0
 (Enter /home/<user>/g16/l302.exe)
 NPDir=0 NMtPBC=     1 NCelOv=     1 NCel=       1 NClECP=     1 NCelD=      1
         NCelK=      1 NCelE2=     1 NClLst=     1 CellRange=     0.0.
 One-electron integrals computed using PRISM.
 One-electron integral symmetry used in STVInt
 NBasis=   549 RedAO= T EigKep=  2.62D-04  NBF=   549
 NBsUse=   549 1.00D-06 EigRej= -1.00D+00 NBFU=   549
 Precomputing XC quadrature grid using
 IXCGrd= 4 IRadAn=           5 IRanWt=          -1 IRanGd=           0 AccXCQ= 0.00D+00.
 Generated NRdTot=       0 NPtTot=           0 NUsed=           0 NTot=          32
 NSgBfM=   513   513   513   513   513 MxSgAt=    58 MxSgA2=    58.
 Leave Link  302 at Thu Mar 14 10:06:57 2024, MaxMem= 32212254720 cpu:              12.8 elap:               0.4
 (Enter /home/<user>/g16/l303.exe)
 DipDrv:  MaxL=1.
 Leave Link  303 at Thu Mar 14 10:06:58 2024, MaxMem= 32212254720 cpu:               1.5 elap:               0.1
 (Enter /home/<user>/g16/l401.exe)
 ExpMin= 1.17D-01 ExpMax= 2.19D+04 ExpMxC= 3.30D+03 IAcc=3 IRadAn=         5 AccDes= 0.00D+00
 Harris functional with IExCor=  402 and IRadAn=       5 diagonalized for initial guess.
 HarFok:  IExCor=  402 AccDes= 0.00D+00 IRadAn=         5 IDoV= 1 UseB2=F ITyADJ=14
 ICtDFT=  3500011 ScaDFX=  1.000000  1.000000  1.000000  1.000000
 FoFCou: FMM=F IPFlag=           0 FMFlag=      100000 FMFlg1=           0
         NFxFlg=           0 DoJE=T BraDBF=F KetDBF=T FulRan=T
         wScrn=  0.000000 ICntrl=       500 IOpCl=  0 I1Cent=   200000004 NGrid=           0
         NMat0=    1 NMatS0=      1 NMatT0=    0 NMatD0=    1 NMtDS0=    0 NMtDT0=    0
 Petite list used in FoFCou.
 Harris En= -1682.77989317450    
 JPrj=0 DoOrth=F DoCkMO=F.
 Initial guess <Sx>= 0.0000 <Sy>= 0.0000 <Sz>= 0.5000 <S**2>= 0.7500 S= 0.5000
 Leave Link  401 at Thu Mar 14 10:06:59 2024, MaxMem= 32212254720 cpu:              32.0 elap:               1.1
 (Enter /home/<user>/g16/l502.exe)
 Integral symmetry usage will be decided dynamically.
 UHF open shell SCF:
 Using DIIS extrapolation, IDIIS=  1040.
 NGot= 32212254720 LenX= 32211628124 LenY= 32211326174
 Requested convergence on RMS density matrix=1.00D-08 within 128 cycles.
 Requested convergence on MAX density matrix=1.00D-06.
 Requested convergence on             energy=1.00D-06.
 No special actions if energy rises.
 Fock matrices will be formed incrementally for  20 cycles.
 Integral accuracy reduced to 1.0D-05 until final iterations.

 Cycle   1  Pass 0  IDiag  1:
 FoFJK:  IHMeth= 1 ICntrl=       0 DoSepK=F KAlg= 0 I1Cent=           0 FoldK=F
 IRaf= 550000000 NMat=       1 IRICut=       1 DoRegI=T DoRafI=F ISym2E= 0 IDoP0=0 IntGTp=1.
 FoFCou: FMM=F IPFlag=           0 FMFlag=      100000 FMFlg1=           0
         NFxFlg=           0 DoJE=F BraDBF=F KetDBF=F FulRan=T
         wScrn=  0.000000 ICntrl=         0 IOpCl=  1 I1Cent=           0 NGrid=           0
         NMat0=    1 NMatS0=      1 NMatT0=    0 NMatD0=    1 NMtDS0=    0 NMtDT0=    0
 Symmetry not used in FoFCou.
 E= -1681.64118821408    
 DIIS: error= 3.48D-02 at cycle   1 NSaved=   1.
 NSaved= 1 IEnMin= 1 EnMin= -1681.64118821408     IErMin= 1 ErrMin= 3.48D-02
 ErrMax= 3.48D-02  0.00D+00 EMaxC= 1.00D-01 BMatC= 3.49D+00 BMatP= 3.49D+00
 IDIUse=3 WtCom= 6.52D-01 WtEn= 3.48D-01
 Coeff-Com:  0.100D+01
 Coeff-En:   0.100D+01
 Coeff:      0.100D+01
 Gap=     0.051 Goal=   None    Shift=    0.000
 Gap=     0.291 Goal=   None    Shift=    0.000
 GapD=    0.051 DampG=0.500 DampE=0.500 DampFc=0.2500 IDamp=-1.
 Damping current iteration by 2.50D-01
 RMSDP=7.46D-03 MaxDP=1.03D+00              OVMax= 9.09D-01

 Cycle   2  Pass 0  IDiag  1:
 RMSU=  1.85D-03    CP:  9.86D-01
 E= -1681.93720465993     Delta-E=       -0.296016445842 Rises=F Damp=T
 DIIS: error= 1.78D-02 at cycle   2 NSaved=   2.
 NSaved= 2 IEnMin= 2 EnMin= -1681.93720465993     IErMin= 2 ErrMin= 1.78D-02
 ErrMax= 1.78D-02  0.00D+00 EMaxC= 1.00D-01 BMatC= 8.23D-01 BMatP= 3.49D+00
 IDIUse=3 WtCom= 8.22D-01 WtEn= 1.78D-01
 Coeff-Com: -0.550D+00 0.155D+01
 Coeff-En:   0.000D+00 0.100D+01
 Coeff:     -0.453D+00 0.145D+01
 Gap=     0.166 Goal=   None    Shift=    0.000
 Gap=     0.040 Goal=   None    Shift=    0.000
 RMSDP=2.76D-03 MaxDP=2.52D-01 DE=-2.96D-01 OVMax= 9.27D-01

 Cycle   3  Pass 0  IDiag  1:
 RMSU=  2.58D-03    CP:  9.53D-01  5.49D-01
 E= -1682.14640383797     Delta-E=       -0.209199178048 Rises=F Damp=F
 DIIS: error= 2.86D-02 at cycle   3 NSaved=   3.
 NSaved= 3 IEnMin= 3 EnMin= -1682.14640383797     IErMin= 2 ErrMin= 1.78D-02
 ErrMax= 2.86D-02  0.00D+00 EMaxC= 1.00D-01 BMatC= 1.44D+00 BMatP= 8.23D-01
 IDIUse=2 WtCom= 0.00D+00 WtEn= 1.00D+00
 Coeff-En:   0.000D+00 0.309D+00 0.691D+00
 Coeff:      0.000D+00 0.309D+00 0.691D+00
 Gap=     0.043 Goal=   None    Shift=    0.000
 Gap=     0.387 Goal=   None    Shift=    0.000
 RMSDP=5.88D-03 MaxDP=7.41D-01 DE=-2.09D-01 OVMax= 9.48D-01

 Cycle   4  Pass 0  IDiag  1:
 RMSU=  2.15D-03    CP:  9.53D-01  2.87D+00 -3.13D-01
 E= -1679.68882835118     Delta-E=        2.457575486797 Rises=F Damp=F
 DIIS: error= 5.75D-02 at cycle   4 NSaved=   4.
 NSaved= 4 IEnMin= 3 EnMin= -1682.14640383797     IErMin= 2 ErrMin= 1.78D-02
 ErrMax= 5.75D-02  0.00D+00 EMaxC= 1.00D-01 BMatC= 7.28D+00 BMatP= 8.23D-01
 IDIUse=2 WtCom= 0.00D+00 WtEn= 1.00D+00
 Coeff-En:   0.000D+00 0.000D+00 0.786D+00 0.214D+00
 Coeff:      0.000D+00 0.000D+00 0.786D+00 0.214D+00
 Gap=     0.054 Goal=   None    Shift=    0.000
 Gap=    -0.105 Goal=   None    Shift=    0.000
 RMSDP=4.84D-03 MaxDP=7.41D-01 DE= 2.46D+00 OVMax= 9.67D-01

 Cycle   5  Pass 0  IDiag  1:
 RMSU=  1.97D-03    CP:  9.57D-01  7.95D-01  3.30D-01  3.35D-01
 E= -1682.46776654809     Delta-E=       -2.778938196918 Rises=F Damp=F
 DIIS: error= 1.41D-02 at cycle   5 NSaved=   5.
 NSaved= 5 IEnMin= 5 EnMin= -1682.46776654809     IErMin= 5 ErrMin= 1.41D-02
 ErrMax= 1.41D-02  0.00D+00 EMaxC= 1.00D-01 BMatC= 5.87D-01 BMatP= 8.23D-01
 IDIUse=3 WtCom= 8.59D-01 WtEn= 1.41D-01
 Coeff-Com: -0.271D+00 0.533D+00 0.335D+00-0.395D-01 0.443D+00
 Coeff-En:   0.000D+00 0.000D+00 0.307D+00 0.000D+00 0.693D+00
 Coeff:     -0.233D+00 0.458D+00 0.331D+00-0.340D-01 0.479D+00
 Gap=     0.032 Goal=   None    Shift=    0.000
 Gap=     0.148 Goal=   None    Shift=    0.000
 RMSDP=1.34D-03 MaxDP=1.25D-01 DE=-2.78D+00 OVMax= 5.23D-01

 Cycle   6  Pass 0  IDiag  1:
 RMSU=  6.83D-04    CP:  9.55D-01  6.92D-01  5.92D-01  1.49D-01  5.83D-01
 E= -1682.62373355474     Delta-E=       -0.155967006646 Rises=F Damp=F
 DIIS: error= 2.72D-03 at cycle   6 NSaved=   6.
 NSaved= 6 IEnMin= 6 EnMin= -1682.62373355474     IErMin= 6 ErrMin= 2.72D-03
 ErrMax= 2.72D-03  0.00D+00 EMaxC= 1.00D-01 BMatC= 4.19D-02 BMatP= 5.87D-01
 IDIUse=3 WtCom= 9.73D-01 WtEn= 2.72D-02
 Coeff-Com: -0.116D+00 0.202D+00 0.132D+00-0.242D-01 0.285D+00 0.521D+00
 Coeff-En:   0.000D+00 0.000D+00 0.000D+00 0.000D+00 0.436D-01 0.956D+00
 Coeff:     -0.113D+00 0.197D+00 0.129D+00-0.236D-01 0.278D+00 0.533D+00
 Gap=     0.046 Goal=   None    Shift=    0.000
 Gap=     0.134 Goal=   None    Shift=    0.000
 RMSDP=6.15D-04 MaxDP=3.69D-02 DE=-1.56D-01 OVMax= 2.87D-01

 Cycle   7  Pass 0  IDiag  1:
 RMSU=  3.81D-04    CP:  9.55D-01  7.28D-01  5.40D-01  1.68D-01  7.38D-01
                    CP:  5.03D-01
 E= -1682.63366830643     Delta-E=       -0.009934751693 Rises=F Damp=F
 DIIS: error= 2.09D-03 at cycle   7 NSaved=   7.
 NSaved= 7 IEnMin= 7 EnMin= -1682.63366830643     IErMin= 7 ErrMin= 2.09D-03
 ErrMax= 2.09D-03  0.00D+00 EMaxC= 1.00D-01 BMatC= 1.61D-02 BMatP= 4.19D-02
 IDIUse=3 WtCom= 9.79D-01 WtEn= 2.09D-02
 Coeff-Com: -0.177D-01 0.261D-01-0.176D-02-0.182D-02 0.497D-01 0.415D+00
 Coeff-Com:  0.531D+00
 Coeff-En:   0.000D+00 0.000D+00 0.000D+00 0.000D+00 0.000D+00 0.286D+00
 Coeff-En:   0.714D+00
 Coeff:     -0.173D-01 0.256D-01-0.172D-02-0.178D-02 0.486D-01 0.412D+00
 Coeff:      0.534D+00
 Gap=     0.049 Goal=   None    Shift=    0.000
 Gap=     0.131 Goal=   None    Shift=    0.000
 RMSDP=2.20D-04 MaxDP=8.81D-03 DE=-9.93D-03 OVMax= 7.00D-02

 Cycle   8  Pass 0  IDiag  1:
 RMSU=  1.16D-04    CP:  9.54D-01  7.22D-01  5.52D-01  1.69D-01  7.08D-01
                    CP:  6.99D-01  7.08D-01
 E= -1682.63850168707     Delta-E=       -0.004833380643 Rises=F Damp=F
 DIIS: error= 6.16D-04 at cycle   8 NSaved=   8.
 NSaved= 8 IEnMin= 8 EnMin= -1682.63850168707     IErMin= 8 ErrMin= 6.16D-04
 ErrMax= 6.16D-04  0.00D+00 EMaxC= 1.00D-01 BMatC= 1.80D-03 BMatP= 1.61D-02
 IDIUse=3 WtCom= 9.94D-01 WtEn= 6.16D-03
 Coeff-Com: -0.568D-02 0.738D-02-0.109D-01 0.357D-03 0.102D-01 0.246D+00
 Coeff-Com:  0.328D+00 0.424D+00
 Coeff-En:   0.000D+00 0.000D+00 0.000D+00 0.000D+00 0.000D+00 0.000D+00
 Coeff-En:   0.000D+00 0.100D+01
 Coeff:     -0.565D-02 0.734D-02-0.108D-01 0.355D-03 0.101D-01 0.244D+00
 Coeff:      0.326D+00 0.428D+00
 Gap=     0.050 Goal=   None    Shift=    0.000
 Gap=     0.127 Goal=   None    Shift=    0.000
 RMSDP=6.53D-05 MaxDP=3.34D-03 DE=-4.83D-03 OVMax= 1.70D-02

 Cycle   9  Pass 0  IDiag  1:
 RMSU=  5.28D-05    CP:  9.54D-01  7.23D-01  5.50D-01  1.70D-01  7.14D-01
                    CP:  6.84D-01  7.63D-01  7.65D-01
 E= -1682.63900020182     Delta-E=       -0.000498514741 Rises=F Damp=F
 DIIS: error= 2.93D-04 at cycle   9 NSaved=   9.
 NSaved= 9 IEnMin= 9 EnMin= -1682.63900020182     IErMin= 9 ErrMin= 2.93D-04
 ErrMax= 2.93D-04  0.00D+00 EMaxC= 1.00D-01 BMatC= 2.46D-04 BMatP= 1.80D-03
 IDIUse=3 WtCom= 9.97D-01 WtEn= 2.93D-03
 Coeff-Com: -0.252D-02 0.523D-02-0.574D-03-0.186D-03-0.655D-02-0.924D-02
 Coeff-Com: -0.826D-01 0.158D+00 0.938D+00
 Coeff-En:   0.000D+00 0.000D+00 0.000D+00 0.000D+00 0.000D+00 0.000D+00
 Coeff-En:   0.000D+00 0.000D+00 0.100D+01
 Coeff:     -0.252D-02 0.522D-02-0.572D-03-0.185D-03-0.653D-02-0.921D-02
 Coeff:     -0.823D-01 0.158D+00 0.938D+00
 Gap=     0.051 Goal=   None    Shift=    0.000
 Gap=     0.126 Goal=   None    Shift=    0.000
 RMSDP=4.18D-05 MaxDP=3.82D-03 DE=-4.99D-04 OVMax= 1.44D-02

 Cycle  10  Pass 0  IDiag  1:
 RMSU=  2.35D-05    CP:  9.54D-01  7.25D-01  5.49D-01  1.72D-01  7.20D-01
                    CP:  6.78D-01  7.80D-01  9.87D-01  1.32D+00
 E= -1682.63912866016     Delta-E=       -0.000128458340 Rises=F Damp=F
 DIIS: error= 2.16D-04 at cycle  10 NSaved=  10.
 NSaved=10 IEnMin=10 EnMin= -1682.63912866016     IErMin=10 ErrMin= 2.16D-04
 ErrMax= 2.16D-04  0.00D+00 EMaxC= 1.00D-01 BMatC= 6.94D-05 BMatP= 2.46D-04
 IDIUse=3 WtCom= 9.98D-01 WtEn= 2.16D-03
 Coeff-Com:  0.114D-02-0.101D-02 0.267D-02 0.645D-04-0.630D-02-0.572D-01
 Coeff-Com: -0.131D+00-0.551D-02 0.534D+00 0.663D+00
 Coeff-En:   0.000D+00 0.000D+00 0.000D+00 0.000D+00 0.000D+00 0.000D+00
 Coeff-En:   0.000D+00 0.000D+00 0.000D+00 0.100D+01
 Coeff:      0.113D-02-0.101D-02 0.267D-02 0.643D-04-0.628D-02-0.570D-01
 Coeff:     -0.131D+00-0.550D-02 0.533D+00 0.664D+00
 Gap=     0.051 Goal=   None    Shift=    0.000
 Gap=     0.125 Goal=   None    Shift=    0.000
 RMSDP=2.12D-05 MaxDP=1.53D-03 DE=-1.28D-04 OVMax= 4.90D-03

 Cycle  11  Pass 0  IDiag  1:
 RMSU=  1.14D-05    CP:  9.54D-01  7.25D-01  5.50D-01  1.73D-01  7.21D-01
                    CP:  6.76D-01  7.90D-01  1.09D+00  1.54D+00  9.05D-01
 E= -1682.63916159264     Delta-E=       -0.000032932483 Rises=F Damp=F
 DIIS: error= 7.38D-05 at cycle  11 NSaved=  11.
 NSaved=11 IEnMin=11 EnMin= -1682.63916159264     IErMin=11 ErrMin= 7.38D-05
 ErrMax= 7.38D-05  0.00D+00 EMaxC= 1.00D-01 BMatC= 1.74D-05 BMatP= 6.94D-05
 IDIUse=1 WtCom= 1.00D+00 WtEn= 0.00D+00
 Coeff-Com:  0.179D-02-0.255D-02 0.179D-02 0.842D-04-0.305D-02-0.283D-01
 Coeff-Com: -0.579D-01-0.357D-01 0.108D+00 0.359D+00 0.656D+00
 Coeff:      0.179D-02-0.255D-02 0.179D-02 0.842D-04-0.305D-02-0.283D-01
 Coeff:     -0.579D-01-0.357D-01 0.108D+00 0.359D+00 0.656D+00
 Gap=     0.051 Goal=   None    Shift=    0.000
 Gap=     0.125 Goal=   None    Shift=    0.000
 RMSDP=1.04D-05 MaxDP=8.59D-04 DE=-3.29D-05 OVMax= 3.87D-03

 Cycle  12  Pass 0  IDiag  1:
 RMSU=  5.81D-06    CP:  9.54D-01  7.25D-01  5.50D-01  1.73D-01  7.22D-01
                    CP:  6.71D-01  7.98D-01  1.13D+00  1.62D+00  1.07D+00
                    CP:  9.45D-01
 E= -1682.63916890003     Delta-E=       -0.000007307387 Rises=F Damp=F
 DIIS: error= 5.68D-05 at cycle  12 NSaved=  12.
 NSaved=12 IEnMin=12 EnMin= -1682.63916890003     IErMin=12 ErrMin= 5.68D-05
 ErrMax= 5.68D-05  0.00D+00 EMaxC= 1.00D-01 BMatC= 6.83D-06 BMatP= 1.74D-05
 IDIUse=1 WtCom= 1.00D+00 WtEn= 0.00D+00
 Coeff-Com:  0.884D-03-0.122D-02 0.535D-03 0.288D-05-0.793D-03-0.304D-03
 Coeff-Com:  0.430D-03-0.202D-01-0.774D-01 0.148D-01 0.423D+00 0.660D+00
 Coeff:      0.884D-03-0.122D-02 0.535D-03 0.288D-05-0.793D-03-0.304D-03
 Coeff:      0.430D-03-0.202D-01-0.774D-01 0.148D-01 0.423D+00 0.660D+00
 Gap=     0.051 Goal=   None    Shift=    0.000
 Gap=     0.125 Goal=   None    Shift=    0.000
 RMSDP=5.05D-06 MaxDP=4.53D-04 DE=-7.31D-06 OVMax= 1.20D-03

 Initial convergence to 1.0D-05 achieved.  Increase integral accuracy.
 Cycle  13  Pass 1  IDiag  1:
 E= -1682.63919015401     Delta-E=       -0.000021253982 Rises=F Damp=F
 DIIS: error= 1.16D-04 at cycle   1 NSaved=   1.
 NSaved= 1 IEnMin= 1 EnMin= -1682.63919015401     IErMin= 1 ErrMin= 1.16D-04
 ErrMax= 1.16D-04  0.00D+00 EMaxC= 1.00D-01 BMatC= 1.36D-05 BMatP= 1.36D-05
 IDIUse=3 WtCom= 9.99D-01 WtEn= 1.16D-03
 Coeff-Com:  0.100D+01
 Coeff-En:   0.100D+01
 Coeff:      0.100D+01
 Gap=     0.051 Goal=   None    Shift=    0.000
 Gap=     0.125 Goal=   None    Shift=    0.000
 RMSDP=5.05D-06 MaxDP=4.53D-04 DE=-2.13D-05 OVMax= 1.15D-03

 Cycle  14  Pass 1  IDiag  1:
 RMSU=  7.77D-05    CP:  1.00D+00
 E= -1682.63919182219     Delta-E=       -0.000001668179 Rises=F Damp=F
 DIIS: error= 4.16D-05 at cycle   2 NSaved=   2.
 NSaved= 2 IEnMin= 2 EnMin= -1682.63919182219     IErMin= 2 ErrMin= 4.16D-05
 ErrMax= 4.16D-05  0.00D+00 EMaxC= 1.00D-01 BMatC= 6.35D-06 BMatP= 1.36D-05
 IDIUse=1 WtCom= 1.00D+00 WtEn= 0.00D+00
 Coeff-Com:  0.356D+00 0.644D+00
 Coeff:      0.356D+00 0.644D+00
 Gap=     0.051 Goal=   None    Shift=    0.000
 Gap=     0.125 Goal=   None    Shift=    0.000
 RMSDP=6.61D-06 MaxDP=6.33D-04 DE=-1.67D-06 OVMax= 1.76D-03

 Cycle  15  Pass 1  IDiag  1:
 RMSU=  6.61D-06    CP:  1.00D+00  1.00D+00
 E= -1682.63919120766     Delta-E=        0.000000614531 Rises=F Damp=F
 DIIS: error= 5.83D-05 at cycle   3 NSaved=   3.
 NSaved= 3 IEnMin= 2 EnMin= -1682.63919182219     IErMin= 2 ErrMin= 4.16D-05
 ErrMax= 5.83D-05  0.00D+00 EMaxC= 1.00D-01 BMatC= 9.31D-06 BMatP= 6.35D-06
 IDIUse=1 WtCom= 1.00D+00 WtEn= 0.00D+00
 Coeff-Com:  0.823D-02 0.546D+00 0.446D+00
 Coeff:      0.823D-02 0.546D+00 0.446D+00
 Gap=     0.051 Goal=   None    Shift=    0.000
 Gap=     0.125 Goal=   None    Shift=    0.000
 RMSDP=3.59D-06 MaxDP=3.43D-04 DE= 6.15D-07 OVMax= 6.39D-04

 Cycle  16  Pass 1  IDiag  1:
 RMSU=  1.33D-06    CP:  1.00D+00  1.01D+00  5.02D-01
 E= -1682.63919346870     Delta-E=       -0.000002261042 Rises=F Damp=F
 DIIS: error= 1.11D-05 at cycle   4 NSaved=   4.
 NSaved= 4 IEnMin= 4 EnMin= -1682.63919346870     IErMin= 4 ErrMin= 1.11D-05
 ErrMax= 1.11D-05  0.00D+00 EMaxC= 1.00D-01 BMatC= 3.73D-07 BMatP= 6.35D-06
 IDIUse=1 WtCom= 1.00D+00 WtEn= 0.00D+00
 Coeff-Com: -0.632D-02 0.350D+00 0.301D+00 0.356D+00
 Coeff:     -0.632D-02 0.350D+00 0.301D+00 0.356D+00
 Gap=     0.051 Goal=   None    Shift=    0.000
 Gap=     0.125 Goal=   None    Shift=    0.000
 RMSDP=7.81D-07 MaxDP=3.91D-05 DE=-2.26D-06 OVMax= 1.38D-04

 Cycle  17  Pass 1  IDiag  1:
 RMSU=  5.25D-07    CP:  1.00D+00  1.01D+00  4.99D-01  5.68D-01
 E= -1682.63919357125     Delta-E=       -0.000000102549 Rises=F Damp=F
 DIIS: error= 2.99D-06 at cycle   5 NSaved=   5.
 NSaved= 5 IEnMin= 5 EnMin= -1682.63919357125     IErMin= 5 ErrMin= 2.99D-06
 ErrMax= 2.99D-06  0.00D+00 EMaxC= 1.00D-01 BMatC= 2.17D-08 BMatP= 3.73D-07
 IDIUse=1 WtCom= 1.00D+00 WtEn= 0.00D+00
 Coeff-Com: -0.385D-02 0.785D-01 0.659D-01 0.131D+00 0.728D+00
 Coeff:     -0.385D-02 0.785D-01 0.659D-01 0.131D+00 0.728D+00
 Gap=     0.051 Goal=   None    Shift=    0.000
 Gap=     0.125 Goal=   None    Shift=    0.000
 RMSDP=3.64D-07 MaxDP=2.66D-05 DE=-1.03D-07 OVMax= 7.21D-05

 Cycle  18  Pass 1  IDiag  1:
 RMSU=  3.06D-07    CP:  1.00D+00  1.01D+00  5.03D-01  6.95D-01  1.18D+00
 E= -1682.63919358734     Delta-E=       -0.000000016089 Rises=F Damp=F
 DIIS: error= 2.55D-06 at cycle   6 NSaved=   6.
 NSaved= 6 IEnMin= 6 EnMin= -1682.63919358734     IErMin= 6 ErrMin= 2.55D-06
 ErrMax= 2.55D-06  0.00D+00 EMaxC= 1.00D-01 BMatC= 2.04D-08 BMatP= 2.17D-08
 IDIUse=1 WtCom= 1.00D+00 WtEn= 0.00D+00
 Coeff-Com:  0.238D-02-0.276D+00-0.241D+00-0.247D+00 0.791D+00 0.971D+00
 Coeff:      0.238D-02-0.276D+00-0.241D+00-0.247D+00 0.791D+00 0.971D+00
 Gap=     0.051 Goal=   None    Shift=    0.000
 Gap=     0.125 Goal=   None    Shift=    0.000
 RMSDP=5.42D-07 MaxDP=4.94D-05 DE=-1.61D-08 OVMax= 1.28D-04

 Cycle  19  Pass 1  IDiag  1:
 RMSU=  1.95D-07    CP:  1.00D+00  1.01D+00  5.17D-01  8.75D-01  2.01D+00
                    CP:  1.16D+00
 E= -1682.63919360812     Delta-E=       -0.000000020785 Rises=F Damp=F
 DIIS: error= 9.92D-07 at cycle   7 NSaved=   7.
 NSaved= 7 IEnMin= 7 EnMin= -1682.63919360812     IErMin= 7 ErrMin= 9.92D-07
 ErrMax= 9.92D-07  0.00D+00 EMaxC= 1.00D-01 BMatC= 4.01D-09 BMatP= 2.04D-08
 IDIUse=1 WtCom= 1.00D+00 WtEn= 0.00D+00
 Coeff-Com:  0.221D-02-0.188D+00-0.163D+00-0.181D+00 0.367D+00 0.608D+00
 Coeff-Com:  0.555D+00
 Coeff:      0.221D-02-0.188D+00-0.163D+00-0.181D+00 0.367D+00 0.608D+00
 Coeff:      0.555D+00
 Gap=     0.051 Goal=   None    Shift=    0.000
 Gap=     0.125 Goal=   None    Shift=    0.000
 RMSDP=1.66D-07 MaxDP=1.29D-05 DE=-2.08D-08 OVMax= 4.33D-05

 Cycle  20  Pass 1  IDiag  1:
 RMSU=  9.27D-08    CP:  1.00D+00  1.01D+00  5.22D-01  9.31D-01  2.17D+00
                    CP:  1.37D+00  9.58D-01
 E= -1682.63919361046     Delta-E=       -0.000000002336 Rises=F Damp=F
 DIIS: error= 4.47D-07 at cycle   8 NSaved=   8.
 NSaved= 8 IEnMin= 8 EnMin= -1682.63919361046     IErMin= 8 ErrMin= 4.47D-07
 ErrMax= 4.47D-07  0.00D+00 EMaxC= 1.00D-01 BMatC= 6.75D-10 BMatP= 4.01D-09
 IDIUse=1 WtCom= 1.00D+00 WtEn= 0.00D+00
 Coeff-Com:  0.746D-03-0.493D-01-0.419D-01-0.495D-01 0.410D-01 0.136D+00
 Coeff-Com:  0.305D+00 0.658D+00
 Coeff:      0.746D-03-0.493D-01-0.419D-01-0.495D-01 0.410D-01 0.136D+00
 Coeff:      0.305D+00 0.658D+00
 Gap=     0.051 Goal=   None    Shift=    0.000
 Gap=     0.125 Goal=   None    Shift=    0.000
 RMSDP=7.33D-08 MaxDP=5.36D-06 DE=-2.34D-09 OVMax= 1.78D-05

 Cycle  21  Pass 1  IDiag  1:
 RMSU=  5.60D-08    CP:  1.00D+00  1.01D+00  5.21D-01  9.36D-01  2.23D+00
                    CP:  1.41D+00  1.12D+00  8.73D-01
 E= -1682.63919361092     Delta-E=       -0.000000000464 Rises=F Damp=F
 DIIS: error= 3.52D-07 at cycle   9 NSaved=   9.
 NSaved= 9 IEnMin= 9 EnMin= -1682.63919361092     IErMin= 9 ErrMin= 3.52D-07
 ErrMax= 3.52D-07  0.00D+00 EMaxC= 1.00D-01 BMatC= 2.47D-10 BMatP= 6.75D-10
 IDIUse=1 WtCom= 1.00D+00 WtEn= 0.00D+00
 Coeff-Com: -0.394D-03 0.402D-01 0.362D-01 0.384D-01-0.109D+00-0.135D+00
 Coeff-Com: -0.318D-01 0.403D+00 0.758D+00
 Coeff:     -0.394D-03 0.402D-01 0.362D-01 0.384D-01-0.109D+00-0.135D+00
 Coeff:     -0.318D-01 0.403D+00 0.758D+00
 Gap=     0.051 Goal=   None    Shift=    0.000
 Gap=     0.125 Goal=   None    Shift=    0.000
 RMSDP=4.84D-08 MaxDP=3.06D-06 DE=-4.64D-10 OVMax= 1.45D-05

 Cycle  22  Pass 1  IDiag  1:
 RMSU=  3.06D-08    CP:  1.00D+00  1.01D+00  5.22D-01  9.45D-01  2.24D+00
                    CP:  1.42D+00  1.22D+00  1.15D+00  1.04D+00
 E= -1682.63919361113     Delta-E=       -0.000000000211 Rises=F Damp=F
 DIIS: error= 1.76D-07 at cycle  10 NSaved=  10.
 NSaved=10 IEnMin=10 EnMin= -1682.63919361113     IErMin=10 ErrMin= 1.76D-07
 ErrMax= 1.76D-07  0.00D+00 EMaxC= 1.00D-01 BMatC= 1.11D-10 BMatP= 2.47D-10
 IDIUse=1 WtCom= 1.00D+00 WtEn= 0.00D+00
 Coeff-Com: -0.598D-03 0.509D-01 0.452D-01 0.505D-01-0.106D+00-0.163D+00
 Coeff-Com: -0.150D+00 0.749D-01 0.574D+00 0.625D+00
 Coeff:     -0.598D-03 0.509D-01 0.452D-01 0.505D-01-0.106D+00-0.163D+00
 Coeff:     -0.150D+00 0.749D-01 0.574D+00 0.625D+00
 Gap=     0.051 Goal=   None    Shift=    0.000
 Gap=     0.125 Goal=   None    Shift=    0.000
 RMSDP=3.09D-08 MaxDP=2.33D-06 DE=-2.11D-10 OVMax= 9.38D-06

 Cycle  23  Pass 1  IDiag  1:
 RMSU=  1.76D-08    CP:  1.00D+00  1.01D+00  5.22D-01  9.43D-01  2.25D+00
                    CP:  1.45D+00  1.27D+00  1.24D+00  1.38D+00  9.53D-01
 E= -1682.63919361122     Delta-E=       -0.000000000087 Rises=F Damp=F
 DIIS: error= 6.62D-08 at cycle  11 NSaved=  11.
 NSaved=11 IEnMin=11 EnMin= -1682.63919361122     IErMin=11 ErrMin= 6.62D-08
 ErrMax= 6.62D-08  0.00D+00 EMaxC= 1.00D-01 BMatC= 1.46D-11 BMatP= 1.11D-10
 IDIUse=1 WtCom= 1.00D+00 WtEn= 0.00D+00
 Coeff-Com: -0.194D-03 0.152D-01 0.134D-01 0.156D-01-0.266D-01-0.468D-01
 Coeff-Com: -0.604D-01-0.468D-01 0.836D-01 0.307D+00 0.746D+00
 Coeff:     -0.194D-03 0.152D-01 0.134D-01 0.156D-01-0.266D-01-0.468D-01
 Coeff:     -0.604D-01-0.468D-01 0.836D-01 0.307D+00 0.746D+00
 Gap=     0.051 Goal=   None    Shift=    0.000
 Gap=     0.125 Goal=   None    Shift=    0.000
 RMSDP=1.06D-08 MaxDP=7.27D-07 DE=-8.73D-11 OVMax= 2.20D-06

 Cycle  24  Pass 1  IDiag  1:
 RMSU=  6.42D-09    CP:  1.00D+00  1.01D+00  5.21D-01  9.43D-01  2.25D+00
                    CP:  1.45D+00  1.29D+00  1.27D+00  1.46D+00  1.11D+00
                    CP:  1.08D+00
 E= -1682.63919361125     Delta-E=       -0.000000000031 Rises=F Damp=F
 DIIS: error= 3.81D-08 at cycle  12 NSaved=  12.
 NSaved=12 IEnMin=12 EnMin= -1682.63919361125     IErMin=12 ErrMin= 3.81D-08
 ErrMax= 3.81D-08  0.00D+00 EMaxC= 1.00D-01 BMatC= 4.69D-12 BMatP= 1.46D-11
 IDIUse=1 WtCom= 1.00D+00 WtEn= 0.00D+00
 Coeff-Com:  0.468D-04-0.469D-02-0.416D-02-0.407D-02 0.122D-01 0.158D-01
 Coeff-Com:  0.523D-02-0.428D-01-0.113D+00 0.410D-01 0.436D+00 0.658D+00
 Coeff:      0.468D-04-0.469D-02-0.416D-02-0.407D-02 0.122D-01 0.158D-01
 Coeff:      0.523D-02-0.428D-01-0.113D+00 0.410D-01 0.436D+00 0.658D+00
 Gap=     0.051 Goal=   None    Shift=    0.000
 Gap=     0.125 Goal=   None    Shift=    0.000
 RMSDP=4.97D-09 MaxDP=3.51D-07 DE=-3.09D-11 OVMax= 1.02D-06

 SCF Done:  E(UB3LYP) =  -1682.63919361     A.U. after   24 cycles
            NFock= 24  Conv=0.50D-08     -V/T= 2.0080
 <Sx>= 0.0000 <Sy>= 0.0000 <Sz>= 0.5000 <S**2>= 0.7596 S= 0.5048
 <L.S>= 0.000000000000E+00
 KE= 1.669314696379D+03 PE=-1.010307580719D+04 EE= 3.673951821357D+03
 Annihilation of the first spin contaminant:
 S**2 before annihilation     0.7596,   after     0.7501
 Leave Link  502 at Thu Mar 14 10:07:51 2024, MaxMem= 32212254720 cpu:            1579.6 elap:              52.7
 (Enter /home/<user>/g16/l601.exe)
 Copying SCF densities to generalized density rwf, IOpCl= 1 IROHF=0.

 **********************************************************************

            Population analysis using the SCF Density.

 **********************************************************************

 Orbital symmetries:
 Alpha Orbitals:
       Occupied  (A) (A) (A) (A) (A) (A) (A) (A) (A) (A) (A) (A)
                 (A) (A) (A) (A) (A) (A) (A) (A) (A) (A) (A) (A)
                 (A) (A) (A) (A) (A) (A) (A) (A) (A) (A) (A) (A)
                 (A) (A) (A) (A) (A) (A) (A) (A) (A) (A) (A) (A)
                 (A) (A) (A) (A) (A) (A) (A) (A) (A) (A) (A) (A)
                 (A) (A) (A) (A) (A) (A) (A) (A) (A) (A) (A) (A)
                 (A) (A) (A) (A) (A) (A) (A) (A) (A) (A) (A) (A)
                 (A) (A) (A) (A) (A) (A) (A) (A) (A) (A) (A) (A)
                 (A) (A) (A) (A) (A) (A) (A) (A) (A) (A) (A) (A)
                 (A) (A) (A) (A) (A) (A) (A) (A) (A) (A) (A)
       Virtual   (A) (A) (A) (A) (A) (A) (A) (A) (A) (A) (A) (A)
                 (A) (A) (A) (A) (A) (A) (A) (A) (A) (A) (A) (A)
                 (A) (A) (A) (A) (A) (A) (A) (A) (A) (A) (A) (A)
                 (A) (A) (A) (A) (A) (A) (A) (A) (A) (A) (A) (A)
                 (A) (A) (A) (A) (A) (A) (A) (A) (A) (A) (A) (A)
                 (A) (A) (A) (A) (A) (A) (A) (A) (A) (A) (A) (A)
                 (A) (A) (A) (A) (A) (A) (A) (A) (A) (A) (A) (A)
                 (A) (A) (A) (A) (A) (A) (A) (A) (A) (A) (A) (A)
                 (A) (A) (A) (A) (A) (A) (A) (A) (A) (A) (A) (A)
                 (A) (A) (A) (A) (A) (A) (A) (A) (A) (A) (A) (A)
                 (A) (A) (A) (A) (A) (A) (A) (A) (A) (A) (A) (A)
                 (A) (A) (A) (A) (A) (A) (A) (A) (A) (A) (A) (A)
                 (A) (A) (A) (A) (A) (A) (A) (A) (A) (A) (A) (A)
                 (A) (A) (A) (A) (A) (A) (A) (A) (A) (A) (A) (A)
                 (A) (A) (A) (A) (A) (A) (A) (A) (A) (A) (A) (A)
                 (A) (A) (A) (A) (A) (A) (A) (A) (A) (A) (A) (A)
                 (A) (A) (A) (A) (A) (A) (A) (A) (A) (A) (A) (A)
                 (A) (A) (A) (A) (A) (A) (A) (A) (A) (A) (A) (A)
                 (A) (A) (A) (A) (A) (A) (A) (A) (A) (A) (A) (A)
                 (A) (A) (A) (A) (A) (A) (A) (A) (A) (A) (A) (A)
                 (A) (A) (A) (A) (A) (A) (A) (A) (A) (A) (A) (A)
                 (A) (A) (A) (A) (A) (A) (A) (A) (A) (A) (A) (A)
                 (A) (A) (A) (A) (A) (A) (A) (A) (A) (A) (A) (A)
                 (A) (A) (A) (A) (A) (A) (A) (A) (A) (A) (A) (A)
                 (A) (A) (A) (A) (A) (A) (A) (A) (A) (A) (A) (A)
                 (A) (A) (A) (A) (A) (A) (A) (A) (A) (A) (A) (A)
                 (A) (A) (A) (A) (A) (A) (A) (A) (A) (A) (A) (A)
                 (A) (A) (A) (A) (A) (A) (A) (A) (A) (A) (A) (A)
                 (A) (A) (A) (A) (A) (A) (A) (A) (A) (A) (A) (A)
                 (A) (A) (A) (A) (A) (A) (A) (A) (A) (A) (A) (A)
                 (A) (A) (A) (A) (A) (A) (A) (A) (A) (A) (A) (A)
                 (A) (A) (A) (A) (A) (A) (A) (A) (A) (A) (A) (A)
                 (A) (A) (A) (A) (A) (A) (A) (A) (A) (A) (A) (A)
                 (A) (A) (A) (A) (A) (A) (A) (A) (A) (A) (A) (A)
                 (A) (A) (A) (A) (A) (A) (A) (A) (A) (A) (A) (A)
                 (A) (A) (A) (A) (A) (A) (A) (A) (A) (A)
 Beta  Orbitals:
       Occupied  (A) (A) (A) (A) (A) (A) (A) (A) (A) (A) (A) (A)
                 (A) (A) (A) (A) (A) (A) (A) (A) (A) (A) (A) (A)
                 (A) (A) (A) (A) (A) (A) (A) (A) (A) (A) (A) (A)
                 (A) (A) (A) (A) (A) (A) (A) (A) (A) (A) (A) (A)
                 (A) (A) (A) (A) (A) (A) (A) (A) (A) (A) (A) (A)
                 (A) (A) (A) (A) (A) (A) (A) (A) (A) (A) (A) (A)
                 (A) (A) (A) (A) (A) (A) (A) (A) (A) (A) (A) (A)
                 (A) (A) (A) (A) (A) (A) (A) (A) (A) (A) (A) (A)
                 (A) (A) (A) (A) (A) (A) (A) (A) (A) (A) (A) (A)
                 (A) (A) (A) (A) (A) (A) (A) (A) (A) (A)
       Virtual   (A) (A) (A) (A) (A) (A) (A) (A) (A) (A) (A) (A)
                 (A) (A) (A) (A) (A) (A) (A) (A) (A) (A) (A) (A)
                 (A) (A) (A) (A) (A) (A) (A) (A) (A) (A) (A) (A)
                 (A) (A) (A) (A) (A) (A) (A) (A) (A) (A) (A) (A)
                 (A) (A) (A) (A) (A) (A) (A) (A) (A) (A) (A) (A)
                 (A) (A) (A) (A) (A) (A) (A) (A) (A) (A) (A) (A)
                 (A) (A) (A) (A) (A) (A) (A) (A) (A) (A) (A) (A)
                 (A) (A) (A) (A) (A) (A) (A) (A) (A) (A) (A) (A)
                 (A) (A) (A) (A) (A) (A) (A) (A) (A) (A) (A) (A)
                 (A) (A) (A) (A) (A) (A) (A) (A) (A) (A) (A) (A)
                 (A) (A) (A) (A) (A) (A) (A) (A) (A) (A) (A) (A)
                 (A) (A) (A) (A) (A) (A) (A) (A) (A) (A) (A) (A)
                 (A) (A) (A) (A) (A) (A) (A) (A) (A) (A) (A) (A)
                 (A) (A) (A) (A) (A) (A) (A) (A) (A) (A) (A) (A)
                 (A) (A) (A) (A) (A) (A) (A) (A) (A) (A) (A) (A)
                 (A) (A) (A) (A) (A) (A) (A) (A) (A) (A) (A) (A)
                 (A) (A) (A) (A) (A) (A) (A) (A) (A) (A) (A) (A)
                 (A) (A) (A) (A) (A) (A) (A) (A) (A) (A) (A) (A)
                 (A) (A) (A) (A) (A) (A) (A) (A) (A) (A) (A) (A)
                 (A) (A) (A) (A) (A) (A) (A) (A) (A) (A) (A) (A)
                 (A) (A) (A) (A) (A) (A) (A) (A) (A) (A) (A) (A)
                 (A) (A) (A) (A) (A) (A) (A) (A) (A) (A) (A) (A)
                 (A) (A) (A) (A) (A) (A) (A) (A) (A) (A) (A) (A)
                 (A) (A) (A) (A) (A) (A) (A) (A) (A) (A) (A) (A)
                 (A) (A) (A) (A) (A) (A) (A) (A) (A) (A) (A) (A)
                 (A) (A) (A) (A) (A) (A) (A) (A) (A) (A) (A) (A)
                 (A) (A) (A) (A) (A) (A) (A) (A) (A) (A) (A) (A)
                 (A) (A) (A) (A) (A) (A) (A) (A) (A) (A) (A) (A)
                 (A) (A) (A) (A) (A) (A) (A) (A) (A) (A) (A) (A)
                 (A) (A) (A) (A) (A) (A) (A) (A) (A) (A) (A) (A)
                 (A) (A) (A) (A) (A) (A) (A) (A) (A) (A) (A) (A)
                 (A) (A) (A) (A) (A) (A) (A) (A) (A) (A) (A) (A)
                 (A) (A) (A) (A) (A) (A) (A) (A) (A) (A) (A) (A)
                 (A) (A) (A) (A) (A) (A) (A) (A) (A) (A) (A) (A)
                 (A) (A) (A) (A) (A) (A) (A) (A) (A) (A) (A) (A)
                 (A) (A) (A) (A) (A) (A) (A) (A) (A) (A) (A)
 The electronic state is 2-A.
 Alpha  occ. eigenvalues --  -88.80064 -14.24470 -14.19951 -14.19926 -10.13122
 Alpha  occ. eigenvalues --  -10.11732 -10.10556 -10.10417 -10.10268 -10.10056
 Alpha  occ. eigenvalues --  -10.10006 -10.09931 -10.09826 -10.09765 -10.09672
 Alpha  occ. eigenvalues --  -10.09080 -10.09033 -10.08833 -10.08323 -10.08300
 Alpha  occ. eigenvalues --  -10.08212 -10.08193 -10.08124 -10.08120 -10.08066
 Alpha  occ. eigenvalues --  -10.07698 -10.07514 -10.07204 -10.07067 -10.05917
 Alpha  occ. eigenvalues --  -10.05878 -10.05457 -10.05311  -7.85767  -5.82331
 Alpha  occ. eigenvalues --   -5.81761  -5.81505  -0.85762  -0.80934  -0.79145
 Alpha  occ. eigenvalues --   -0.75103  -0.74655  -0.73336  -0.72093  -0.70818
 Alpha  occ. eigenvalues --   -0.68358  -0.67328  -0.64980  -0.63879  -0.63508
 Alpha  occ. eigenvalues --   -0.62850  -0.61306  -0.60655  -0.60385  -0.58198
 Alpha  occ. eigenvalues --   -0.54808  -0.53564  -0.52194  -0.50193  -0.49753
 Alpha  occ. eigenvalues --   -0.48747  -0.47744  -0.47443  -0.46353  -0.45373
 Alpha  occ. eigenvalues --   -0.43542  -0.41732  -0.41349  -0.39695  -0.38701
 Alpha  occ. eigenvalues --   -0.38042  -0.37520  -0.36446  -0.35642  -0.35135
 Alpha  occ. eigenvalues --   -0.34925  -0.34730  -0.34423  -0.34246  -0.33710
 Alpha  occ. eigenvalues --   -0.33003  -0.32620  -0.32303  -0.31503  -0.31002
 Alpha  occ. eigenvalues --   -0.30850  -0.30601  -0.29802  -0.29323  -0.29095
 Alpha  occ. eigenvalues --   -0.28392  -0.28090  -0.26785  -0.26499  -0.25936
 Alpha  occ. eigenvalues --   -0.25310  -0.24958  -0.24701  -0.24180  -0.23708
 Alpha  occ. eigenvalues --   -0.23489  -0.22827  -0.22765  -0.22295  -0.21645
 Alpha  occ. eigenvalues --   -0.21108  -0.19345  -0.17560  -0.16695  -0.16618
 Alpha  occ. eigenvalues --   -0.16025  -0.14747  -0.14260  -0.14005  -0.13435
 Alpha  occ. eigenvalues --   -0.11969  -0.11899  -0.07981   0.01498
 Alpha virt. eigenvalues --    0.06584   0.08291   0.09812   0.10732   0.11215
 Alpha virt. eigenvalues --    0.13038   0.14744   0.15503   0.15883   0.16442
 Alpha virt. eigenvalues --    0.17140   0.18198   0.18799   0.20107   0.20467
 Alpha virt. eigenvalues --    0.21279   0.21961   0.22123   0.22374   0.22648
 Alpha virt. eigenvalues --    0.23279   0.23605   0.23686   0.24137   0.24701
 Alpha virt. eigenvalues --    0.25170   0.25873   0.26164   0.26800   0.27142
 Alpha virt. eigenvalues --    0.27313   0.27720   0.27944   0.28660   0.29339
 Alpha virt. eigenvalues --    0.29938   0.30866   0.31337   0.31454   0.31931
 Alpha virt. eigenvalues --    0.32616   0.33034   0.34179   0.35215   0.35564
 Alpha virt. eigenvalues --    0.35863   0.36224   0.36503   0.37581   0.38500
 Alpha virt. eigenvalues --    0.39897   0.40118   0.40311   0.41536   0.41744
 Alpha virt. eigenvalues --    0.42355   0.43601   0.43748   0.44327   0.45250
 Alpha virt. eigenvalues --    0.46340   0.47302   0.47830   0.48099   0.49440
 Alpha virt. eigenvalues --    0.50723   0.51320   0.53316   0.54981   0.55731
 Alpha virt. eigenvalues --    0.56998   0.57175   0.58678   0.58842   0.59743
 Alpha virt. eigenvalues --    0.60610   0.60835   0.61079   0.61412   0.61683
 Alpha virt. eigenvalues --    0.62122   0.62314   0.63629   0.63736   0.64121
 Alpha virt. eigenvalues --    0.64825   0.65236   0.65694   0.66126   0.66243
 Alpha virt. eigenvalues --    0.66496   0.66928   0.67530   0.68056   0.68232
 Alpha virt. eigenvalues --    0.68449   0.68900   0.69190   0.69280   0.69878
 Alpha virt. eigenvalues --    0.69970   0.70337   0.70729   0.71094   0.71495
 Alpha virt. eigenvalues --    0.72082   0.72647   0.72785   0.73292   0.73592
 Alpha virt. eigenvalues --    0.73889   0.74483   0.74625   0.75115   0.75346
 Alpha virt. eigenvalues --    0.75643   0.76327   0.76593   0.77360   0.77839
 Alpha virt. eigenvalues --    0.78333   0.78908   0.79590   0.80263   0.80611
 Alpha virt. eigenvalues --    0.81140   0.81714   0.82327   0.83449   0.84048
 Alpha virt. eigenvalues --    0.84910   0.85521   0.86094   0.86906   0.87789
 Alpha virt. eigenvalues --    0.88444   0.88742   0.89140   0.90068   0.90638
 Alpha virt. eigenvalues --    0.90726   0.91188   0.91434   0.91970   0.92201
 Alpha virt. eigenvalues --    0.92236   0.92895   0.93999   0.94480   0.95343
 Alpha virt. eigenvalues --    0.96100   0.96215   0.96386   0.96981   0.97288
 Alpha virt. eigenvalues --    0.97612   0.97672   0.98725   0.98734   0.98900
 Alpha virt. eigenvalues --    0.99146   0.99821   0.99962   1.00756   1.01153
 Alpha virt. eigenvalues --    1.01471   1.02260   1.02468   1.03814   1.04528
 Alpha virt. eigenvalues --    1.04715   1.05077   1.05651   1.06674   1.07225
 Alpha virt. eigenvalues --    1.07708   1.08016   1.08339   1.09482   1.09768
 Alpha virt. eigenvalues --    1.10446   1.11541   1.11739   1.12396   1.13157
 Alpha virt. eigenvalues --    1.13369   1.14825   1.15063   1.16280   1.16787
 Alpha virt. eigenvalues --    1.17691   1.17901   1.19333   1.20366   1.20870
 Alpha virt. eigenvalues --    1.21906   1.22729   1.22973   1.24680   1.25380
 Alpha virt. eigenvalues --    1.25885   1.26892   1.27195   1.28163   1.28471
 Alpha virt. eigenvalues --    1.30231   1.31140   1.32154   1.33132   1.33466
 Alpha virt. eigenvalues --    1.34223   1.35147   1.37282   1.37711   1.40850
 Alpha virt. eigenvalues --    1.42348   1.42677   1.43360   1.44209   1.44717
 Alpha virt. eigenvalues --    1.46033   1.47265   1.49972   1.50251   1.50378
 Alpha virt. eigenvalues --    1.50955   1.51631   1.51767   1.53683   1.54400
 Alpha virt. eigenvalues --    1.54580   1.56046   1.56288   1.57147   1.58055
 Alpha virt. eigenvalues --    1.58441   1.58806   1.59641   1.60255   1.61220
 Alpha virt. eigenvalues --    1.61421   1.62470   1.62871   1.63374   1.64884
 Alpha virt. eigenvalues --    1.65840   1.66814   1.69107   1.70830   1.71677
 Alpha virt. eigenvalues --    1.73886   1.77477   1.77725   1.79402   1.81368
 Alpha virt. eigenvalues --    1.81885   1.83915   1.85004   1.86422   1.87592
 Alpha virt. eigenvalues --    1.88259   1.88847   1.89255   1.89448   1.90237
 Alpha virt. eigenvalues --    1.90973   1.91209   1.91523   1.92472   1.93589
 Alpha virt. eigenvalues --    1.93953   1.94467   1.94843   1.95916   1.96133
 Alpha virt. eigenvalues --    1.98597   1.99487   1.99750   2.00197   2.00875
 Alpha virt. eigenvalues --    2.01635   2.02506   2.03500   2.03790   2.04028
 Alpha virt. eigenvalues --    2.04558   2.04842   2.08103   2.08692   2.09431
 Alpha virt. eigenvalues --    2.10167   2.10307   2.11675   2.12570   2.13182
 Alpha virt. eigenvalues --    2.14064   2.14748   2.14833   2.15544   2.16305
 Alpha virt. eigenvalues --    2.16770   2.18464   2.18835   2.20048   2.21913
 Alpha virt. eigenvalues --    2.22566   2.23458   2.24195   2.25005   2.25668
 Alpha virt. eigenvalues --    2.27775   2.28247   2.28864   2.29617   2.31330
 Alpha virt. eigenvalues --    2.32960   2.33396   2.33906   2.34422   2.35154
 Alpha virt. eigenvalues --    2.35407   2.35736   2.35937   2.37332   2.38477
 Alpha virt. eigenvalues --    2.39134   2.39872   2.40175   2.40940   2.41953
 Alpha virt. eigenvalues --    2.42358   2.42830   2.43182   2.43463   2.45658
 Alpha virt. eigenvalues --    2.46640   2.46914   2.48624   2.48805   2.49835
 Alpha virt. eigenvalues --    2.51011   2.52405   2.52629   2.53098   2.54888
 Alpha virt. eigenvalues --    2.56756   2.58308   2.59580   2.60793   2.61497
 Alpha virt. eigenvalues --    2.64252   2.65742   2.67586   2.69111   2.69961
 Alpha virt. eigenvalues --    2.70618   2.72408   2.73214   2.73625   2.74569
 Alpha virt. eigenvalues --    2.75695   2.76096   2.77173   2.79110   2.79442
 Alpha virt. eigenvalues --    2.80219   2.81997   2.83410   2.84095   2.84289
 Alpha virt. eigenvalues --    2.85207   2.86601   2.87821   2.89071   2.90129
 Alpha virt. eigenvalues --    2.91123   2.91463   2.94649   2.94754   2.97526
 Alpha virt. eigenvalues --    3.00514   3.03262   3.04074   3.05411   3.06963
 Alpha virt. eigenvalues --    3.08435   3.12363   3.13776   3.18937   3.20154
 Alpha virt. eigenvalues --    3.27102   3.38627   3.43411   3.44690   3.49352
 Alpha virt. eigenvalues --    3.57575   3.63237   3.85181   4.02003   4.15595
 Alpha virt. eigenvalues --    4.17307   4.17623   4.19025   4.21185   4.22675
 Alpha virt. eigenvalues --    4.22897   4.23788   4.24386   4.26230   4.26901
 Alpha virt. eigenvalues --    4.28932   4.30581   4.32866   4.33661   4.37433
 Alpha virt. eigenvalues --    4.37800   4.41618   4.44829   4.45963   4.48334
 Alpha virt. eigenvalues --    4.51786   4.53130   4.55601   4.57815   4.63588
 Alpha virt. eigenvalues --    4.71598   4.82089   4.90101   4.92064   4.98258
  Beta  occ. eigenvalues --  -88.79965 -14.24469 -14.19599 -14.19547 -10.13115
  Beta  occ. eigenvalues --  -10.11732 -10.10573 -10.10424 -10.10222 -10.10061
  Beta  occ. eigenvalues --  -10.09979 -10.09924 -10.09805 -10.09763 -10.09671
  Beta  occ. eigenvalues --  -10.09160 -10.09117 -10.08768 -10.08347 -10.08320
  Beta  occ. eigenvalues --  -10.08235 -10.08185 -10.08145 -10.08111 -10.08010
  Beta  occ. eigenvalues --  -10.07647 -10.07461 -10.07157 -10.07034 -10.05727
  Beta  occ. eigenvalues --  -10.05646 -10.05393 -10.05200  -7.85672  -5.82281
  Beta  occ. eigenvalues --   -5.81714  -5.81170  -0.85306  -0.80929  -0.79096
  Beta  occ. eigenvalues --   -0.74992  -0.74554  -0.72798  -0.71878  -0.70608
  Beta  occ. eigenvalues --   -0.68213  -0.67234  -0.64940  -0.63692  -0.63442
  Beta  occ. eigenvalues --   -0.62760  -0.61231  -0.60385  -0.60367  -0.57990
  Beta  occ. eigenvalues --   -0.54770  -0.53459  -0.52120  -0.50076  -0.49424
  Beta  occ. eigenvalues --   -0.48705  -0.47505  -0.47358  -0.46286  -0.45251
  Beta  occ. eigenvalues --   -0.43412  -0.41716  -0.41318  -0.39655  -0.38641
  Beta  occ. eigenvalues --   -0.37987  -0.37454  -0.36345  -0.35586  -0.35092
  Beta  occ. eigenvalues --   -0.34816  -0.34647  -0.34379  -0.34215  -0.33626
  Beta  occ. eigenvalues --   -0.32922  -0.32530  -0.32241  -0.31355  -0.30961
  Beta  occ. eigenvalues --   -0.30842  -0.30539  -0.29413  -0.29192  -0.28685
  Beta  occ. eigenvalues --   -0.28287  -0.28044  -0.26759  -0.26373  -0.25882
  Beta  occ. eigenvalues --   -0.25144  -0.24841  -0.24528  -0.24081  -0.23628
  Beta  occ. eigenvalues --   -0.23349  -0.22763  -0.22537  -0.21953  -0.21461
  Beta  occ. eigenvalues --   -0.20216  -0.18561  -0.16754  -0.16587  -0.16385
  Beta  occ. eigenvalues --   -0.15903  -0.14430  -0.13878  -0.13578  -0.12965
  Beta  occ. eigenvalues --   -0.11449  -0.10857  -0.06659
  Beta virt. eigenvalues --    0.05831   0.08001   0.08364   0.10746   0.10853
  Beta virt. eigenvalues --    0.11307   0.13715   0.14748   0.16085   0.16251
  Beta virt. eigenvalues --    0.16452   0.17992   0.18221   0.18991   0.20112
  Beta virt. eigenvalues --    0.20483   0.21331   0.22084   0.22227   0.22498
  Beta virt. eigenvalues --    0.22724   0.23491   0.23705   0.23735   0.24155
  Beta virt. eigenvalues --    0.24744   0.25209   0.25995   0.26236   0.26852
  Beta virt. eigenvalues --    0.27181   0.27376   0.27766   0.27978   0.28712
  Beta virt. eigenvalues --    0.29347   0.30138   0.30941   0.31424   0.31672
  Beta virt. eigenvalues --    0.32071   0.32911   0.33085   0.34275   0.35289
  Beta virt. eigenvalues --    0.35628   0.35895   0.36283   0.36571   0.37759
  Beta virt. eigenvalues --    0.38577   0.40034   0.40209   0.40514   0.41657
  Beta virt. eigenvalues --    0.41884   0.42434   0.43637   0.43811   0.44466
  Beta virt. eigenvalues --    0.45321   0.46410   0.47458   0.48234   0.48420
  Beta virt. eigenvalues --    0.49551   0.50847   0.51476   0.53475   0.55180
  Beta virt. eigenvalues --    0.55764   0.57097   0.57302   0.58761   0.58910
  Beta virt. eigenvalues --    0.59800   0.60670   0.60877   0.61143   0.61482
  Beta virt. eigenvalues --    0.61811   0.62190   0.62409   0.63729   0.63793
  Beta virt. eigenvalues --    0.64242   0.64946   0.65315   0.65757   0.66239
  Beta virt. eigenvalues --    0.66364   0.66577   0.67040   0.67588   0.68159
  Beta virt. eigenvalues --    0.68343   0.68567   0.68980   0.69236   0.69378
  Beta virt. eigenvalues --    0.69939   0.70029   0.70412   0.70813   0.71185
  Beta virt. eigenvalues --    0.71605   0.72161   0.72728   0.72916   0.73427
  Beta virt. eigenvalues --    0.73664   0.74032   0.74641   0.74794   0.75219
  Beta virt. eigenvalues --    0.75450   0.75766   0.76418   0.76719   0.77551
  Beta virt. eigenvalues --    0.77943   0.78455   0.79070   0.80311   0.80636
  Beta virt. eigenvalues --    0.81034   0.81283   0.82014   0.82586   0.83886
  Beta virt. eigenvalues --    0.84286   0.85006   0.85539   0.86174   0.87012
  Beta virt. eigenvalues --    0.87902   0.88512   0.88763   0.89258   0.90185
  Beta virt. eigenvalues --    0.90695   0.90907   0.91331   0.91560   0.92060
  Beta virt. eigenvalues --    0.92223   0.92276   0.92973   0.94272   0.94522
  Beta virt. eigenvalues --    0.95453   0.96162   0.96424   0.96580   0.97206
  Beta virt. eigenvalues --    0.97431   0.97664   0.97755   0.98761   0.98809
  Beta virt. eigenvalues --    0.98957   0.99210   0.99914   1.00068   1.00806
  Beta virt. eigenvalues --    1.01179   1.01490   1.02389   1.02624   1.03958
  Beta virt. eigenvalues --    1.04550   1.04746   1.05152   1.05714   1.06779
  Beta virt. eigenvalues --    1.07275   1.07770   1.08176   1.08488   1.09574
  Beta virt. eigenvalues --    1.09855   1.10534   1.11729   1.11936   1.12473
  Beta virt. eigenvalues --    1.13286   1.13504   1.15083   1.15393   1.16536
  Beta virt. eigenvalues --    1.16871   1.17871   1.18136   1.19466   1.20533
  Beta virt. eigenvalues --    1.20990   1.22041   1.22790   1.23207   1.24865
  Beta virt. eigenvalues --    1.25484   1.26050   1.27003   1.27326   1.28261
  Beta virt. eigenvalues --    1.28625   1.30326   1.31251   1.32256   1.33196
  Beta virt. eigenvalues --    1.33585   1.34325   1.35278   1.37378   1.37845
  Beta virt. eigenvalues --    1.40971   1.42443   1.42811   1.43468   1.44322
  Beta virt. eigenvalues --    1.44889   1.46084   1.47378   1.50036   1.50348
  Beta virt. eigenvalues --    1.50488   1.51159   1.51702   1.51844   1.53812
  Beta virt. eigenvalues --    1.54481   1.54762   1.56134   1.56406   1.57233
  Beta virt. eigenvalues --    1.58184   1.58543   1.58862   1.59794   1.60524
  Beta virt. eigenvalues --    1.61330   1.61541   1.62757   1.62989   1.63574
  Beta virt. eigenvalues --    1.64982   1.65919   1.66870   1.69227   1.70934
  Beta virt. eigenvalues --    1.71802   1.73918   1.77518   1.77868   1.79585
  Beta virt. eigenvalues --    1.81511   1.81965   1.84142   1.85266   1.86700
  Beta virt. eigenvalues --    1.87714   1.88377   1.88980   1.89375   1.89553
  Beta virt. eigenvalues --    1.90330   1.91125   1.91315   1.91650   1.92598
  Beta virt. eigenvalues --    1.94029   1.94126   1.94761   1.94864   1.96052
  Beta virt. eigenvalues --    1.96300   1.98685   1.99574   1.99874   2.00291
  Beta virt. eigenvalues --    2.01043   2.01933   2.02669   2.03595   2.03845
  Beta virt. eigenvalues --    2.04431   2.04868   2.05234   2.08145   2.08867
  Beta virt. eigenvalues --    2.09528   2.10227   2.10409   2.11821   2.12670
  Beta virt. eigenvalues --    2.13253   2.14151   2.14861   2.14975   2.15667
  Beta virt. eigenvalues --    2.16373   2.16898   2.18592   2.18966   2.20142
  Beta virt. eigenvalues --    2.22027   2.22628   2.23612   2.24299   2.25157
  Beta virt. eigenvalues --    2.25737   2.27965   2.28318   2.29043   2.29679
  Beta virt. eigenvalues --    2.31539   2.33039   2.33453   2.34079   2.34491
  Beta virt. eigenvalues --    2.35294   2.35573   2.35798   2.36009   2.37620
  Beta virt. eigenvalues --    2.38812   2.39383   2.40063   2.40355   2.41060
  Beta virt. eigenvalues --    2.42115   2.42492   2.42906   2.43294   2.43684
  Beta virt. eigenvalues --    2.45902   2.46714   2.47380   2.48711   2.49152
  Beta virt. eigenvalues --    2.49972   2.51228   2.52463   2.52686   2.53223
  Beta virt. eigenvalues --    2.55030   2.57073   2.58495   2.59637   2.60916
  Beta virt. eigenvalues --    2.61898   2.64335   2.65839   2.67892   2.69276
  Beta virt. eigenvalues --    2.70062   2.70717   2.72608   2.73287   2.73929
  Beta virt. eigenvalues --    2.74670   2.75821   2.76192   2.77405   2.79301
  Beta virt. eigenvalues --    2.79667   2.80389   2.82320   2.83446   2.84149
  Beta virt. eigenvalues --    2.84326   2.85356   2.86723   2.87956   2.89120
  Beta virt. eigenvalues --    2.90223   2.91228   2.91524   2.94722   2.94808
  Beta virt. eigenvalues --    2.97584   3.00586   3.03323   3.04126   3.05438
  Beta virt. eigenvalues --    3.07040   3.08504   3.12447   3.13905   3.19061
  Beta virt. eigenvalues --    3.20434   3.27167   3.38670   3.43457   3.44758
  Beta virt. eigenvalues --    3.49398   3.57625   3.63286   3.85184   4.02436
  Beta virt. eigenvalues --    4.15993   4.17553   4.17956   4.19094   4.21288
  Beta virt. eigenvalues --    4.22777   4.22940   4.23911   4.24499   4.26300
  Beta virt. eigenvalues --    4.26968   4.29014   4.30641   4.32901   4.33745
  Beta virt. eigenvalues --    4.37435   4.38124   4.41702   4.44879   4.46038
  Beta virt. eigenvalues --    4.48452   4.51816   4.53283   4.55643   4.57831
  Beta virt. eigenvalues --    4.63758   4.71664   4.82169   4.90131   4.92157
  Beta virt. eigenvalues --    4.98393
          Condensed to atoms (all electrons):
          Atomic-Atomic Spin Densities.
 Mulliken charges and spin densities:
               1          2
     1  C   -0.166524   0.023468
     2  C    0.108966  -0.001760
     3  C   -0.270139   0.037664
     4  C    0.099359  -0.016635
     5  C    0.072577   0.052746
     6  C   -0.212855  -0.004590
     7  H    0.142321  -0.001304
     8  H    0.109536  -0.002150
     9  H    0.100097   0.000239
    10  C   -0.051944  -0.000604
    11  C    0.095396   0.015699
    12  C   -0.206717  -0.007366
    13  C   -0.142769   0.035729
    14  C   -0.136870  -0.014881
    15  C   -0.202787   0.029756
    16  C    0.080289  -0.005486
    17  H    0.102222   0.000162
    18  H    0.096022  -0.001923
    19  H    0.100733   0.000541
    20  H    0.113231  -0.001447
    21  C   -0.434423   0.000338
    22  H    0.123071   0.000196
    23  H    0.142505   0.000300
    24  H    0.154128  -0.000081
    25  C   -0.434533   0.000323
    26  H    0.140789   0.000487
    27  H    0.123687   0.000110
    28  H    0.151105  -0.000076
    29  C    0.073432   0.141781
    30  C    0.174085  -0.056575
    31  C   -0.233965   0.084197
    32  C    0.174738  -0.062257
    33  C   -0.233949   0.043879
    34  H    0.083272  -0.004774
    35  C    0.074736   0.174665
    36  H    0.083959  -0.002904
    37  N   -0.630686   0.156010
    38  N   -0.633221   0.169845
    39  S    0.393332   0.160838
    40  C    0.099433  -0.023640
    41  C   -0.152051   0.033512
    42  C   -0.176730   0.037253
    43  C   -0.198514  -0.017338
    44  H    0.142857  -0.001669
    45  C   -0.196890  -0.020055
    46  H    0.111931  -0.002097
    47  C    0.166907   0.047367
    48  H    0.089857   0.000901
    49  H    0.092275   0.000884
    50  C   -0.334839  -0.003497
    51  H    0.138754   0.000725
    52  H    0.116966   0.000866
    53  C   -0.130136   0.002311
    54  H    0.118483  -0.000002
    55  H    0.139939  -0.000075
    56  N   -0.719021   0.000318
    57  H    0.283770  -0.000021
    58  H    0.284803   0.000097
 Sum of Mulliken charges =  -1.00000   1.00000
 Mulliken charges and spin densities with hydrogens summed into heavy atoms:
               1          2
     1  C   -0.024203   0.022164
     2  C    0.108966  -0.001760
     3  C   -0.160603   0.035513
     4  C    0.099359  -0.016635
     5  C    0.072577   0.052746
     6  C   -0.112759  -0.004351
    10  C   -0.051944  -0.000604
    11  C    0.095396   0.015699
    12  C   -0.104495  -0.007203
    13  C   -0.046747   0.033806
    14  C   -0.036138  -0.014340
    15  C   -0.089556   0.028309
    16  C    0.080289  -0.005486
    21  C   -0.014719   0.000753
    25  C   -0.018951   0.000844
    29  C    0.073432   0.141781
    30  C    0.174085  -0.056575
    31  C   -0.150693   0.079422
    32  C    0.174738  -0.062257
    33  C   -0.149990   0.040975
    35  C    0.074736   0.174665
    37  N   -0.630686   0.156010
    38  N   -0.633221   0.169845
    39  S    0.393332   0.160838
    40  C    0.099433  -0.023640
    41  C   -0.009194   0.031843
    42  C   -0.064800   0.035156
    43  C   -0.108656  -0.016437
    45  C   -0.104615  -0.019171
    47  C    0.166907   0.047367
    50  C   -0.079119  -0.001906
    53  C    0.128286   0.002234
    56  N   -0.150448   0.000394
 Electronic spatial extent (au):  <R**2>=          27912.5745
 Charge=             -1.0000 electrons
 Dipole moment (field-independent basis, Debye):
    X=             -1.8531    Y=             -3.2068    Z=             -0.0019  Tot=              3.7037
 Quadrupole moment (field-independent basis, Debye-Ang):
   XX=           -285.3393   YY=           -214.2135   ZZ=           -206.9550
   XY=             11.5309   XZ=              3.5380   YZ=             -7.4661
 Traceless Quadrupole moment (field-independent basis, Debye-Ang):
   XX=            -49.8367   YY=             21.2891   ZZ=             28.5476
   XY=             11.5309   XZ=              3.5380   YZ=             -7.4661
 Octapole moment (field-independent basis, Debye-Ang**2):
  XXX=             89.2115  YYY=            -26.0983  ZZZ=             16.8984  XYY=            -53.7287
  XXY=            175.6112  XXZ=             56.1212  XZZ=             39.2770  YZZ=              0.5499
  YYZ=            -10.4715  XYZ=             -0.0887
 Hexadecapole moment (field-independent basis, Debye-Ang**3):
 XXXX=         -38004.1542 YYYY=          -3451.3682 ZZZZ=           -778.3169 XXXY=           1851.7108
 XXXZ=            538.0260 YYYX=            -18.9825 YYYZ=            -39.9921 ZZZX=             86.9615
 ZZZY=             -3.2480 XXYY=          -6702.8702 XXZZ=          -5952.5105 YYZZ=           -701.1062
 XXYZ=           -162.8453 YYXZ=              0.1344 ZZXY=            -14.9338
 N-N= 3.077170095845D+03 E-N=-1.010307581150D+04  KE= 1.669314696379D+03
                          Isotropic Fermi Contact Couplings
        Atom                 a.u.       MegaHertz       Gauss      10(-4) cm-1
     1  C(13)              0.00285       3.20179       1.14248       1.06800
     2  C(13)             -0.00315      -3.54530      -1.26505      -1.18258
     3  C(13)              0.00467       5.24445       1.87135       1.74936
     4  C(13)             -0.00301      -3.38381      -1.20743      -1.12872
     5  C(13)              0.00563       6.32577       2.25719       2.11005
     6  C(13)             -0.00164      -1.84184      -0.65721      -0.61437
     7  H(1)              -0.00040      -1.80888      -0.64545      -0.60338
     8  H(1)              -0.00064      -2.87328      -1.02526      -0.95842
     9  H(1)               0.00006       0.25264       0.09015       0.08427
    10  C(13)             -0.00009      -0.09801      -0.03497      -0.03269
    11  C(13)              0.00163       1.83421       0.65449       0.61183
    12  C(13)             -0.00144      -1.62260      -0.57899      -0.54124
    13  C(13)              0.00383       4.31078       1.53819       1.43792
    14  C(13)             -0.00238      -2.67199      -0.95343      -0.89128
    15  C(13)              0.00313       3.51676       1.25487       1.17306
    16  C(13)             -0.00182      -2.04136      -0.72841      -0.68092
    17  H(1)               0.00005       0.23056       0.08227       0.07691
    18  H(1)              -0.00057      -2.53811      -0.90566      -0.84662
    19  H(1)               0.00016       0.71830       0.25631       0.23960
    20  H(1)              -0.00046      -2.06354      -0.73632      -0.68832
    21  C(13)              0.00097       1.09267       0.38989       0.36448
    22  H(1)              -0.00002      -0.08477      -0.03025      -0.02828
    23  H(1)               0.00002       0.07656       0.02732       0.02554
    24  H(1)               0.00001       0.05530       0.01973       0.01845
    25  C(13)              0.00111       1.24759       0.44517       0.41615
    26  H(1)               0.00002       0.09840       0.03511       0.03282
    27  H(1)              -0.00004      -0.18230      -0.06505      -0.06081
    28  H(1)               0.00001       0.02340       0.00835       0.00780
    29  C(13)              0.01384      15.55411       5.55009       5.18829
    30  C(13)             -0.01035     -11.63527      -4.15175      -3.88111
    31  C(13)              0.00520       5.84709       2.08639       1.95038
    32  C(13)             -0.01188     -13.35824      -4.76655      -4.45583
    33  C(13)              0.00030       0.33771       0.12050       0.11265
    34  H(1)              -0.00146      -6.53867      -2.33316      -2.18107
    35  C(13)              0.01802      20.25881       7.22885       6.75761
    36  H(1)              -0.00092      -4.09347      -1.46065      -1.36544
    37  N(14)              0.02690       8.69109       3.10120       2.89904
    38  N(14)              0.02910       9.40234       3.35499       3.13628
    39  S(33)              0.01985       6.81897       2.43318       2.27456
    40  C(13)             -0.00610      -6.85411      -2.44572      -2.28628
    41  C(13)              0.00451       5.07446       1.81069       1.69266
    42  C(13)              0.00534       5.99956       2.14079       2.00124
    43  C(13)             -0.00278      -3.12261      -1.11422      -1.04159
    44  H(1)              -0.00053      -2.37472      -0.84736      -0.79212
    45  C(13)             -0.00318      -3.57434      -1.27541      -1.19227
    46  H(1)              -0.00061      -2.71822      -0.96993      -0.90670
    47  C(13)              0.00538       6.04270       2.15619       2.01563
    48  H(1)               0.00024       1.05622       0.37689       0.35232
    49  H(1)               0.00029       1.28754       0.45943       0.42948
    50  C(13)             -0.00144      -1.61845      -0.57750      -0.53986
    51  H(1)               0.00034       1.51018       0.53887       0.50374
    52  H(1)               0.00032       1.41002       0.50313       0.47033
    53  C(13)              0.00410       4.60435       1.64295       1.53584
    54  H(1)              -0.00004      -0.19628      -0.07004      -0.06547
    55  H(1)              -0.00004      -0.17187      -0.06133      -0.05733
    56  N(14)              0.00051       0.16635       0.05936       0.05549
    57  H(1)              -0.00001      -0.02978      -0.01063      -0.00994
    58  H(1)               0.00003       0.14897       0.05316       0.04969
 --------------------------------------------------------
       Center         ----  Spin Dipole Couplings  ----
                      3XX-RR        3YY-RR        3ZZ-RR
 --------------------------------------------------------
     1   Atom       -0.009674     -0.002778      0.012453
     2   Atom       -0.004185     -0.004549      0.008734
     3   Atom       -0.017263     -0.006030      0.023293
     4   Atom        0.008059      0.002998     -0.011057
     5   Atom       -0.025979     -0.023855      0.049833
     6   Atom        0.003095     -0.000487     -0.002608
     7   Atom        0.002254     -0.000343     -0.001911
     8   Atom        0.000209      0.001555     -0.001763
     9   Atom        0.001283     -0.000138     -0.001144
    10   Atom        0.000732      0.000037     -0.000768
    11   Atom       -0.007678     -0.005840      0.013517
    12   Atom        0.002944      0.000943     -0.003887
    13   Atom       -0.017027     -0.013672      0.030700
    14   Atom        0.005872      0.003999     -0.009871
    15   Atom       -0.013854     -0.010327      0.024182
    16   Atom        0.001225     -0.001852      0.000627
    17   Atom        0.000463      0.000034     -0.000497
    18   Atom        0.002211     -0.001853     -0.000357
    19   Atom        0.000456      0.000063     -0.000518
    20   Atom       -0.001136      0.001476     -0.000340
    21   Atom        0.000249     -0.000263      0.000014
    22   Atom        0.000133      0.000042     -0.000175
    23   Atom        0.000220      0.000050     -0.000270
    24   Atom        0.000319     -0.000373      0.000054
    25   Atom        0.000309      0.000204     -0.000513
    26   Atom        0.000248      0.000483     -0.000730
    27   Atom        0.000144      0.000345     -0.000489
    28   Atom        0.000329      0.000110     -0.000439
    29   Atom       -0.075344     -0.049620      0.124964
    30   Atom        0.019346      0.023044     -0.042391
    31   Atom       -0.046943     -0.024723      0.071666
    32   Atom        0.020953      0.024740     -0.045693
    33   Atom       -0.026541     -0.017386      0.043928
    34   Atom        0.000928      0.001254     -0.002182
    35   Atom       -0.090482     -0.062585      0.153067
    36   Atom       -0.000940      0.003153     -0.002213
    37   Atom       -0.193448     -0.121132      0.314579
    38   Atom       -0.209142     -0.128918      0.338061
    39   Atom       -0.395697     -0.286071      0.681768
    40   Atom        0.005609      0.003346     -0.008955
    41   Atom       -0.012076     -0.006343      0.018419
    42   Atom       -0.017556     -0.004365      0.021922
    43   Atom        0.007703      0.004357     -0.012060
    44   Atom        0.001245      0.000430     -0.001675
    45   Atom        0.009360      0.004718     -0.014078
    46   Atom       -0.000013      0.001675     -0.001662
    47   Atom       -0.022913     -0.020890      0.043802
    48   Atom        0.001441     -0.000441     -0.001001
    49   Atom        0.001194     -0.000226     -0.000967
    50   Atom        0.001049     -0.000675     -0.000374
    51   Atom        0.000723     -0.000170     -0.000553
    52   Atom        0.001092     -0.000581     -0.000512
    53   Atom        0.000135     -0.001571      0.001437
    54   Atom        0.000582     -0.000231     -0.000351
    55   Atom        0.000341     -0.000467      0.000127
    56   Atom        0.001222     -0.000592     -0.000630
    57   Atom        0.000452     -0.000231     -0.000220
    58   Atom        0.000338     -0.000223     -0.000115
 --------------------------------------------------------
                        XY            XZ            YZ
 --------------------------------------------------------
     1   Atom       -0.002238     -0.000686      0.017241
     2   Atom        0.001492      0.002500      0.012344
     3   Atom        0.004498      0.004500      0.025470
     4   Atom       -0.001143     -0.001412     -0.004970
     5   Atom        0.000375      0.001391      0.021803
     6   Atom        0.001298      0.002012     -0.000938
     7   Atom        0.000730      0.001577     -0.000556
     8   Atom       -0.000313      0.000335     -0.000999
     9   Atom       -0.000472      0.000445     -0.000264
    10   Atom        0.000581     -0.000429     -0.000398
    11   Atom        0.000635     -0.000391      0.007667
    12   Atom        0.000007      0.000306     -0.001667
    13   Atom        0.000688      0.000650      0.015475
    14   Atom        0.000760     -0.000431     -0.004993
    15   Atom        0.000062      0.000385      0.012942
    16   Atom       -0.000192      0.000118      0.000666
    17   Atom        0.000263     -0.000075     -0.000157
    18   Atom        0.001598     -0.000519      0.000501
    19   Atom        0.000390     -0.000118     -0.000210
    20   Atom        0.000359     -0.000083     -0.000713
    21   Atom        0.000306     -0.000163     -0.000396
    22   Atom        0.000240     -0.000191     -0.000391
    23   Atom        0.000502     -0.000346     -0.000548
    24   Atom        0.000257     -0.000306     -0.000367
    25   Atom        0.000440      0.000034      0.000234
    26   Atom        0.000610     -0.000010      0.000063
    27   Atom        0.000302      0.000032      0.000040
    28   Atom        0.000348      0.000158      0.000377
    29   Atom       -0.001021     -0.001683     -0.071617
    30   Atom       -0.001010      0.004821      0.031192
    31   Atom       -0.002133     -0.000933     -0.054063
    32   Atom        0.003316      0.000956      0.032073
    33   Atom        0.005279     -0.005630     -0.033190
    34   Atom        0.007318      0.003019      0.001770
    35   Atom        0.004009     -0.008652     -0.084055
    36   Atom       -0.005031     -0.002042      0.002313
    37   Atom        0.007913     -0.012381     -0.188080
    38   Atom        0.006768     -0.024494     -0.202631
    39   Atom        0.008183     -0.028273     -0.379248
    40   Atom       -0.001806     -0.001362      0.001890
    41   Atom        0.004875      0.007653      0.020811
    42   Atom       -0.001277      0.001719      0.023978
    43   Atom       -0.002177     -0.002820     -0.004904
    44   Atom       -0.001304     -0.001813     -0.000126
    45   Atom       -0.000559     -0.001598     -0.006397
    46   Atom        0.000349     -0.000481     -0.000764
    47   Atom        0.000690      0.005118      0.018722
    48   Atom       -0.000534     -0.000398     -0.000058
    49   Atom       -0.000255     -0.000180     -0.000122
    50   Atom       -0.000352      0.000094      0.000204
    51   Atom       -0.000808     -0.000088      0.000080
    52   Atom        0.000051     -0.000415      0.000040
    53   Atom        0.000201      0.001919      0.000588
    54   Atom        0.000099      0.000371      0.000369
    55   Atom       -0.000342      0.000387     -0.000325
    56   Atom       -0.000190      0.000063     -0.000031
    57   Atom       -0.000019      0.000006     -0.000026
    58   Atom       -0.000093      0.000169     -0.000001
 --------------------------------------------------------


 ---------------------------------------------------------------------------------
              Anisotropic Spin Dipole Couplings in Principal Axis System
 ---------------------------------------------------------------------------------

       Atom             a.u.   MegaHertz   Gauss  10(-4) cm-1        Axes

              Baa    -0.0145    -1.944    -0.694    -0.648  0.3025  0.8063 -0.5083
     1 C(13)  Bbb    -0.0093    -1.247    -0.445    -0.416  0.9516 -0.2254  0.2087
              Bcc     0.0238     3.191     1.139     1.064 -0.0537  0.5469  0.8355
 
              Baa    -0.0119    -1.600    -0.571    -0.534  0.0002  0.8584 -0.5129
     2 C(13)  Bbb    -0.0046    -0.616    -0.220    -0.206  0.9903 -0.0716 -0.1194
              Bcc     0.0165     2.217     0.791     0.739  0.1392  0.5079  0.8501
 
              Baa    -0.0215    -2.886    -1.030    -0.963 -0.4139  0.8086 -0.4182
     3 C(13)  Bbb    -0.0172    -2.307    -0.823    -0.770  0.9037  0.3099 -0.2954
              Bcc     0.0387     5.193     1.853     1.732  0.1093  0.5002  0.8590
 
              Baa    -0.0128    -1.714    -0.612    -0.572  0.0810  0.3049  0.9489
     4 C(13)  Bbb     0.0045     0.599     0.214     0.200  0.1731  0.9333 -0.3146
              Bcc     0.0083     1.115     0.398     0.372  0.9816 -0.1897 -0.0229
 
              Baa    -0.0298    -4.002    -1.428    -1.335  0.0014  0.9645 -0.2640
     5 C(13)  Bbb    -0.0260    -3.489    -1.245    -1.164  0.9998 -0.0060 -0.0166
              Bcc     0.0558     7.491     2.673     2.499  0.0176  0.2640  0.9644
 
              Baa    -0.0038    -0.506    -0.181    -0.169 -0.3254  0.3766  0.8673
     6 C(13)  Bbb    -0.0002    -0.024    -0.009    -0.008 -0.0948  0.8996 -0.4262
              Bcc     0.0040     0.530     0.189     0.177  0.9408  0.2209  0.2571
 
              Baa    -0.0027    -1.436    -0.512    -0.479 -0.3301  0.3135  0.8903
     7 H(1)   Bbb    -0.0002    -0.095    -0.034    -0.032 -0.0543  0.9354 -0.3495
              Bcc     0.0029     1.531     0.546     0.511  0.9424  0.1637  0.2918
 
              Baa    -0.0021    -1.103    -0.393    -0.368 -0.1064  0.2560  0.9608
     8 H(1)   Bbb     0.0001     0.077     0.027     0.026  0.9687  0.2447  0.0421
              Bcc     0.0019     1.026     0.366     0.342 -0.2243  0.9352 -0.2740
 
              Baa    -0.0013    -0.669    -0.239    -0.223 -0.1393  0.1717  0.9752
     9 H(1)   Bbb    -0.0003    -0.142    -0.051    -0.047  0.3206  0.9396 -0.1196
              Bcc     0.0015     0.811     0.289     0.271  0.9369 -0.2960  0.1860
 
              Baa    -0.0010    -0.128    -0.046    -0.043  0.1374  0.2984  0.9445
    10 C(13)  Bbb    -0.0003    -0.036    -0.013    -0.012 -0.5501  0.8159 -0.1778
              Bcc     0.0012     0.164     0.059     0.055  0.8237  0.4952 -0.2762
 
              Baa    -0.0089    -1.199    -0.428    -0.400 -0.5025  0.8155 -0.2873
    11 C(13)  Bbb    -0.0073    -0.974    -0.347    -0.325  0.8646  0.4765 -0.1596
              Bcc     0.0162     2.172     0.775     0.725 -0.0068  0.3286  0.9445
 
              Baa    -0.0044    -0.593    -0.212    -0.198 -0.0399  0.2967  0.9542
    12 C(13)  Bbb     0.0015     0.196     0.070     0.065  0.0563  0.9541 -0.2943
              Bcc     0.0030     0.397     0.142     0.133  0.9976 -0.0419  0.0547
 
              Baa    -0.0187    -2.505    -0.894    -0.836 -0.2729  0.9190 -0.2845
    13 C(13)  Bbb    -0.0169    -2.269    -0.810    -0.757  0.9619  0.2559 -0.0963
              Bcc     0.0356     4.774     1.703     1.592  0.0157  0.2999  0.9538
 
              Baa    -0.0115    -1.541    -0.550    -0.514  0.0102  0.3065  0.9518
    14 C(13)  Bbb     0.0049     0.654     0.233     0.218 -0.6509  0.7247 -0.2263
              Bcc     0.0066     0.887     0.316     0.296  0.7591  0.6172 -0.2069
 
              Baa    -0.0146    -1.965    -0.701    -0.656  0.0794  0.9455 -0.3159
    15 C(13)  Bbb    -0.0139    -1.859    -0.663    -0.620  0.9968 -0.0782  0.0165
              Bcc     0.0285     3.824     1.365     1.276  0.0091  0.3162  0.9486
 
              Baa    -0.0020    -0.273    -0.097    -0.091  0.0658  0.9673 -0.2450
    16 C(13)  Bbb     0.0008     0.105     0.038     0.035 -0.1468  0.2522  0.9565
              Bcc     0.0012     0.168     0.060     0.056  0.9870 -0.0270  0.1586
 
              Baa    -0.0005    -0.288    -0.103    -0.096  0.0033  0.2627  0.9649
    17 H(1)   Bbb    -0.0001    -0.035    -0.012    -0.012 -0.4599  0.8572 -0.2318
              Bcc     0.0006     0.323     0.115     0.108  0.8880  0.4430 -0.1237
 
              Baa    -0.0026    -1.383    -0.494    -0.461 -0.3302  0.9019 -0.2786
    18 H(1)   Bbb    -0.0002    -0.110    -0.039    -0.037  0.0081  0.2979  0.9546
              Bcc     0.0028     1.493     0.533     0.498  0.9439  0.3129 -0.1056
 
              Baa    -0.0006    -0.313    -0.112    -0.104 -0.0099  0.3128  0.9498
    19 H(1)   Bbb    -0.0001    -0.078    -0.028    -0.026 -0.5608  0.7847 -0.2642
              Bcc     0.0007     0.391     0.139     0.130  0.8279  0.5353 -0.1676
 
              Baa    -0.0012    -0.632    -0.226    -0.211  0.9901 -0.1392 -0.0205
    20 H(1)   Bbb    -0.0006    -0.312    -0.111    -0.104  0.0641  0.3163  0.9465
              Bcc     0.0018     0.944     0.337     0.315  0.1253  0.9384 -0.3221
 
              Baa    -0.0006    -0.077    -0.028    -0.026 -0.2109  0.8383  0.5028
    21 C(13)  Bbb    -0.0000    -0.002    -0.001    -0.001  0.6927 -0.2348  0.6820
              Bcc     0.0006     0.080     0.028     0.027  0.6897  0.4921 -0.5311
 
              Baa    -0.0005    -0.252    -0.090    -0.084  0.0131  0.6009  0.7992
    22 H(1)   Bbb    -0.0001    -0.046    -0.017    -0.016  0.8116 -0.4733  0.3426
              Bcc     0.0006     0.299     0.107     0.100  0.5841  0.6441 -0.4939
 
              Baa    -0.0007    -0.364    -0.130    -0.121 -0.0431  0.6176  0.7853
    23 H(1)   Bbb    -0.0003    -0.149    -0.053    -0.050  0.7713 -0.4790  0.4191
              Bcc     0.0010     0.513     0.183     0.171  0.6350  0.6238 -0.4557
 
              Baa    -0.0006    -0.315    -0.112    -0.105 -0.0960  0.8840  0.4575
    24 H(1)   Bbb    -0.0001    -0.052    -0.019    -0.017  0.6743 -0.2804  0.6831
              Bcc     0.0007     0.367     0.131     0.122  0.7322  0.3741 -0.5692
 
              Baa    -0.0006    -0.080    -0.029    -0.027  0.1328 -0.3450  0.9292
    25 C(13)  Bbb    -0.0001    -0.018    -0.006    -0.006  0.6780 -0.6522 -0.3390
              Bcc     0.0007     0.098     0.035     0.033  0.7229  0.6750  0.1473
 
              Baa    -0.0007    -0.393    -0.140    -0.131  0.0604 -0.0815  0.9948
    26 H(1)   Bbb    -0.0003    -0.134    -0.048    -0.045  0.7695 -0.6310 -0.0984
              Bcc     0.0010     0.527     0.188     0.176  0.6357  0.7715  0.0246
 
              Baa    -0.0005    -0.262    -0.094    -0.087 -0.0332 -0.0359  0.9988
    27 H(1)   Bbb    -0.0001    -0.040    -0.014    -0.013  0.8107 -0.5854  0.0059
              Bcc     0.0006     0.302     0.108     0.101  0.5845  0.8099  0.0486
 
              Baa    -0.0006    -0.337    -0.120    -0.112  0.0215 -0.4611  0.8871
    28 H(1)   Bbb    -0.0001    -0.036    -0.013    -0.012  0.6942 -0.6317 -0.3451
              Bcc     0.0007     0.372     0.133     0.124  0.7195  0.6232  0.3065
 
              Baa    -0.0768   -10.309    -3.679    -3.439  0.7200  0.6521  0.2374
    29 C(13)  Bbb    -0.0738    -9.899    -3.532    -3.302  0.6940 -0.6792 -0.2389
              Bcc     0.1506    20.208     7.211     6.741 -0.0055 -0.3368  0.9416
 
              Baa    -0.0552    -7.406    -2.643    -2.470 -0.0650 -0.3703  0.9266
    30 C(13)  Bbb     0.0196     2.632     0.939     0.878  0.9965 -0.0738  0.0404
              Bcc     0.0356     4.774     1.703     1.592  0.0534  0.9260  0.3738
 
              Baa    -0.0505    -6.775    -2.417    -2.260  0.5493  0.7625  0.3417
    31 C(13)  Bbb    -0.0454    -6.094    -2.174    -2.033  0.8356 -0.5012 -0.2248
              Bcc     0.0959    12.869     4.592     4.292  0.0001 -0.4090  0.9125
 
              Baa    -0.0581    -7.798    -2.782    -2.601  0.0039 -0.3611  0.9325
    32 C(13)  Bbb     0.0203     2.718     0.970     0.907  0.9799 -0.1845 -0.0755
              Bcc     0.0379     5.080     1.813     1.694  0.1993  0.9141  0.3532
 
              Baa    -0.0330    -4.433    -1.582    -1.479 -0.3994  0.8521  0.3382
    33 C(13)  Bbb    -0.0260    -3.494    -1.247    -1.165  0.9129  0.3355  0.2326
              Bcc     0.0591     7.927     2.828     2.644 -0.0847 -0.4017  0.9119
 
              Baa    -0.0065    -3.452    -1.232    -1.151  0.7306 -0.6343 -0.2526
    34 H(1)   Bbb    -0.0029    -1.563    -0.558    -0.521 -0.0079 -0.3778  0.9259
              Bcc     0.0094     5.015     1.789     1.673  0.6827  0.6745  0.2810
 
              Baa    -0.0922   -12.369    -4.414    -4.126 -0.5820  0.7753  0.2452
    35 C(13)  Bbb    -0.0901   -12.092    -4.315    -4.033  0.8124  0.5415  0.2161
              Bcc     0.1823    24.461     8.728     8.159 -0.0348 -0.3250  0.9451
 
              Baa    -0.0044    -2.370    -0.846    -0.791  0.8375  0.4695  0.2797
    36 H(1)   Bbb    -0.0031    -1.632    -0.582    -0.545 -0.0785 -0.4031  0.9118
              Bcc     0.0075     4.003     1.428     1.335 -0.5408  0.7855  0.3007
 
              Baa    -0.1958    -7.553    -2.695    -2.519  0.8368 -0.5200 -0.1713
    37 N(14)  Bbb    -0.1891    -7.292    -2.602    -2.432  0.5469  0.7798  0.3047
              Bcc     0.3849    14.844     5.297     4.952 -0.0248 -0.3486  0.9369
 
              Baa    -0.2109    -8.136    -2.903    -2.714  0.9431  0.2960  0.1513
    38 N(14)  Bbb    -0.2038    -7.860    -2.805    -2.622 -0.3299  0.8890  0.3175
              Bcc     0.4148    15.996     5.708     5.336 -0.0405 -0.3494  0.9361
 
              Baa    -0.4171   -17.100    -6.102    -5.704  0.0718  0.9423  0.3271
    39 S(33)  Bbb    -0.3963   -16.248    -5.798    -5.420  0.9971 -0.0758 -0.0005
              Bcc     0.8134    33.348    11.899    11.124 -0.0243 -0.3262  0.9450
 
              Baa    -0.0093    -1.251    -0.446    -0.417  0.0736 -0.1370  0.9878
    40 C(13)  Bbb     0.0024     0.326     0.116     0.109  0.5174  0.8520  0.0796
              Bcc     0.0069     0.925     0.330     0.309  0.8526 -0.5053 -0.1336
 
              Baa    -0.0182    -2.445    -0.873    -0.816 -0.1016  0.8740 -0.4752
    41 C(13)  Bbb    -0.0139    -1.864    -0.665    -0.622  0.9743 -0.0090 -0.2250
              Bcc     0.0321     4.309     1.538     1.437  0.2009  0.4858  0.8507
 
              Baa    -0.0201    -2.698    -0.963    -0.900  0.6145  0.6742 -0.4098
    42 C(13)  Bbb    -0.0160    -2.151    -0.768    -0.718  0.7888 -0.5352  0.3024
              Bcc     0.0361     4.849     1.730     1.617  0.0155  0.5090  0.8606
 
              Baa    -0.0139    -1.868    -0.666    -0.623  0.1514  0.2730  0.9500
    43 C(13)  Bbb     0.0051     0.689     0.246     0.230  0.3919  0.8658 -0.3112
              Bcc     0.0088     1.179     0.421     0.393  0.9074 -0.4195 -0.0241
 
              Baa    -0.0027    -1.442    -0.514    -0.481  0.4678  0.2290  0.8537
    44 H(1)   Bbb     0.0000     0.006     0.002     0.002  0.3154  0.8590 -0.4033
              Bcc     0.0027     1.436     0.512     0.479  0.8257 -0.4579 -0.3296
 
              Baa    -0.0162    -2.169    -0.774    -0.723  0.0661  0.2939  0.9535
    45 C(13)  Bbb     0.0067     0.897     0.320     0.299  0.0230  0.9549 -0.2960
              Bcc     0.0095     1.271     0.454     0.424  0.9975 -0.0415 -0.0564
 
              Baa    -0.0019    -1.021    -0.364    -0.340  0.2091  0.1842  0.9604
    46 H(1)   Bbb    -0.0000    -0.017    -0.006    -0.006  0.9516 -0.2646 -0.1565
              Bcc     0.0019     1.037     0.370     0.346  0.2253  0.9466 -0.2306
 
              Baa    -0.0261    -3.499    -1.248    -1.167  0.2290  0.9359 -0.2675
    47 C(13)  Bbb    -0.0231    -3.103    -1.107    -1.035  0.9708 -0.2396 -0.0072
              Bcc     0.0492     6.601     2.356     2.202  0.0709  0.2581  0.9635
 
              Baa    -0.0011    -0.587    -0.209    -0.196  0.2001  0.2453  0.9486
    48 H(1)   Bbb    -0.0005    -0.285    -0.102    -0.095  0.1963  0.9385 -0.2841
              Bcc     0.0016     0.872     0.311     0.291  0.9599 -0.2431 -0.1397
 
              Baa    -0.0010    -0.539    -0.192    -0.180  0.1013  0.1858  0.9774
    49 H(1)   Bbb    -0.0002    -0.128    -0.046    -0.043  0.1472  0.9688 -0.1994
              Bcc     0.0012     0.667     0.238     0.222  0.9839 -0.1641 -0.0708
 
              Baa    -0.0008    -0.114    -0.041    -0.038  0.1856  0.8876 -0.4215
    50 C(13)  Bbb    -0.0003    -0.037    -0.013    -0.012  0.0473  0.4204  0.9061
              Bcc     0.0011     0.150     0.054     0.050  0.9815 -0.1881  0.0360
 
              Baa    -0.0007    -0.348    -0.124    -0.116  0.4773  0.8408 -0.2554
    51 H(1)   Bbb    -0.0006    -0.296    -0.106    -0.099  0.1854  0.1878  0.9646
              Bcc     0.0012     0.644     0.230     0.215  0.8590 -0.5077 -0.0662
 
              Baa    -0.0007    -0.347    -0.124    -0.116  0.2025 -0.5960  0.7771
    52 H(1)   Bbb    -0.0005    -0.290    -0.104    -0.097  0.1228  0.8027  0.5836
              Bcc     0.0012     0.637     0.227     0.213  0.9715  0.0227 -0.2358
 
              Baa    -0.0017    -0.230    -0.082    -0.077  0.2132  0.9289 -0.3029
    53 C(13)  Bbb    -0.0012    -0.158    -0.056    -0.053  0.7915 -0.3459 -0.5038
              Bcc     0.0029     0.388     0.138     0.129  0.5728  0.1323  0.8090
 
              Baa    -0.0007    -0.377    -0.134    -0.126 -0.1845 -0.5789  0.7943
    54 H(1)   Bbb    -0.0001    -0.030    -0.011    -0.010 -0.3989  0.7827  0.4778
              Bcc     0.0008     0.407     0.145     0.136  0.8983  0.2287  0.3753
 
              Baa    -0.0006    -0.344    -0.123    -0.115  0.2115  0.9341  0.2875
    55 H(1)   Bbb    -0.0002    -0.087    -0.031    -0.029 -0.6436 -0.0882  0.7603
              Bcc     0.0008     0.431     0.154     0.144  0.7356 -0.3458  0.5825
 
              Baa    -0.0006    -0.025    -0.009    -0.008  0.0273  0.5478  0.8362
    56 N(14)  Bbb    -0.0006    -0.023    -0.008    -0.008  0.1059  0.8302 -0.5473
              Bcc     0.0012     0.048     0.017     0.016  0.9940 -0.1035  0.0353
 
              Baa    -0.0003    -0.135    -0.048    -0.045  0.0156  0.7809  0.6245
    57 H(1)   Bbb    -0.0002    -0.107    -0.038    -0.036 -0.0257 -0.6240  0.7810
              Bcc     0.0005     0.241     0.086     0.081  0.9995 -0.0282  0.0104
 
              Baa    -0.0002    -0.131    -0.047    -0.044  0.2319  0.9278 -0.2922
    58 H(1)   Bbb    -0.0002    -0.086    -0.031    -0.029 -0.2434  0.3462  0.9060
              Bcc     0.0004     0.217     0.077     0.072  0.9418 -0.1390  0.3061
 

 ---------------------------------------------------------------------------------

 No NMR shielding tensors so no spin-rotation constants.
 Leave Link  601 at Thu Mar 14 10:07:52 2024, MaxMem= 32212254720 cpu:              11.4 elap:               0.4
 (Enter /home/<user>/g16/l701.exe)
 ... and contract with generalized density number  0.
 Compute integral first derivatives.
 Leave Link  701 at Thu Mar 14 10:07:52 2024, MaxMem= 32212254720 cpu:               5.2 elap:               0.2
 (Enter /home/<user>/g16/l702.exe)
 L702 exits ... SP integral derivatives will be done elsewhere.
 Leave Link  702 at Thu Mar 14 10:07:52 2024, MaxMem= 32212254720 cpu:               0.7 elap:               0.0
 (Enter /home/<user>/g16/l703.exe)
 Integral derivatives from FoFJK, PRISM(SPDF).
 Compute integral first derivatives, UseDBF=F ICtDFT=           0.
 Calling FoFJK, ICntrl=      2127 FMM=F ISym2X=0 I1Cent= 0 IOpClX= 1 NMat=1 NMatS=1 NMatT=0.
 FoFJK:  IHMeth= 1 ICntrl=    2127 DoSepK=F KAlg= 0 I1Cent=           0 FoldK=F
 IRaf=         0 NMat=       1 IRICut=       1 DoRegI=T DoRafI=F ISym2E= 0 IDoP0=0 IntGTp=1.
 FoFCou: FMM=F IPFlag=           0 FMFlag=      100000 FMFlg1=         800
         NFxFlg=           0 DoJE=F BraDBF=F KetDBF=F FulRan=T
         wScrn=  0.000000 ICntrl=      2127 IOpCl=  1 I1Cent=           0 NGrid=           0
         NMat0=    1 NMatS0=      1 NMatT0=    0 NMatD0=    1 NMtDS0=    0 NMtDT0=    0
 Symmetry not used in FoFCou.
 Leave Link  703 at Thu Mar 14 10:07:59 2024, MaxMem= 32212254720 cpu:             199.0 elap:               6.6
 (Enter /home/<user>/g16/l716.exe)
 Dipole        =-7.29066760D-01-1.26163995D+00-7.61599462D-04
 ***** Axes restored to original set *****
 -------------------------------------------------------------------
 Center     Atomic                   Forces (Hartrees/Bohr)
 Number     Number              X              Y              Z
 -------------------------------------------------------------------
      1        6          -0.007756280    0.004382751   -0.000106108
      2        6           0.018218171   -0.001768224    0.000467197
      3        6          -0.006868123   -0.003345096   -0.000190198
      4        6           0.003735548   -0.000260150   -0.000509042
      5        6          -0.008890306   -0.001857939    0.000755705
      6        6           0.005687922    0.001429791   -0.000219405
      7        1           0.001119080   -0.000486180    0.001047584
      8        1           0.000823840    0.000244480   -0.000242487
      9        1          -0.000627753    0.000684751   -0.000467327
     10        6           0.000925919    0.001230353   -0.000345110
     11        6          -0.004635521   -0.003914487    0.001275730
     12        6           0.003741075    0.000578734   -0.000119128
     13        6          -0.003810205    0.001132943   -0.000348197
     14        6           0.000847552   -0.001049387    0.000304805
     15        6          -0.003099907    0.000612870   -0.000180873
     16        6           0.009645650    0.002130579   -0.000761482
     17        1           0.000001035   -0.000615582    0.000218917
     18        1          -0.000718719   -0.000177007    0.000040860
     19        1          -0.000736305    0.000448960   -0.000129734
     20        1           0.000395028    0.000144335   -0.000011235
     21        6          -0.000366611   -0.000518780   -0.000783657
     22        1          -0.000730325   -0.000639938    0.000532718
     23        1           0.000294566    0.000377177   -0.000102025
     24        1           0.000177566    0.000207284   -0.000296693
     25        6          -0.000250816    0.000083284    0.000973347
     26        1           0.000323547    0.000398935   -0.000182204
     27        1          -0.000742212   -0.000794843   -0.000029178
     28        1           0.000176273    0.000332760    0.000085829
     29        6          -0.008925153    0.019234487    0.005562402
     30        6          -0.006007061   -0.001732111   -0.002648316
     31        6           0.024250829   -0.022785677   -0.004234789
     32        6           0.005366037   -0.004959122   -0.002723055
     33        6          -0.028534291   -0.014698986   -0.003425624
     34        1          -0.000235357   -0.001248294   -0.001137705
     35        6           0.009478356    0.017201485    0.005716276
     36        1          -0.000094759   -0.001341054   -0.001186981
     37        7          -0.015920725   -0.005069878   -0.002944146
     38        7           0.014812180   -0.007927801   -0.003423829
     39       16           0.003051494    0.024226005    0.009066069
     40        6          -0.013636387    0.001882390    0.000748824
     41        6           0.005389941    0.001171383   -0.000317079
     42        6           0.004135423   -0.002100999   -0.000289090
     43        6          -0.002223619   -0.000039135    0.000486597
     44        1          -0.001184356   -0.000235513    0.001077312
     45        6          -0.000661696    0.000744290   -0.000711611
     46        1          -0.000636733    0.000450552   -0.000283055
     47        6           0.001561687   -0.001165199   -0.000249727
     48        1           0.000968801    0.000712649   -0.000436255
     49        1           0.000714711   -0.001041552    0.000260728
     50        6          -0.001660282    0.000710650    0.001974299
     51        1           0.000654454   -0.000567557   -0.000031366
     52        1           0.000961620    0.000431905   -0.000376418
     53        6          -0.001825917   -0.000370584   -0.002207376
     54        1           0.000266111   -0.000293540   -0.000057842
     55        1          -0.000103130   -0.000072638   -0.000204838
     56        7           0.003075159   -0.001248410    0.001127719
     57        1          -0.000321648    0.000378209   -0.000099499
     58        1           0.000404620    0.000761671    0.000289767
 -------------------------------------------------------------------
 Cartesian Forces:  Max     0.028534291 RMS     0.005636309
 Leave Link  716 at Thu Mar 14 10:07:59 2024, MaxMem= 32212254720 cpu:               0.7 elap:               0.0
 (Enter /home/<user>/g16/l103.exe)

 GradGradGradGradGradGradGradGradGradGradGradGradGradGradGradGradGradGrad
 Berny optimization.
 FormGI is forming the generalized inverse of G from B-inverse, IUseBI=4.
 GSVD:  received Info=                   1 from GESDD.
 Internal  Forces:  Max     0.021934476 RMS     0.002792868
 Search for a local minimum.
 Step number   1 out of a maximum of  346
 All quantities printed in internal units (Hartrees-Bohrs-Radians)
 RMS Force = .27929D-02 SwitMx=.10000D-02 MixMth= 1
 Mixed Optimization -- RFO/linear search
 Second derivative matrix not updated -- first step.
 ITU=  0
     Eigenvalues ---    0.00230   0.00230   0.00250   0.00611   0.00754
     Eigenvalues ---    0.00810   0.01027   0.01033   0.01253   0.01452
     Eigenvalues ---    0.01467   0.01604   0.01608   0.01639   0.01639
     Eigenvalues ---    0.01655   0.01692   0.01714   0.01732   0.01757
     Eigenvalues ---    0.01884   0.01903   0.02006   0.02027   0.02037
     Eigenvalues ---    0.02068   0.02077   0.02084   0.02088   0.02094
     Eigenvalues ---    0.02112   0.02114   0.02119   0.02120   0.02122
     Eigenvalues ---    0.02134   0.02143   0.02145   0.02146   0.02155
     Eigenvalues ---    0.02160   0.02161   0.02189   0.02292   0.04037
     Eigenvalues ---    0.04268   0.04398   0.04475   0.05426   0.05428
     Eigenvalues ---    0.05431   0.05497   0.05497   0.05554   0.05979
     Eigenvalues ---    0.08012   0.08978   0.09291   0.11605   0.12617
     Eigenvalues ---    0.12832   0.15987   0.15992   0.15993   0.15995
     Eigenvalues ---    0.15999   0.16000   0.16000   0.16000   0.16000
     Eigenvalues ---    0.16000   0.16000   0.16000   0.16000   0.16000
     Eigenvalues ---    0.16000   0.16000   0.16000   0.16000   0.16000
     Eigenvalues ---    0.16000   0.16000   0.18962   0.21874   0.21950
     Eigenvalues ---    0.22000   0.22000   0.22451   0.22465   0.22615
     Eigenvalues ---    0.22951   0.23523   0.23992   0.24472   0.24529
     Eigenvalues ---    0.24663   0.24980   0.24981   0.24988   0.24990
     Eigenvalues ---    0.24997   0.24998   0.24999   0.24999   0.24999
     Eigenvalues ---    0.28050   0.28067   0.28484   0.28609   0.29012
     Eigenvalues ---    0.31179   0.33128   0.33785   0.34027   0.34037
     Eigenvalues ---    0.34090   0.34100   0.34104   0.34105   0.34131
     Eigenvalues ---    0.34276   0.34289   0.34542   0.34594   0.34766
     Eigenvalues ---    0.35033   0.35049   0.35084   0.35151   0.35154
     Eigenvalues ---    0.35158   0.35186   0.35189   0.35222   0.35283
     Eigenvalues ---    0.35287   0.35571   0.35607   0.36142   0.37940
     Eigenvalues ---    0.38123   0.38999   0.40437   0.41409   0.41434
     Eigenvalues ---    0.41611   0.41653   0.42109   0.42369   0.42658
     Eigenvalues ---    0.43586   0.44364   0.44523   0.44545   0.44935
     Eigenvalues ---    0.44950   0.45054   0.45798   0.45947   0.46077
     Eigenvalues ---    0.46106   0.46907   0.46962   0.47199   0.47533
     Eigenvalues ---    0.48084   0.54483   0.56913
 RFO step:  Lambda=-8.50208658D-03 EMin= 2.30000000D-03
 Linear search not attempted -- first point.
 Iteration  1 RMS(Cart)=  0.08003897 RMS(Int)=  0.00196984
 Iteration  2 RMS(Cart)=  0.00460103 RMS(Int)=  0.00002095
 Iteration  3 RMS(Cart)=  0.00001265 RMS(Int)=  0.00002055
 Iteration  4 RMS(Cart)=  0.00000000 RMS(Int)=  0.00002055
 ITry= 1 IFail=0 DXMaxC= 6.85D-01 DCOld= 1.00D+10 DXMaxT= 3.00D-01 DXLimC= 3.00D+00 Rises=F
 Variable       Old X    -DE/DX   Delta X   Delta X   Delta X     New X
                                 (Linear)    (Quad)   (Total)
    R1        2.66308   0.00537   0.00000   0.01219   0.01220   2.67528
    R2        2.63278  -0.00124   0.00000  -0.00256  -0.00256   2.63022
    R3        2.04700  -0.00003   0.00000  -0.00008  -0.00008   2.04692
    R4        2.66707   0.00545   0.00000   0.01241   0.01242   2.67948
    R5        2.79640  -0.00693   0.00000  -0.01955  -0.01955   2.77684
    R6        2.61958  -0.00010   0.00000  -0.00025  -0.00025   2.61934
    R7        2.05426   0.00009   0.00000   0.00025   0.00025   2.05451
    R8        2.66224   0.00157   0.00000   0.00322   0.00321   2.66545
    R9        2.88960   0.00124   0.00000   0.00338   0.00338   2.89298
   R10        2.63825   0.00413   0.00000   0.00857   0.00856   2.64681
   R11        2.77135  -0.00292   0.00000  -0.00729  -0.00729   2.76406
   R12        2.05419   0.00099   0.00000   0.00274   0.00274   2.05693
   R13        2.88920   0.00056   0.00000   0.00144   0.00144   2.89064
   R14        2.92030  -0.00051   0.00000  -0.00177  -0.00177   2.91853
   R15        2.91993  -0.00056   0.00000  -0.00194  -0.00194   2.91799
   R16        2.62728  -0.00076   0.00000  -0.00165  -0.00165   2.62563
   R17        2.66418   0.00285   0.00000   0.00670   0.00670   2.67088
   R18        2.64586   0.00292   0.00000   0.00618   0.00618   2.65204
   R19        2.05539   0.00064   0.00000   0.00178   0.00178   2.05717
   R20        2.64370   0.00002   0.00000   0.00003   0.00003   2.64373
   R21        2.05370   0.00074   0.00000   0.00205   0.00205   2.05574
   R22        2.63884   0.00129   0.00000   0.00281   0.00281   2.64165
   R23        2.05373   0.00086   0.00000   0.00240   0.00240   2.05613
   R24        2.63947   0.00321   0.00000   0.00692   0.00693   2.64639
   R25        2.05430   0.00021   0.00000   0.00058   0.00058   2.05489
   R26        2.07156   0.00107   0.00000   0.00306   0.00306   2.07462
   R27        2.07162   0.00008   0.00000   0.00022   0.00022   2.07184
   R28        2.06846  -0.00003   0.00000  -0.00009  -0.00009   2.06836
   R29        2.07178   0.00008   0.00000   0.00023   0.00023   2.07201
   R30        2.07153   0.00106   0.00000   0.00302   0.00302   2.07454
   R31        2.06867  -0.00001   0.00000  -0.00003  -0.00003   2.06864
   R32        2.72163   0.00010   0.00000  -0.00017  -0.00020   2.72143
   R33        2.61139   0.02193   0.00000   0.04473   0.04475   2.65615
   R34        2.75844   0.00460   0.00000   0.00929   0.00919   2.76763
   R35        2.52890   0.00596   0.00000   0.00968   0.00966   2.53856
   R36        2.68545  -0.01897   0.00000  -0.04306  -0.04301   2.64244
   R37        2.05212   0.00144   0.00000   0.00399   0.00399   2.05611
   R38        2.72042  -0.00112   0.00000  -0.00336  -0.00338   2.71704
   R39        2.52921   0.00683   0.00000   0.01126   0.01125   2.54045
   R40        2.61048   0.02099   0.00000   0.04260   0.04263   2.65311
   R41        2.05218   0.00153   0.00000   0.00423   0.00423   2.05641
   R42        2.79724  -0.00410   0.00000  -0.01159  -0.01159   2.78565
   R43        3.10267   0.01815   0.00000   0.04172   0.04175   3.14442
   R44        3.10273   0.01812   0.00000   0.04172   0.04176   3.14449
   R45        2.65674   0.00332   0.00000   0.00745   0.00746   2.66420
   R46        2.65783   0.00380   0.00000   0.00857   0.00858   2.66642
   R47        2.63118   0.00056   0.00000   0.00112   0.00113   2.63231
   R48        2.04758  -0.00007   0.00000  -0.00018  -0.00018   2.04740
   R49        2.63008   0.00143   0.00000   0.00302   0.00301   2.63309
   R50        2.05315  -0.00002   0.00000  -0.00006  -0.00006   2.05310
   R51        2.64792   0.00148   0.00000   0.00301   0.00300   2.65092
   R52        2.05621   0.00125   0.00000   0.00347   0.00347   2.05968
   R53        2.64804   0.00038   0.00000   0.00066   0.00065   2.64869
   R54        2.05595   0.00125   0.00000   0.00349   0.00349   2.05944
   R55        2.85672   0.00147   0.00000   0.00459   0.00459   2.86130
   R56        2.07109   0.00067   0.00000   0.00192   0.00192   2.07301
   R57        2.07694   0.00092   0.00000   0.00266   0.00266   2.07960
   R58        2.90825  -0.00052   0.00000  -0.00176  -0.00176   2.90649
   R59        2.08826  -0.00034   0.00000  -0.00101  -0.00101   2.08725
   R60        2.07284  -0.00006   0.00000  -0.00018  -0.00018   2.07266
   R61        2.77161   0.00304   0.00000   0.00822   0.00822   2.77983
   R62        1.92721   0.00015   0.00000   0.00034   0.00034   1.92755
   R63        1.92534   0.00054   0.00000   0.00119   0.00119   1.92653
    A1        2.11685   0.00166   0.00000   0.00725   0.00724   2.12409
    A2        2.08115  -0.00221   0.00000  -0.01184  -0.01186   2.06929
    A3        2.08518   0.00056   0.00000   0.00462   0.00460   2.08978
    A4        2.07017  -0.00372   0.00000  -0.01415  -0.01413   2.05604
    A5        2.12376   0.00149   0.00000   0.00560   0.00559   2.12935
    A6        2.08895   0.00223   0.00000   0.00848   0.00847   2.09742
    A7        2.09899   0.00144   0.00000   0.00600   0.00600   2.10500
    A8        2.08287  -0.00161   0.00000  -0.00824  -0.00825   2.07461
    A9        2.10090   0.00019   0.00000   0.00245   0.00244   2.10334
   A10        2.10142   0.00133   0.00000   0.00509   0.00508   2.10650
   A11        2.24633  -0.00061   0.00000  -0.00078  -0.00077   2.24556
   A12        1.93539  -0.00072   0.00000  -0.00433  -0.00433   1.93106
   A13        2.09495  -0.00178   0.00000  -0.00800  -0.00801   2.08693
   A14        1.89539   0.00049   0.00000   0.00210   0.00210   1.89749
   A15        2.29281   0.00129   0.00000   0.00590   0.00591   2.29872
   A16        2.08394   0.00107   0.00000   0.00378   0.00378   2.08772
   A17        2.08963  -0.00031   0.00000  -0.00055  -0.00054   2.08909
   A18        2.10961  -0.00076   0.00000  -0.00324  -0.00323   2.10638
   A19        1.76495   0.00059   0.00000   0.00455   0.00456   1.76950
   A20        1.94396  -0.00003   0.00000   0.00115   0.00115   1.94511
   A21        1.94482  -0.00014   0.00000   0.00018   0.00018   1.94500
   A22        1.94316  -0.00023   0.00000  -0.00150  -0.00150   1.94165
   A23        1.94430  -0.00015   0.00000  -0.00100  -0.00101   1.94329
   A24        1.91873  -0.00001   0.00000  -0.00284  -0.00284   1.91589
   A25        2.24874   0.00041   0.00000   0.00233   0.00233   2.25107
   A26        1.93642  -0.00145   0.00000  -0.00664  -0.00664   1.92978
   A27        2.09802   0.00104   0.00000   0.00431   0.00431   2.10233
   A28        2.08017   0.00118   0.00000   0.00460   0.00460   2.08477
   A29        2.10971  -0.00072   0.00000  -0.00308  -0.00308   2.10664
   A30        2.09330  -0.00046   0.00000  -0.00152  -0.00152   2.09178
   A31        2.10395  -0.00153   0.00000  -0.00715  -0.00715   2.09679
   A32        2.08949   0.00083   0.00000   0.00397   0.00397   2.09346
   A33        2.08975   0.00070   0.00000   0.00318   0.00318   2.09293
   A34        2.10429   0.00083   0.00000   0.00350   0.00350   2.10780
   A35        2.08939  -0.00054   0.00000  -0.00248  -0.00248   2.08691
   A36        2.08950  -0.00029   0.00000  -0.00102  -0.00102   2.08848
   A37        2.07473   0.00107   0.00000   0.00481   0.00481   2.07954
   A38        2.09978  -0.00016   0.00000  -0.00019  -0.00019   2.09959
   A39        2.10867  -0.00091   0.00000  -0.00462  -0.00462   2.10405
   A40        1.89260   0.00109   0.00000   0.00432   0.00432   1.89692
   A41        2.28538   0.00150   0.00000   0.00576   0.00575   2.29113
   A42        2.10521  -0.00260   0.00000  -0.01008  -0.01007   2.09514
   A43        1.93147   0.00064   0.00000   0.00523   0.00523   1.93670
   A44        1.93224  -0.00033   0.00000  -0.00232  -0.00233   1.92991
   A45        1.93912  -0.00060   0.00000  -0.00461  -0.00462   1.93450
   A46        1.88235   0.00011   0.00000   0.00272   0.00272   1.88507
   A47        1.88862   0.00006   0.00000   0.00106   0.00106   1.88968
   A48        1.88823   0.00013   0.00000  -0.00194  -0.00196   1.88627
   A49        1.93184  -0.00034   0.00000  -0.00235  -0.00237   1.92948
   A50        1.93200   0.00061   0.00000   0.00509   0.00509   1.93709
   A51        1.93946  -0.00057   0.00000  -0.00455  -0.00455   1.93491
   A52        1.88163   0.00014   0.00000   0.00307   0.00307   1.88469
   A53        1.88885   0.00012   0.00000  -0.00213  -0.00215   1.88670
   A54        1.88821   0.00006   0.00000   0.00101   0.00102   1.88923
   A55        2.14977  -0.00256   0.00000  -0.00993  -0.00991   2.13985
   A56        2.12489  -0.00278   0.00000  -0.01078  -0.01077   2.11412
   A57        2.00850   0.00533   0.00000   0.02072   0.02069   2.02919
   A58        2.11574  -0.00261   0.00000  -0.01036  -0.01044   2.10530
   A59        2.19154   0.00083   0.00000   0.00658   0.00666   2.19820
   A60        1.97563   0.00179   0.00000   0.00397   0.00393   1.97956
   A61        2.15866  -0.00320   0.00000  -0.01166  -0.01161   2.14705
   A62        2.07173   0.00227   0.00000   0.00974   0.00971   2.08144
   A63        2.05217   0.00092   0.00000   0.00169   0.00166   2.05383
   A64        2.11612  -0.00254   0.00000  -0.01049  -0.01057   2.10555
   A65        1.97581   0.00183   0.00000   0.00448   0.00443   1.98024
   A66        2.19099   0.00072   0.00000   0.00625   0.00632   2.19731
   A67        2.15815  -0.00267   0.00000  -0.00970  -0.00964   2.14851
   A68        2.05245   0.00063   0.00000   0.00059   0.00055   2.05301
   A69        2.07199   0.00203   0.00000   0.00889   0.00885   2.08084
   A70        2.00920   0.00569   0.00000   0.02146   0.02145   2.03064
   A71        2.14825  -0.00290   0.00000  -0.01091  -0.01091   2.13734
   A72        2.12571  -0.00279   0.00000  -0.01051  -0.01051   2.11520
   A73        1.86476   0.00080   0.00000   0.00293   0.00292   1.86767
   A74        1.86452   0.00045   0.00000   0.00203   0.00202   1.86654
   A75        1.74406  -0.00487   0.00000  -0.01338  -0.01330   1.73075
   A76        2.13161   0.00123   0.00000   0.00464   0.00463   2.13624
   A77        2.09682   0.00254   0.00000   0.00971   0.00969   2.10652
   A78        2.05438  -0.00377   0.00000  -0.01432  -0.01430   2.04008
   A79        2.10775   0.00157   0.00000   0.00668   0.00667   2.11442
   A80        2.08768  -0.00219   0.00000  -0.01165  -0.01169   2.07599
   A81        2.08773   0.00063   0.00000   0.00508   0.00504   2.09276
   A82        2.11464   0.00180   0.00000   0.00794   0.00793   2.12258
   A83        2.08573  -0.00172   0.00000  -0.00878  -0.00879   2.07693
   A84        2.08253  -0.00007   0.00000   0.00103   0.00102   2.08355
   A85        2.12123   0.00108   0.00000   0.00379   0.00379   2.12502
   A86        2.07908  -0.00027   0.00000  -0.00028  -0.00028   2.07880
   A87        2.08285  -0.00081   0.00000  -0.00351  -0.00351   2.07934
   A88        2.11454   0.00060   0.00000   0.00195   0.00194   2.11648
   A89        2.08401   0.00001   0.00000   0.00084   0.00084   2.08485
   A90        2.08462  -0.00061   0.00000  -0.00282  -0.00282   2.08181
   A91        2.05378  -0.00128   0.00000  -0.00605  -0.00607   2.04771
   A92        2.11721   0.00036   0.00000   0.00186   0.00186   2.11907
   A93        2.11157   0.00091   0.00000   0.00401   0.00401   2.11558
   A94        1.93253   0.00025   0.00000   0.00498   0.00498   1.93750
   A95        1.91460   0.00007   0.00000   0.00128   0.00129   1.91589
   A96        1.96719   0.00073   0.00000   0.00375   0.00375   1.97094
   A97        1.86344   0.00005   0.00000  -0.00183  -0.00185   1.86159
   A98        1.88473  -0.00049   0.00000  -0.00268  -0.00270   1.88203
   A99        1.89805  -0.00066   0.00000  -0.00604  -0.00605   1.89200
   A100       1.89959  -0.00092   0.00000  -0.00504  -0.00503   1.89457
   A101       1.90057  -0.00074   0.00000  -0.00131  -0.00135   1.89922
   A102       1.92370   0.00280   0.00000   0.01307   0.01307   1.93676
   A103       1.85817   0.00044   0.00000  -0.00076  -0.00077   1.85740
   A104       1.99643  -0.00116   0.00000  -0.00723  -0.00722   1.98922
   A105       1.88238  -0.00052   0.00000   0.00099   0.00096   1.88334
   A106       1.91156  -0.00091   0.00000  -0.00716  -0.00717   1.90439
   A107       1.91493   0.00006   0.00000  -0.00141  -0.00142   1.91351
   A108       1.84784  -0.00001   0.00000  -0.00374  -0.00377   1.84407
    D1       -0.01143  -0.00009   0.00000  -0.00277  -0.00277  -0.01420
    D2        3.10331  -0.00013   0.00000  -0.00530  -0.00530   3.09800
    D3        3.13347  -0.00041   0.00000  -0.01399  -0.01394   3.11953
    D4       -0.03498  -0.00045   0.00000  -0.01653  -0.01647  -0.05145
    D5        0.00611  -0.00001   0.00000  -0.00081  -0.00080   0.00531
    D6       -3.13402   0.00004   0.00000   0.00100   0.00100  -3.13302
    D7       -3.13880   0.00031   0.00000   0.01040   0.01046  -3.12834
    D8        0.00425   0.00036   0.00000   0.01222   0.01227   0.01652
    D9        0.00879   0.00018   0.00000   0.00570   0.00570   0.01449
   D10       -3.10170  -0.00008   0.00000  -0.00221  -0.00220  -3.10390
   D11       -3.10650   0.00022   0.00000   0.00821   0.00822  -3.09828
   D12        0.06620  -0.00003   0.00000   0.00031   0.00032   0.06652
   D13        0.65161  -0.00250   0.00000  -0.13364  -0.13361   0.51799
   D14       -2.49924  -0.00242   0.00000  -0.13134  -0.13133  -2.63057
   D15       -2.51713  -0.00263   0.00000  -0.13654  -0.13654  -2.65367
   D16        0.61521  -0.00255   0.00000  -0.13424  -0.13426   0.48095
   D17       -0.00101  -0.00016   0.00000  -0.00506  -0.00509  -0.00610
   D18       -3.13095  -0.00011   0.00000  -0.00319  -0.00321  -3.13417
   D19        3.10915   0.00006   0.00000   0.00274   0.00275   3.11190
   D20       -0.02079   0.00012   0.00000   0.00461   0.00462  -0.01617
   D21       -0.00447   0.00004   0.00000   0.00130   0.00129  -0.00318
   D22       -3.13826   0.00005   0.00000   0.00187   0.00187  -3.13639
   D23        3.12739  -0.00001   0.00000  -0.00026  -0.00027   3.12712
   D24       -0.00640   0.00000   0.00000   0.00031   0.00031  -0.00608
   D25        3.13799  -0.00004   0.00000  -0.00201  -0.00201   3.13598
   D26        1.07204  -0.00009   0.00000  -0.00329  -0.00329   1.06875
   D27       -1.07755   0.00006   0.00000  -0.00058  -0.00058  -1.07813
   D28        0.00715   0.00000   0.00000  -0.00033  -0.00033   0.00681
   D29       -2.05880  -0.00005   0.00000  -0.00161  -0.00161  -2.06041
   D30        2.07480   0.00010   0.00000   0.00110   0.00110   2.07590
   D31        0.00193   0.00005   0.00000   0.00165   0.00166   0.00359
   D32       -3.14114  -0.00000   0.00000  -0.00019  -0.00016  -3.14130
   D33        3.13367   0.00002   0.00000   0.00088   0.00088   3.13454
   D34       -0.00940  -0.00003   0.00000  -0.00095  -0.00094  -0.01034
   D35        0.00269  -0.00000   0.00000  -0.00013  -0.00013   0.00256
   D36       -3.13870  -0.00000   0.00000  -0.00026  -0.00026  -3.13896
   D37       -3.12990   0.00003   0.00000   0.00062   0.00063  -3.12926
   D38        0.01190   0.00003   0.00000   0.00049   0.00050   0.01240
   D39        3.13718   0.00000   0.00000   0.00079   0.00079   3.13797
   D40       -0.00545  -0.00001   0.00000   0.00025   0.00025  -0.00521
   D41       -1.07948   0.00019   0.00000   0.00397   0.00397  -1.07550
   D42        2.06108   0.00018   0.00000   0.00343   0.00343   2.06451
   D43        1.06915  -0.00010   0.00000  -0.00150  -0.00150   1.06765
   D44       -2.07348  -0.00011   0.00000  -0.00204  -0.00204  -2.07552
   D45        3.07561   0.00021   0.00000   0.00327   0.00326   3.07887
   D46       -1.12143   0.00055   0.00000   0.00855   0.00855  -1.11289
   D47        0.97711   0.00010   0.00000   0.00150   0.00151   0.97861
   D48        1.12004  -0.00036   0.00000  -0.00209  -0.00209   1.11795
   D49       -3.07701  -0.00003   0.00000   0.00320   0.00319  -3.07381
   D50       -0.97847  -0.00047   0.00000  -0.00385  -0.00385  -0.98232
   D51       -1.04315  -0.00000   0.00000   0.00227   0.00227  -1.04089
   D52        1.04299   0.00033   0.00000   0.00756   0.00755   1.05054
   D53        3.14153  -0.00011   0.00000   0.00050   0.00051  -3.14115
   D54        1.12238  -0.00054   0.00000  -0.00946  -0.00945   1.11293
   D55       -3.07548  -0.00019   0.00000  -0.00385  -0.00385  -3.07933
   D56       -0.97690  -0.00009   0.00000  -0.00219  -0.00219  -0.97909
   D57        3.07912   0.00001   0.00000  -0.00437  -0.00437   3.07475
   D58       -1.11874   0.00037   0.00000   0.00123   0.00123  -1.11750
   D59        0.97984   0.00047   0.00000   0.00290   0.00289   0.98273
   D60       -1.04154  -0.00039   0.00000  -0.00902  -0.00902  -1.05056
   D61        1.04379  -0.00004   0.00000  -0.00342  -0.00342   1.04037
   D62       -3.14082   0.00007   0.00000  -0.00175  -0.00176   3.14061
   D63        3.14000   0.00002   0.00000   0.00071   0.00071   3.14071
   D64       -0.00095   0.00000   0.00000  -0.00002  -0.00003  -0.00098
   D65       -0.00047   0.00003   0.00000   0.00130   0.00131   0.00084
   D66       -3.14142   0.00001   0.00000   0.00057   0.00057  -3.14085
   D67        0.00205   0.00001   0.00000  -0.00009  -0.00009   0.00196
   D68       -3.13972   0.00001   0.00000   0.00002   0.00003  -3.13969
   D69       -3.14048  -0.00000   0.00000  -0.00058  -0.00058  -3.14106
   D70        0.00094  -0.00000   0.00000  -0.00047  -0.00046   0.00047
   D71       -0.00005  -0.00003   0.00000  -0.00116  -0.00116  -0.00121
   D72       -3.14132  -0.00002   0.00000  -0.00092  -0.00092   3.14095
   D73        3.14091  -0.00002   0.00000  -0.00043  -0.00043   3.14048
   D74       -0.00036  -0.00001   0.00000  -0.00019  -0.00019  -0.00055
   D75        0.00011   0.00001   0.00000   0.00016   0.00016   0.00027
   D76       -3.14134   0.00002   0.00000   0.00059   0.00059  -3.14074
   D77        3.14138  -0.00000   0.00000  -0.00008  -0.00008   3.14130
   D78       -0.00007   0.00001   0.00000   0.00035   0.00035   0.00029
   D79        0.00035   0.00002   0.00000   0.00069   0.00069   0.00104
   D80       -3.14137   0.00002   0.00000   0.00077   0.00077  -3.14060
   D81       -3.14139   0.00001   0.00000   0.00026   0.00026  -3.14114
   D82        0.00007   0.00001   0.00000   0.00034   0.00034   0.00041
   D83        3.14051  -0.00002   0.00000  -0.00040  -0.00040   3.14011
   D84       -0.00087  -0.00002   0.00000  -0.00054  -0.00054  -0.00141
   D85       -0.00096  -0.00002   0.00000  -0.00048  -0.00048  -0.00143
   D86        3.14086  -0.00002   0.00000  -0.00062  -0.00062   3.14024
   D87        3.13153  -0.00021   0.00000  -0.00743  -0.00743   3.12410
   D88        0.01701  -0.00043   0.00000  -0.01646  -0.01645   0.00056
   D89       -0.00138  -0.00024   0.00000  -0.00945  -0.00946  -0.01084
   D90       -3.11589  -0.00047   0.00000  -0.01848  -0.01848  -3.13437
   D91       -3.13181   0.00021   0.00000   0.00769   0.00768  -3.12414
   D92        0.04861   0.00047   0.00000   0.01470   0.01470   0.06331
   D93        0.00123   0.00025   0.00000   0.00968   0.00968   0.01091
   D94       -3.10153   0.00050   0.00000   0.01669   0.01670  -3.08484
   D95       -0.00009  -0.00001   0.00000  -0.00056  -0.00056  -0.00065
   D96       -3.11811  -0.00027   0.00000  -0.01102  -0.01100  -3.12911
   D97        3.11754   0.00018   0.00000   0.00750   0.00747   3.12501
   D98       -0.00048  -0.00008   0.00000  -0.00296  -0.00297  -0.00344
   D99        3.11909   0.00010   0.00000   0.00566   0.00568   3.12477
   D100       0.00269  -0.00005   0.00000  -0.00254  -0.00258   0.00011
   D101       0.00050   0.00001   0.00000   0.00065   0.00064   0.00114
   D102      -3.10356   0.00023   0.00000   0.00729   0.00726  -3.09630
   D103       3.10367  -0.00021   0.00000  -0.00612  -0.00611   3.09756
   D104      -0.00039   0.00001   0.00000   0.00052   0.00052   0.00012
   D105       0.00174   0.00027   0.00000   0.01054   0.01056   0.01230
   D106      -3.13232   0.00015   0.00000   0.00527   0.00525  -3.12706
   D107       3.11670   0.00057   0.00000   0.02230   0.02232   3.13901
   D108      -0.01736   0.00045   0.00000   0.01702   0.01701  -0.00035
   D109      -0.00199   0.00017   0.00000   0.00684   0.00688   0.00489
   D110      -3.11881  -0.00006   0.00000  -0.00388  -0.00393  -3.12274
   D111      -0.00198  -0.00028   0.00000  -0.01086  -0.01088  -0.01285
   D112       3.13219  -0.00016   0.00000  -0.00566  -0.00564   3.12655
   D113       3.10170  -0.00053   0.00000  -0.01774  -0.01778   3.08392
   D114      -0.04733  -0.00041   0.00000  -0.01255  -0.01254  -0.05987
   D115      -0.64981   0.00201   0.00000   0.10729   0.10726  -0.54255
   D116       2.52179   0.00206   0.00000   0.10652   0.10649   2.62828
   D117       2.49981   0.00185   0.00000   0.10154   0.10157   2.60138
   D118      -0.61178   0.00189   0.00000   0.10077   0.10080  -0.51098
   D119      -0.00347   0.00015   0.00000   0.00591   0.00591   0.00243
   D120       0.00321  -0.00019   0.00000  -0.00756  -0.00755  -0.00434
   D121      -3.10157  -0.00003   0.00000  -0.00033  -0.00031  -3.10189
   D122       0.03202   0.00040   0.00000   0.01427   0.01422   0.04624
   D123       0.01071   0.00003   0.00000   0.00081   0.00081   0.01152
   D124      -3.13888   0.00045   0.00000   0.01541   0.01534  -3.12354
   D125       3.10514  -0.00015   0.00000  -0.00533  -0.00535   3.09979
   D126      -0.06211   0.00013   0.00000   0.00355   0.00353  -0.05858
   D127      -0.00775  -0.00019   0.00000  -0.00637  -0.00637  -0.01412
   D128       3.10818   0.00009   0.00000   0.00251   0.00250   3.11069
   D129      -0.00719   0.00007   0.00000   0.00319   0.00318  -0.00400
   D130       3.12694   0.00010   0.00000   0.00406   0.00408   3.13102
   D131      -3.14078  -0.00035   0.00000  -0.01134  -0.01141   3.13100
   D132      -0.00665  -0.00032   0.00000  -0.01046  -0.01051  -0.01716
   D133       0.00111   0.00026   0.00000   0.00807   0.00810   0.00921
   D134       3.13689   0.00009   0.00000   0.00286   0.00289   3.13979
   D135      -3.11488   0.00000   0.00000  -0.00065  -0.00066  -3.11554
   D136       0.02091  -0.00016   0.00000  -0.00586  -0.00587   0.01504
   D137       0.00029  -0.00003   0.00000  -0.00177  -0.00177  -0.00148
   D138      -3.10351   0.00007   0.00000   0.00348   0.00348  -3.10004
   D139      -3.13382  -0.00007   0.00000  -0.00266  -0.00268  -3.13650
   D140       0.04556   0.00004   0.00000   0.00259   0.00257   0.04813
   D141       0.00272  -0.00013   0.00000  -0.00381  -0.00380  -0.00108
   D142       3.10666  -0.00025   0.00000  -0.00909  -0.00908   3.09758
   D143      -3.13306   0.00003   0.00000   0.00138   0.00139  -3.13167
   D144      -0.02913  -0.00008   0.00000  -0.00390  -0.00389  -0.03302
   D145      -2.61870  -0.00014   0.00000  -0.00248  -0.00249  -2.62119
   D146      -0.56643   0.00011   0.00000  -0.00094  -0.00095  -0.56738
   D147       1.55118  -0.00020   0.00000  -0.00521  -0.00523   1.54595
   D148       0.56193   0.00001   0.00000   0.00316   0.00318   0.56511
   D149       2.61420   0.00026   0.00000   0.00470   0.00472   2.61891
   D150      -1.55138  -0.00004   0.00000   0.00043   0.00044  -1.55094
   D151      -0.98157   0.00028   0.00000   0.01134   0.01133  -0.97023
   D152       1.03739  -0.00010   0.00000   0.00698   0.00698   1.04437
   D153       3.09904   0.00045   0.00000   0.01504   0.01505   3.11408
   D154      -3.12190  -0.00017   0.00000   0.00447   0.00447  -3.11743
   D155      -1.10294  -0.00055   0.00000   0.00011   0.00012  -1.10282
   D156       0.95870   0.00001   0.00000   0.00817   0.00819   0.96689
   D157       1.14542   0.00039   0.00000   0.01119   0.01118   1.15660
   D158      -3.11880   0.00000   0.00000   0.00683   0.00683  -3.11198
   D159      -1.05716   0.00056   0.00000   0.01490   0.01489  -1.04227
   D160       1.18941  -0.00003   0.00000  -0.00950  -0.00952   1.17988
   D161      -3.07255  -0.00053   0.00000  -0.01887  -0.01888  -3.09143
   D162      -0.95754  -0.00015   0.00000  -0.00772  -0.00772  -0.96526
   D163       1.06369  -0.00065   0.00000  -0.01710  -0.01708   1.04661
   D164      -3.02098   0.00036   0.00000  -0.00305  -0.00305  -3.02403
   D165      -0.99975  -0.00014   0.00000  -0.01242  -0.01241  -1.01216
         Item               Value     Threshold  Converged?
 Maximum Force            0.021934     0.000450     NO 
 RMS     Force            0.002793     0.000300     NO 
 Maximum Displacement     0.685180     0.001800     NO 
 RMS     Displacement     0.081318     0.001200     NO 
 Predicted change in Energy=-4.839708D-03
 Lowest energy point so far.  Saving SCF results.
 GradGradGradGradGradGradGradGradGradGradGradGradGradGradGradGradGradGrad

 Leave Link  103 at Thu Mar 14 10:07:59 2024, MaxMem= 32212254720 cpu:               3.2 elap:               0.1
 (Enter /home/<user>/g16/l202.exe)
 Stoichiometry    C29H25N3S(1-,2)
 Framework group  C1[X(C29H25N3S)]
 Deg. of freedom   168
 Full point group                 C1      NOp   1
 RotChk:  IX=0 Diff= 6.06D-02
 Largest Abelian subgroup         C1      NOp   1
 Largest concise Abelian subgroup C1      NOp   1
                         Standard orientation:                         
 ---------------------------------------------------------------------
 Center     Atomic      Atomic             Coordinates (Angstroms)
 Number     Number       Type             X           Y           Z
 ---------------------------------------------------------------------
      1          6           0       -2.436484    1.609883   -0.479124
      2          6           0       -1.782000    0.383313   -0.211957
      3          6           0       -2.588065   -0.749330    0.067117
      4          6           0       -3.970639   -0.651014    0.058486
      5          6           0       -4.603286    0.578354   -0.220624
      6          6           0       -3.824596    1.711482   -0.487903
      7          1           0       -1.832307    2.487671   -0.673393
      8          1           0       -2.103192   -1.691716    0.309622
      9          1           0       -4.293801    2.669288   -0.705251
     10          6           0       -5.008687   -1.740719    0.338922
     11          6           0       -6.315383   -0.963476    0.170690
     12          6           0       -7.623309   -1.415125    0.296523
     13          6           0       -8.684856   -0.518978    0.097617
     14          6           0       -8.424930    0.817712   -0.223162
     15          6           0       -7.111940    1.280288   -0.350482
     16          6           0       -6.051806    0.386654   -0.153795
     17          1           0       -7.830911   -2.453991    0.546982
     18          1           0       -9.712062   -0.864052    0.193520
     19          1           0       -9.254932    1.504752   -0.374618
     20          1           0       -6.918671    2.321076   -0.599169
     21          6           0       -4.869387   -2.297765    1.772632
     22          1           0       -5.656640   -3.032343    1.986842
     23          1           0       -3.899715   -2.793005    1.901065
     24          1           0       -4.940391   -1.493379    2.511496
     25          6           0       -4.905690   -2.894543   -0.682074
     26          1           0       -3.936426   -3.399769   -0.595459
     27          1           0       -5.693112   -3.640580   -0.513067
     28          1           0       -5.003254   -2.519145   -1.705732
     29          6           0       -0.318668    0.256178   -0.253872
     30          6           0        0.564519    1.351381    0.053470
     31          6           0        0.295492   -0.961706   -0.593279
     32          6           0        2.017451    1.170355    0.019216
     33          6           0        1.682985   -1.132351   -0.625634
     34          1           0       -0.324536   -1.806471   -0.886161
     35          6           0        2.589238   -0.104214   -0.321069
     36          1           0        2.065070   -2.100858   -0.942173
     37          7           0        0.189171    2.591650    0.407638
     38          7           0        2.702860    2.280180    0.344453
     39         16           0        1.580838    3.463131    0.676968
     40          6           0        4.044717   -0.335957   -0.350345
     41          6           0        4.964622    0.678869   -0.684314
     42          6           0        4.576364   -1.613391   -0.073841
     43          6           0        6.331611    0.419215   -0.749532
     44          1           0        4.594068    1.676710   -0.886404
     45          6           0        5.944872   -1.865844   -0.144131
     46          1           0        3.900935   -2.413625    0.215637
     47          6           0        6.854618   -0.854888   -0.483076
     48          1           0        7.012210    1.226188   -1.020719
     49          1           0        6.317492   -2.865521    0.078326
     50          6           0        8.345912   -1.116052   -0.504162
     51          1           0        8.559903   -2.150585   -0.799694
     52          1           0        8.826756   -0.468215   -1.252591
     53          6           0        9.017170   -0.866603    0.857007
     54          1           0        8.788026    0.165112    1.177996
     55          1           0        8.563462   -1.531195    1.602292
     56          7           0       10.455644   -1.168574    0.797781
     57          1           0       10.915363   -0.487199    0.193780
     58          1           0       10.870453   -1.042418    1.720468
 ---------------------------------------------------------------------
 Rotational constants (GHZ):           0.3683560           0.0392943           0.0362956
 Leave Link  202 at Thu Mar 14 10:07:59 2024, MaxMem= 32212254720 cpu:               0.1 elap:               0.0
 (Enter /home/<user>/g16/l301.exe)
 Standard basis: 6-31G(d) (6D, 7F)
 Ernie: Thresh=  0.10000D-02 Tol=  0.10000D-05 Strict=F.
 There are   549 symmetry adapted cartesian basis functions of A   symmetry.
 There are   549 symmetry adapted basis functions of A   symmetry.
   549 basis functions,  1048 primitive gaussians,   549 cartesian basis functions
   119 alpha electrons      118 beta electrons
       nuclear repulsion energy      3073.8940231733 Hartrees.
 IExCor=  402 DFT=T Ex+Corr=B3LYP ExCW=0 ScaHFX=  0.200000
 ScaDFX=  0.800000  0.720000  1.000000  0.810000 ScalE2=  1.000000  1.000000
 IRadAn=      5 IRanWt=     -1 IRanGd=            0 ICorTp=0 IEmpDi=  4
 NAtoms=   58 NActive=   58 NUniq=   58 SFac= 1.00D+00 NAtFMM=   60 NAOKFM=F Big=F
 Integral buffers will be    131072 words long.
 Raffenetti 2 integral format.
 Two-electron integral symmetry is turned on.
 Leave Link  301 at Thu Mar 14 10:07:59 2024, MaxMem= 32212254720 cpu:               0.8 elap:               0.0
 (Enter /home/<user>/g16/l302.exe)
 NPDir=0 NMtPBC=     1 NCelOv=     1 NCel=       1 NClECP=     1 NCelD=      1
         NCelK=      1 NCelE2=     1 NClLst=     1 CellRange=     0.0.
 One-electron integrals computed using PRISM.
 One-electron integral symmetry used in STVInt
 NBasis=   549 RedAO= T EigKep=  2.73D-04  NBF=   549
 NBsUse=   549 1.00D-06 EigRej= -1.00D+00 NBFU=   549
 Precomputing XC quadrature grid using
 IXCGrd= 4 IRadAn=           5 IRanWt=          -1 IRanGd=           0 AccXCQ= 0.00D+00.
 Generated NRdTot=       0 NPtTot=           0 NUsed=           0 NTot=          32
 NSgBfM=   512   512   512   512   512 MxSgAt=    58 MxSgA2=    58.
 Leave Link  302 at Thu Mar 14 10:08:00 2024, MaxMem= 32212254720 cpu:              12.6 elap:               0.4
 (Enter /home/<user>/g16/l303.exe)
 DipDrv:  MaxL=1.
 Leave Link  303 at Thu Mar 14 10:08:00 2024, MaxMem= 32212254720 cpu:               1.4 elap:               0.1
 (Enter /home/<user>/g16/l401.exe)
 Initial guess from the checkpoint file:  "FBTP_E0opt.chk"
 B after Tr=    -0.000000   -0.000000    0.000000
         Rot=    0.999992   -0.003976   -0.000072    0.000358 Ang=  -0.46 deg.
 Guess basis will be translated and rotated to current coordinates.
 JPrj=2 DoOrth=T DoCkMO=T.
 Initial guess <Sx>= 0.0000 <Sy>= 0.0000 <Sz>= 0.5000 <S**2>= 0.7597 S= 0.5048
 Generating alternative initial guess.
 ExpMin= 1.17D-01 ExpMax= 2.19D+04 ExpMxC= 3.30D+03 IAcc=3 IRadAn=         5 AccDes= 0.00D+00
 Harris functional with IExCor=  402 and IRadAn=       5 diagonalized for initial guess.
 HarFok:  IExCor=  402 AccDes= 0.00D+00 IRadAn=         5 IDoV= 1 UseB2=F ITyADJ=14
 ICtDFT=  3500011 ScaDFX=  1.000000  1.000000  1.000000  1.000000
 FoFCou: FMM=F IPFlag=           0 FMFlag=      100000 FMFlg1=           0
         NFxFlg=           0 DoJE=T BraDBF=F KetDBF=T FulRan=T
         wScrn=  0.000000 ICntrl=       500 IOpCl=  0 I1Cent=   200000004 NGrid=           0
         NMat0=    1 NMatS0=      1 NMatT0=    0 NMatD0=    1 NMtDS0=    0 NMtDT0=    0
 Petite list used in FoFCou.
 Harris En= -1682.77795955083    
 Leave Link  401 at Thu Mar 14 10:08:01 2024, MaxMem= 32212254720 cpu:              46.1 elap:               1.5
 (Enter /home/<user>/g16/l502.exe)
 Integral symmetry usage will be decided dynamically.
 UHF open shell SCF:
 Using DIIS extrapolation, IDIIS=  1040.
 NGot= 32212254720 LenX= 32211628124 LenY= 32211326174
 Requested convergence on RMS density matrix=1.00D-08 within 128 cycles.
 Requested convergence on MAX density matrix=1.00D-06.
 Requested convergence on             energy=1.00D-06.
 No special actions if energy rises.
 Fock matrices will be formed incrementally for  20 cycles.
 Integral accuracy reduced to 1.0D-05 until final iterations.

 Cycle   1  Pass 0  IDiag  1:
 FoFJK:  IHMeth= 1 ICntrl=       0 DoSepK=F KAlg= 0 I1Cent=           0 FoldK=F
 IRaf= 550000000 NMat=       1 IRICut=       1 DoRegI=T DoRafI=F ISym2E= 0 IDoP0=0 IntGTp=1.
 FoFCou: FMM=F IPFlag=           0 FMFlag=      100000 FMFlg1=           0
         NFxFlg=           0 DoJE=F BraDBF=F KetDBF=F FulRan=T
         wScrn=  0.000000 ICntrl=         0 IOpCl=  1 I1Cent=           0 NGrid=           0
         NMat0=    1 NMatS0=      1 NMatT0=    0 NMatD0=    1 NMtDS0=    0 NMtDT0=    0
 Symmetry not used in FoFCou.
 E= -1682.60471990162    
 DIIS: error= 3.35D-03 at cycle   1 NSaved=   1.
 NSaved= 1 IEnMin= 1 EnMin= -1682.60471990162     IErMin= 1 ErrMin= 3.35D-03
 ErrMax= 3.35D-03  0.00D+00 EMaxC= 1.00D-01 BMatC= 6.86D-02 BMatP= 6.86D-02
 IDIUse=3 WtCom= 9.66D-01 WtEn= 3.35D-02
 Coeff-Com:  0.100D+01
 Coeff-En:   0.100D+01
 Coeff:      0.100D+01
 Gap=     1.868 Goal=   None    Shift=    0.000
 Gap=     1.936 Goal=   None    Shift=    0.000
 GapD=    1.868 DampG=2.000 DampE=1.000 DampFc=2.0000 IDamp=-1.
 RMSDP=5.03D-04 MaxDP=2.02D-02              OVMax= 3.92D-02

 Cycle   2  Pass 0  IDiag  1:
 RMSU=  5.03D-04    CP:  9.99D-01
 E= -1682.64373794986     Delta-E=       -0.039018048241 Rises=F Damp=F
 DIIS: error= 5.20D-04 at cycle   2 NSaved=   2.
 NSaved= 2 IEnMin= 2 EnMin= -1682.64373794986     IErMin= 2 ErrMin= 5.20D-04
 ErrMax= 5.20D-04  0.00D+00 EMaxC= 1.00D-01 BMatC= 1.49D-03 BMatP= 6.86D-02
 IDIUse=3 WtCom= 9.95D-01 WtEn= 5.20D-03
 Coeff-Com: -0.641D-01 0.106D+01
 Coeff-En:   0.000D+00 0.100D+01
 Coeff:     -0.638D-01 0.106D+01
 Gap=     0.059 Goal=   None    Shift=    0.000
 Gap=     0.116 Goal=   None    Shift=    0.000
 RMSDP=1.02D-04 MaxDP=6.25D-03 DE=-3.90D-02 OVMax= 1.73D-02

 Cycle   3  Pass 0  IDiag  1:
 RMSU=  9.52D-05    CP:  9.99D-01  1.07D+00
 E= -1682.64409512333     Delta-E=       -0.000357173472 Rises=F Damp=F
 DIIS: error= 6.06D-04 at cycle   3 NSaved=   3.
 NSaved= 3 IEnMin= 3 EnMin= -1682.64409512333     IErMin= 2 ErrMin= 5.20D-04
 ErrMax= 6.06D-04  0.00D+00 EMaxC= 1.00D-01 BMatC= 1.45D-03 BMatP= 1.49D-03
 IDIUse=3 WtCom= 9.94D-01 WtEn= 6.06D-03
 Coeff-Com: -0.462D-01 0.564D+00 0.482D+00
 Coeff-En:   0.000D+00 0.133D+00 0.867D+00
 Coeff:     -0.459D-01 0.561D+00 0.485D+00
 Gap=     0.057 Goal=   None    Shift=    0.000
 Gap=     0.115 Goal=   None    Shift=    0.000
 RMSDP=6.33D-05 MaxDP=5.22D-03 DE=-3.57D-04 OVMax= 1.57D-02

 Cycle   4  Pass 0  IDiag  1:
 RMSU=  4.15D-05    CP:  9.99D-01  1.09D+00  5.03D-01
 E= -1682.64438905031     Delta-E=       -0.000293926979 Rises=F Damp=F
 DIIS: error= 2.34D-04 at cycle   4 NSaved=   4.
 NSaved= 4 IEnMin= 4 EnMin= -1682.64438905031     IErMin= 4 ErrMin= 2.34D-04
 ErrMax= 2.34D-04  0.00D+00 EMaxC= 1.00D-01 BMatC= 2.83D-04 BMatP= 1.45D-03
 IDIUse=3 WtCom= 9.98D-01 WtEn= 2.34D-03
 Coeff-Com: -0.202D-01 0.223D+00 0.319D+00 0.478D+00
 Coeff-En:   0.000D+00 0.000D+00 0.175D+00 0.825D+00
 Coeff:     -0.201D-01 0.222D+00 0.319D+00 0.479D+00
 Gap=     0.058 Goal=   None    Shift=    0.000
 Gap=     0.115 Goal=   None    Shift=    0.000
 RMSDP=2.88D-05 MaxDP=2.33D-03 DE=-2.94D-04 OVMax= 9.58D-03

 Cycle   5  Pass 0  IDiag  1:
 RMSU=  1.79D-05    CP:  9.99D-01  1.09D+00  6.04D-01  5.13D-01
 E= -1682.64445997939     Delta-E=       -0.000070929084 Rises=F Damp=F
 DIIS: error= 7.86D-05 at cycle   5 NSaved=   5.
 NSaved= 5 IEnMin= 5 EnMin= -1682.64445997939     IErMin= 5 ErrMin= 7.86D-05
 ErrMax= 7.86D-05  0.00D+00 EMaxC= 1.00D-01 BMatC= 2.47D-05 BMatP= 2.83D-04
 IDIUse=1 WtCom= 1.00D+00 WtEn= 0.00D+00
 Coeff-Com: -0.452D-02 0.383D-01 0.106D+00 0.277D+00 0.584D+00
 Coeff:     -0.452D-02 0.383D-01 0.106D+00 0.277D+00 0.584D+00
 Gap=     0.058 Goal=   None    Shift=    0.000
 Gap=     0.115 Goal=   None    Shift=    0.000
 RMSDP=9.09D-06 MaxDP=7.60D-04 DE=-7.09D-05 OVMax= 2.29D-03

 Initial convergence to 1.0D-05 achieved.  Increase integral accuracy.
 Cycle   6  Pass 1  IDiag  1:
 E= -1682.64450626656     Delta-E=       -0.000046287168 Rises=F Damp=F
 DIIS: error= 1.11D-04 at cycle   1 NSaved=   1.
 NSaved= 1 IEnMin= 1 EnMin= -1682.64450626656     IErMin= 1 ErrMin= 1.11D-04
 ErrMax= 1.11D-04  0.00D+00 EMaxC= 1.00D-01 BMatC= 1.65D-05 BMatP= 1.65D-05
 IDIUse=3 WtCom= 9.99D-01 WtEn= 1.11D-03
 Coeff-Com:  0.100D+01
 Coeff-En:   0.100D+01
 Coeff:      0.100D+01
 Gap=     0.058 Goal=   None    Shift=    0.000
 Gap=     0.115 Goal=   None    Shift=    0.000
 RMSDP=9.09D-06 MaxDP=7.60D-04 DE=-4.63D-05 OVMax= 1.95D-03

 Cycle   7  Pass 1  IDiag  1:
 RMSU=  7.26D-05    CP:  1.00D+00
 E= -1682.64450443436     Delta-E=        0.000001832205 Rises=F Damp=F
 DIIS: error= 7.45D-05 at cycle   2 NSaved=   2.
 NSaved= 2 IEnMin= 1 EnMin= -1682.64450626656     IErMin= 2 ErrMin= 7.45D-05
 ErrMax= 7.45D-05  0.00D+00 EMaxC= 1.00D-01 BMatC= 2.06D-05 BMatP= 1.65D-05
 IDIUse=1 WtCom= 1.00D+00 WtEn= 0.00D+00
 Coeff-Com:  0.538D+00 0.462D+00
 Coeff:      0.538D+00 0.462D+00
 Gap=     0.058 Goal=   None    Shift=    0.000
 Gap=     0.115 Goal=   None    Shift=    0.000
 RMSDP=8.74D-06 MaxDP=6.59D-04 DE= 1.83D-06 OVMax= 1.81D-03

 Cycle   8  Pass 1  IDiag  1:
 RMSU=  8.72D-06    CP:  1.00D+00  9.93D-01
 E= -1682.64450845197     Delta-E=       -0.000004017610 Rises=F Damp=F
 DIIS: error= 4.85D-05 at cycle   3 NSaved=   3.
 NSaved= 3 IEnMin= 3 EnMin= -1682.64450845197     IErMin= 3 ErrMin= 4.85D-05
 ErrMax= 4.85D-05  0.00D+00 EMaxC= 1.00D-01 BMatC= 7.56D-06 BMatP= 1.65D-05
 IDIUse=1 WtCom= 1.00D+00 WtEn= 0.00D+00
 Coeff-Com:  0.693D-01 0.365D+00 0.566D+00
 Coeff:      0.693D-01 0.365D+00 0.566D+00
 Gap=     0.058 Goal=   None    Shift=    0.000
 Gap=     0.115 Goal=   None    Shift=    0.000
 RMSDP=3.80D-06 MaxDP=4.02D-04 DE=-4.02D-06 OVMax= 7.57D-04

 Cycle   9  Pass 1  IDiag  1:
 RMSU=  2.11D-06    CP:  1.00D+00  1.00D+00  6.44D-01
 E= -1682.64451019665     Delta-E=       -0.000001744685 Rises=F Damp=F
 DIIS: error= 2.21D-05 at cycle   4 NSaved=   4.
 NSaved= 4 IEnMin= 4 EnMin= -1682.64451019665     IErMin= 4 ErrMin= 2.21D-05
 ErrMax= 2.21D-05  0.00D+00 EMaxC= 1.00D-01 BMatC= 1.28D-06 BMatP= 7.56D-06
 IDIUse=1 WtCom= 1.00D+00 WtEn= 0.00D+00
 Coeff-Com: -0.263D-02 0.217D+00 0.398D+00 0.388D+00
 Coeff:     -0.263D-02 0.217D+00 0.398D+00 0.388D+00
 Gap=     0.058 Goal=   None    Shift=    0.000
 Gap=     0.115 Goal=   None    Shift=    0.000
 RMSDP=1.37D-06 MaxDP=1.24D-04 DE=-1.74D-06 OVMax= 2.04D-04

 Cycle  10  Pass 1  IDiag  1:
 RMSU=  6.71D-07    CP:  1.00D+00  1.00D+00  6.46D-01  4.38D-01
 E= -1682.64451051405     Delta-E=       -0.000000317401 Rises=F Damp=F
 DIIS: error= 4.28D-06 at cycle   5 NSaved=   5.
 NSaved= 5 IEnMin= 5 EnMin= -1682.64451051405     IErMin= 5 ErrMin= 4.28D-06
 ErrMax= 4.28D-06  0.00D+00 EMaxC= 1.00D-01 BMatC= 5.81D-08 BMatP= 1.28D-06
 IDIUse=1 WtCom= 1.00D+00 WtEn= 0.00D+00
 Coeff-Com: -0.531D-02 0.117D+00 0.217D+00 0.240D+00 0.432D+00
 Coeff:     -0.531D-02 0.117D+00 0.217D+00 0.240D+00 0.432D+00
 Gap=     0.058 Goal=   None    Shift=    0.000
 Gap=     0.115 Goal=   None    Shift=    0.000
 RMSDP=3.53D-07 MaxDP=2.46D-05 DE=-3.17D-07 OVMax= 4.48D-05

 Cycle  11  Pass 1  IDiag  1:
 RMSU=  3.22D-07    CP:  1.00D+00  1.00D+00  6.49D-01  4.84D-01  8.55D-01
 E= -1682.64451053311     Delta-E=       -0.000000019062 Rises=F Damp=F
 DIIS: error= 2.06D-06 at cycle   6 NSaved=   6.
 NSaved= 6 IEnMin= 6 EnMin= -1682.64451053311     IErMin= 6 ErrMin= 2.06D-06
 ErrMax= 2.06D-06  0.00D+00 EMaxC= 1.00D-01 BMatC= 1.20D-08 BMatP= 5.81D-08
 IDIUse=1 WtCom= 1.00D+00 WtEn= 0.00D+00
 Coeff-Com: -0.173D-02-0.456D-01-0.847D-01-0.611D-01 0.227D+00 0.966D+00
 Coeff:     -0.173D-02-0.456D-01-0.847D-01-0.611D-01 0.227D+00 0.966D+00
 Gap=     0.058 Goal=   None    Shift=    0.000
 Gap=     0.115 Goal=   None    Shift=    0.000
 RMSDP=3.60D-07 MaxDP=2.93D-05 DE=-1.91D-08 OVMax= 9.75D-05

 Cycle  12  Pass 1  IDiag  1:
 RMSU=  2.24D-07    CP:  1.00D+00  1.00D+00  6.45D-01  5.14D-01  1.24D+00
                    CP:  1.26D+00
 E= -1682.64451054589     Delta-E=       -0.000000012775 Rises=F Damp=F
 DIIS: error= 1.28D-06 at cycle   7 NSaved=   7.
 NSaved= 7 IEnMin= 7 EnMin= -1682.64451054589     IErMin= 7 ErrMin= 1.28D-06
 ErrMax= 1.28D-06  0.00D+00 EMaxC= 1.00D-01 BMatC= 6.49D-09 BMatP= 1.20D-08
 IDIUse=1 WtCom= 1.00D+00 WtEn= 0.00D+00
 Coeff-Com:  0.149D-02-0.913D-01-0.172D+00-0.166D+00-0.741D-01 0.691D+00
 Coeff-Com:  0.811D+00
 Coeff:      0.149D-02-0.913D-01-0.172D+00-0.166D+00-0.741D-01 0.691D+00
 Coeff:      0.811D+00
 Gap=     0.058 Goal=   None    Shift=    0.000
 Gap=     0.115 Goal=   None    Shift=    0.000
 RMSDP=2.87D-07 MaxDP=2.19D-05 DE=-1.28D-08 OVMax= 4.99D-05

 Cycle  13  Pass 1  IDiag  1:
 RMSU=  1.43D-07    CP:  1.00D+00  1.00D+00  6.47D-01  5.50D-01  1.48D+00
                    CP:  1.78D+00  8.88D-01
 E= -1682.64451055143     Delta-E=       -0.000000005547 Rises=F Damp=F
 DIIS: error= 7.24D-07 at cycle   8 NSaved=   8.
 NSaved= 8 IEnMin= 8 EnMin= -1682.64451055143     IErMin= 8 ErrMin= 7.24D-07
 ErrMax= 7.24D-07  0.00D+00 EMaxC= 1.00D-01 BMatC= 1.92D-09 BMatP= 6.49D-09
 IDIUse=1 WtCom= 1.00D+00 WtEn= 0.00D+00
 Coeff-Com:  0.126D-02-0.510D-01-0.966D-01-0.954D-01-0.776D-01 0.286D+00
 Coeff-Com:  0.543D+00 0.491D+00
 Coeff:      0.126D-02-0.510D-01-0.966D-01-0.954D-01-0.776D-01 0.286D+00
 Coeff:      0.543D+00 0.491D+00
 Gap=     0.058 Goal=   None    Shift=    0.000
 Gap=     0.115 Goal=   None    Shift=    0.000
 RMSDP=8.54D-08 MaxDP=5.13D-06 DE=-5.55D-09 OVMax= 2.07D-05

 Cycle  14  Pass 1  IDiag  1:
 RMSU=  5.50D-08    CP:  1.00D+00  1.00D+00  6.45D-01  5.56D-01  1.55D+00
                    CP:  1.83D+00  1.04D+00  8.12D-01
 E= -1682.64451055228     Delta-E=       -0.000000000840 Rises=F Damp=F
 DIIS: error= 2.94D-07 at cycle   9 NSaved=   9.
 NSaved= 9 IEnMin= 9 EnMin= -1682.64451055228     IErMin= 9 ErrMin= 2.94D-07
 ErrMax= 2.94D-07  0.00D+00 EMaxC= 1.00D-01 BMatC= 1.63D-10 BMatP= 1.92D-09
 IDIUse=1 WtCom= 1.00D+00 WtEn= 0.00D+00
 Coeff-Com:  0.923D-05 0.735D-02 0.135D-01 0.133D-01 0.391D-03-0.954D-01
 Coeff-Com: -0.296D-01 0.106D+00 0.984D+00
 Coeff:      0.923D-05 0.735D-02 0.135D-01 0.133D-01 0.391D-03-0.954D-01
 Coeff:     -0.296D-01 0.106D+00 0.984D+00
 Gap=     0.058 Goal=   None    Shift=    0.000
 Gap=     0.115 Goal=   None    Shift=    0.000
 RMSDP=4.63D-08 MaxDP=3.60D-06 DE=-8.40D-10 OVMax= 8.31D-06

 Cycle  15  Pass 1  IDiag  1:
 RMSU=  3.10D-08    CP:  1.00D+00  1.00D+00  6.45D-01  5.57D-01  1.56D+00
                    CP:  1.87D+00  1.09D+00  9.96D-01  1.24D+00
 E= -1682.64451055251     Delta-E=       -0.000000000235 Rises=F Damp=F
 DIIS: error= 2.20D-07 at cycle  10 NSaved=  10.
 NSaved=10 IEnMin=10 EnMin= -1682.64451055251     IErMin=10 ErrMin= 2.20D-07
 ErrMax= 2.20D-07  0.00D+00 EMaxC= 1.00D-01 BMatC= 1.22D-10 BMatP= 1.63D-10
 IDIUse=1 WtCom= 1.00D+00 WtEn= 0.00D+00
 Coeff-Com: -0.447D-03 0.233D-01 0.439D-01 0.436D-01 0.296D-01-0.175D+00
 Coeff-Com: -0.214D+00-0.123D+00 0.693D+00 0.679D+00
 Coeff:     -0.447D-03 0.233D-01 0.439D-01 0.436D-01 0.296D-01-0.175D+00
 Coeff:     -0.214D+00-0.123D+00 0.693D+00 0.679D+00
 Gap=     0.058 Goal=   None    Shift=    0.000
 Gap=     0.115 Goal=   None    Shift=    0.000
 RMSDP=3.19D-08 MaxDP=2.53D-06 DE=-2.35D-10 OVMax= 9.02D-06

 Cycle  16  Pass 1  IDiag  1:
 RMSU=  1.71D-08    CP:  1.00D+00  1.00D+00  6.46D-01  5.58D-01  1.56D+00
                    CP:  1.89D+00  1.12D+00  1.12D+00  1.56D+00  9.87D-01
 E= -1682.64451055269     Delta-E=       -0.000000000184 Rises=F Damp=F
 DIIS: error= 6.79D-08 at cycle  11 NSaved=  11.
 NSaved=11 IEnMin=11 EnMin= -1682.64451055269     IErMin=11 ErrMin= 6.79D-08
 ErrMax= 6.79D-08  0.00D+00 EMaxC= 1.00D-01 BMatC= 1.73D-11 BMatP= 1.22D-10
 IDIUse=1 WtCom= 1.00D+00 WtEn= 0.00D+00
 Coeff-Com: -0.223D-03 0.104D-01 0.195D-01 0.194D-01 0.152D-01-0.725D-01
 Coeff-Com: -0.964D-01-0.873D-01 0.176D+00 0.342D+00 0.674D+00
 Coeff:     -0.223D-03 0.104D-01 0.195D-01 0.194D-01 0.152D-01-0.725D-01
 Coeff:     -0.964D-01-0.873D-01 0.176D+00 0.342D+00 0.674D+00
 Gap=     0.058 Goal=   None    Shift=    0.000
 Gap=     0.115 Goal=   None    Shift=    0.000
 RMSDP=1.09D-08 MaxDP=7.63D-07 DE=-1.84D-10 OVMax= 2.36D-06

 Cycle  17  Pass 1  IDiag  1:
 RMSU=  6.96D-09    CP:  1.00D+00  1.00D+00  6.46D-01  5.58D-01  1.56D+00
                    CP:  1.89D+00  1.12D+00  1.15D+00  1.65D+00  1.16D+00
                    CP:  1.01D+00
 E= -1682.64451055266     Delta-E=        0.000000000038 Rises=F Damp=F
 DIIS: error= 4.91D-08 at cycle  12 NSaved=  12.
 NSaved=12 IEnMin=11 EnMin= -1682.64451055269     IErMin=12 ErrMin= 4.91D-08
 ErrMax= 4.91D-08  0.00D+00 EMaxC= 1.00D-01 BMatC= 6.02D-12 BMatP= 1.73D-11
 IDIUse=1 WtCom= 1.00D+00 WtEn= 0.00D+00
 Coeff-Com: -0.268D-04 0.613D-03 0.114D-02 0.118D-02 0.208D-02-0.274D-02
 Coeff-Com: -0.364D-02-0.274D-01-0.623D-01 0.538D-01 0.412D+00 0.626D+00
 Coeff:     -0.268D-04 0.613D-03 0.114D-02 0.118D-02 0.208D-02-0.274D-02
 Coeff:     -0.364D-02-0.274D-01-0.623D-01 0.538D-01 0.412D+00 0.626D+00
 Gap=     0.058 Goal=   None    Shift=    0.000
 Gap=     0.115 Goal=   None    Shift=    0.000
 RMSDP=5.50D-09 MaxDP=3.97D-07 DE= 3.82D-11 OVMax= 9.56D-07

 SCF Done:  E(UB3LYP) =  -1682.64451055     A.U. after   17 cycles
            NFock= 17  Conv=0.55D-08     -V/T= 2.0081
 <Sx>= 0.0000 <Sy>= 0.0000 <Sz>= 0.5000 <S**2>= 0.7606 S= 0.5053
 <L.S>= 0.000000000000E+00
 KE= 1.669061822769D+03 PE=-1.009625400910D+04 EE= 3.670653652605D+03
 Annihilation of the first spin contaminant:
 S**2 before annihilation     0.7606,   after     0.7501
 Leave Link  502 at Thu Mar 14 10:08:44 2024, MaxMem= 32212254720 cpu:            1269.0 elap:              42.3
 (Enter /home/<user>/g16/l701.exe)
 ... and contract with generalized density number  0.
 Compute integral first derivatives.
 Leave Link  701 at Thu Mar 14 10:08:44 2024, MaxMem= 32212254720 cpu:               4.9 elap:               0.2
 (Enter /home/<user>/g16/l702.exe)
 L702 exits ... SP integral derivatives will be done elsewhere.
 Leave Link  702 at Thu Mar 14 10:08:44 2024, MaxMem= 32212254720 cpu:               0.7 elap:               0.0
 (Enter /home/<user>/g16/l703.exe)
 Integral derivatives from FoFJK, PRISM(SPDF).
 Compute integral first derivatives, UseDBF=F ICtDFT=           0.
 Calling FoFJK, ICntrl=      2127 FMM=F ISym2X=0 I1Cent= 0 IOpClX= 1 NMat=1 NMatS=1 NMatT=0.
 FoFJK:  IHMeth= 1 ICntrl=    2127 DoSepK=F KAlg= 0 I1Cent=           0 FoldK=F
 IRaf=         0 NMat=       1 IRICut=       1 DoRegI=T DoRafI=F ISym2E= 0 IDoP0=0 IntGTp=1.
 FoFCou: FMM=F IPFlag=           0 FMFlag=      100000 FMFlg1=         800
         NFxFlg=           0 DoJE=F BraDBF=F KetDBF=F FulRan=T
         wScrn=  0.000000 ICntrl=      2127 IOpCl=  1 I1Cent=           0 NGrid=           0
         NMat0=    1 NMatS0=      1 NMatT0=    0 NMatD0=    1 NMtDS0=    0 NMtDT0=    0
 Symmetry not used in FoFCou.
 Leave Link  703 at Thu Mar 14 10:08:50 2024, MaxMem= 32212254720 cpu:             197.9 elap:               6.6
 (Enter /home/<user>/g16/l716.exe)
 Dipole        =-8.41695494D-01-1.28361811D+00 8.38963272D-02
 ***** Axes restored to original set *****
 -------------------------------------------------------------------
 Center     Atomic                   Forces (Hartrees/Bohr)
 Number     Number              X              Y              Z
 -------------------------------------------------------------------
      1        6          -0.004854172    0.002708266    0.000241538
      2        6           0.007009510   -0.002076000   -0.000669300
      3        6          -0.003817710   -0.000983651   -0.000981346
      4        6           0.002202095    0.000067790   -0.000048857
      5        6          -0.003210001    0.000031933    0.000037828
      6        6           0.002163587   -0.000961633    0.000331778
      7        1          -0.000207540   -0.000715628    0.000409463
      8        1          -0.000628692    0.000161333    0.000318525
      9        1          -0.000025690    0.000027257   -0.000122189
     10        6           0.000182701   -0.000140887    0.000144734
     11        6          -0.001709868   -0.000936693    0.000296708
     12        6           0.001139879    0.000446388   -0.000174626
     13        6          -0.000521445    0.000369986   -0.000083609
     14        6           0.000519534   -0.000474127    0.000130393
     15        6          -0.000708160   -0.000519506    0.000136167
     16        6           0.002450710    0.001356171   -0.000377232
     17        1           0.000060562   -0.000086387    0.000029449
     18        1           0.000228953   -0.000015322   -0.000001713
     19        1           0.000062567    0.000144613   -0.000045478
     20        1           0.000022493    0.000051796   -0.000001675
     21        6          -0.000155460   -0.000164517   -0.000004876
     22        1           0.000082186    0.000071872   -0.000003171
     23        1           0.000059900    0.000092477    0.000056551
     24        1           0.000031745    0.000043515    0.000140946
     25        6          -0.000170201   -0.000136702    0.000057172
     26        1           0.000060148    0.000063295   -0.000117964
     27        1           0.000080101    0.000057213   -0.000034381
     28        1           0.000034466   -0.000048158   -0.000134582
     29        6          -0.005131674    0.007033962    0.002063641
     30        6          -0.001838298    0.000142345   -0.001459270
     31        6           0.007944156   -0.005295589    0.000595320
     32        6           0.001852015   -0.001216873   -0.001695366
     33        6          -0.008479795   -0.002887151    0.000624352
     34        1          -0.000157820    0.001389132   -0.000336091
     35        6           0.005021599    0.006004932    0.001753034
     36        1           0.000737204    0.001126602   -0.000213399
     37        7          -0.006401732   -0.004428715   -0.000978882
     38        7           0.005574819   -0.005589727   -0.001092234
     39       16           0.000958986    0.006613939    0.001561359
     40        6          -0.005298393   -0.000493562   -0.000163132
     41        6           0.003957205    0.001162940   -0.000003477
     42        6           0.002615643   -0.001119508   -0.001082709
     43        6          -0.001119581   -0.000414584    0.000341185
     44        1           0.000067153   -0.000525892    0.000328821
     45        6          -0.001312970    0.000197791    0.000176813
     46        1           0.000424641   -0.000167193    0.000188607
     47        6           0.001179981   -0.000112721    0.000033637
     48        1          -0.000037160    0.000092955   -0.000131584
     49        1          -0.000144046   -0.000090281    0.000048828
     50        6          -0.000126663    0.000346291    0.000485004
     51        1          -0.000111320   -0.000167146   -0.000250195
     52        1           0.000095988   -0.000061209   -0.000211854
     53        6          -0.001163628    0.000597792   -0.000040775
     54        1           0.000073477   -0.000075423    0.000234328
     55        1           0.000175177   -0.000192321    0.000005595
     56        7           0.000623591   -0.000996026   -0.000137411
     57        1          -0.000081069    0.000183707   -0.000245413
     58        1          -0.000279686    0.000506838    0.000071014
 -------------------------------------------------------------------
 Cartesian Forces:  Max     0.008479795 RMS     0.002018928
 Leave Link  716 at Thu Mar 14 10:08:51 2024, MaxMem= 32212254720 cpu:               0.7 elap:               0.0
 (Enter /home/<user>/g16/l103.exe)

 GradGradGradGradGradGradGradGradGradGradGradGradGradGradGradGradGradGrad
 Berny optimization.
 Using GEDIIS/GDIIS optimizer.
 FormGI is forming the generalized inverse of G from B-inverse, IUseBI=4.
 GSVD:  received Info=                   1 from GESDD.
 Internal  Forces:  Max     0.006061473 RMS     0.000970649
 Search for a local minimum.
 Step number   2 out of a maximum of  346
 All quantities printed in internal units (Hartrees-Bohrs-Radians)
 RMS Force = .97065D-03 SwitMx=.10000D-02 MixMth= 2
 Mixed Optimization -- En-DIIS/RFO-DIIS
 Update second derivatives using D2CorX and points    1    2
 DE= -5.32D-03 DEPred=-4.84D-03 R= 1.10D+00
 TightC=F SS=  1.41D+00  RLast= 3.72D-01 DXNew= 5.0454D-01 1.1170D+00
 Trust test= 1.10D+00 RLast= 3.72D-01 DXMaxT set to 5.05D-01
 ITU=  1  0
 Use linear search instead of GDIIS.
     Eigenvalues ---    0.00230   0.00230   0.00250   0.00611   0.00753
     Eigenvalues ---    0.00809   0.01023   0.01060   0.01255   0.01455
     Eigenvalues ---    0.01464   0.01608   0.01615   0.01638   0.01642
     Eigenvalues ---    0.01669   0.01692   0.01709   0.01730   0.01756
     Eigenvalues ---    0.01882   0.01903   0.02007   0.02027   0.02038
     Eigenvalues ---    0.02070   0.02083   0.02087   0.02090   0.02094
     Eigenvalues ---    0.02112   0.02113   0.02119   0.02121   0.02126
     Eigenvalues ---    0.02134   0.02143   0.02145   0.02147   0.02155
     Eigenvalues ---    0.02159   0.02161   0.02176   0.02294   0.04014
     Eigenvalues ---    0.04207   0.04435   0.04535   0.05432   0.05442
     Eigenvalues ---    0.05445   0.05495   0.05496   0.05534   0.05935
     Eigenvalues ---    0.08006   0.09089   0.09321   0.11632   0.12694
     Eigenvalues ---    0.12854   0.15864   0.15982   0.15995   0.15997
     Eigenvalues ---    0.15999   0.16000   0.16000   0.16000   0.16000
     Eigenvalues ---    0.16000   0.16000   0.16000   0.16000   0.16000
     Eigenvalues ---    0.16000   0.16000   0.16000   0.16000   0.16000
     Eigenvalues ---    0.16000   0.16176   0.18942   0.21204   0.21940
     Eigenvalues ---    0.21966   0.22003   0.22125   0.22449   0.22459
     Eigenvalues ---    0.22679   0.23012   0.23746   0.24332   0.24526
     Eigenvalues ---    0.24722   0.24971   0.24979   0.24988   0.24991
     Eigenvalues ---    0.24993   0.24998   0.24998   0.25000   0.26887
     Eigenvalues ---    0.28054   0.28078   0.28511   0.28604   0.29014
     Eigenvalues ---    0.31201   0.32947   0.33131   0.33791   0.34027
     Eigenvalues ---    0.34090   0.34100   0.34104   0.34112   0.34134
     Eigenvalues ---    0.34276   0.34288   0.34551   0.34565   0.34837
     Eigenvalues ---    0.35035   0.35053   0.35082   0.35146   0.35151
     Eigenvalues ---    0.35161   0.35184   0.35194   0.35222   0.35283
     Eigenvalues ---    0.35380   0.35509   0.35587   0.36146   0.36301
     Eigenvalues ---    0.38051   0.38246   0.39278   0.40597   0.41530
     Eigenvalues ---    0.41595   0.41667   0.41731   0.42097   0.42660
     Eigenvalues ---    0.43540   0.44364   0.44523   0.44541   0.44942
     Eigenvalues ---    0.44959   0.45012   0.45833   0.45955   0.46071
     Eigenvalues ---    0.46104   0.46751   0.46933   0.47155   0.47358
     Eigenvalues ---    0.48743   0.54529   0.57948
 RFO step:  Lambda=-1.52818076D-03 EMin= 2.29999489D-03
 Quartic linear search produced a step of  0.33185.
 Iteration  1 RMS(Cart)=  0.09147268 RMS(Int)=  0.00119420
 Iteration  2 RMS(Cart)=  0.00457331 RMS(Int)=  0.00001413
 Iteration  3 RMS(Cart)=  0.00000874 RMS(Int)=  0.00001403
 Iteration  4 RMS(Cart)=  0.00000000 RMS(Int)=  0.00001403
 ITry= 1 IFail=0 DXMaxC= 5.87D-01 DCOld= 1.00D+10 DXMaxT= 5.05D-01 DXLimC= 3.00D+00 Rises=F
 Variable       Old X    -DE/DX   Delta X   Delta X   Delta X     New X
                                 (Linear)    (Quad)   (Total)
    R1        2.67528   0.00311   0.00405   0.00722   0.01128   2.68656
    R2        2.63022  -0.00128  -0.00085  -0.00305  -0.00390   2.62633
    R3        2.04692  -0.00078  -0.00003  -0.00285  -0.00288   2.04404
    R4        2.67948   0.00248   0.00412   0.00531   0.00944   2.68893
    R5        2.77684  -0.00053  -0.00649   0.00187  -0.00462   2.77222
    R6        2.61934  -0.00164  -0.00008  -0.00449  -0.00457   2.61476
    R7        2.05451  -0.00034   0.00008  -0.00131  -0.00122   2.05328
    R8        2.66545  -0.00002   0.00107  -0.00135  -0.00031   2.66514
    R9        2.89298  -0.00004   0.00112  -0.00071   0.00041   2.89339
   R10        2.64681  -0.00011   0.00284  -0.00231   0.00052   2.64733
   R11        2.76406  -0.00159  -0.00242  -0.00467  -0.00709   2.75697
   R12        2.05693   0.00006   0.00091  -0.00031   0.00060   2.05753
   R13        2.89064   0.00005   0.00048   0.00047   0.00095   2.89159
   R14        2.91853   0.00017  -0.00059   0.00113   0.00054   2.91907
   R15        2.91799   0.00020  -0.00064   0.00130   0.00066   2.91865
   R16        2.62563  -0.00112  -0.00055  -0.00276  -0.00330   2.62232
   R17        2.67088   0.00079   0.00222   0.00122   0.00344   2.67433
   R18        2.65204   0.00009   0.00205  -0.00098   0.00107   2.65310
   R19        2.05717   0.00008   0.00059  -0.00006   0.00053   2.05770
   R20        2.64373  -0.00035   0.00001  -0.00109  -0.00108   2.64265
   R21        2.05574  -0.00021   0.00068  -0.00119  -0.00051   2.05523
   R22        2.64165  -0.00042   0.00093  -0.00178  -0.00085   2.64080
   R23        2.05613   0.00005   0.00080  -0.00029   0.00051   2.05664
   R24        2.64639  -0.00009   0.00230  -0.00159   0.00071   2.64710
   R25        2.05489   0.00005   0.00019   0.00008   0.00028   2.05516
   R26        2.07462  -0.00011   0.00102  -0.00102  -0.00000   2.07462
   R27        2.07184   0.00002   0.00007   0.00003   0.00010   2.07194
   R28        2.06836   0.00012  -0.00003   0.00048   0.00045   2.06882
   R29        2.07201   0.00001   0.00008   0.00000   0.00008   2.07209
   R30        2.07454  -0.00010   0.00100  -0.00099   0.00001   2.07455
   R31        2.06864   0.00011  -0.00001   0.00043   0.00042   2.06906
   R32        2.72143  -0.00070  -0.00007  -0.00202  -0.00209   2.71934
   R33        2.65615   0.00422   0.01485   0.00258   0.01744   2.67359
   R34        2.76763   0.00483   0.00305   0.01483   0.01787   2.78550
   R35        2.53856  -0.00129   0.00321  -0.00503  -0.00183   2.53674
   R36        2.64244  -0.00497  -0.01427  -0.00721  -0.02147   2.62097
   R37        2.05611  -0.00093   0.00132  -0.00423  -0.00291   2.05320
   R38        2.71704  -0.00188  -0.00112  -0.00553  -0.00666   2.71038
   R39        2.54045  -0.00093   0.00373  -0.00452  -0.00079   2.53967
   R40        2.65311   0.00335   0.01415   0.00046   0.01461   2.66772
   R41        2.05641  -0.00070   0.00140  -0.00345  -0.00205   2.05436
   R42        2.78565  -0.00024  -0.00385   0.00138  -0.00247   2.78318
   R43        3.14442   0.00606   0.01386   0.01042   0.02427   3.16870
   R44        3.14449   0.00585   0.01386   0.00980   0.02366   3.16815
   R45        2.66420   0.00242   0.00248   0.00592   0.00841   2.67261
   R46        2.66642   0.00187   0.00285   0.00404   0.00690   2.67331
   R47        2.63231  -0.00089   0.00037  -0.00267  -0.00229   2.63002
   R48        2.04740  -0.00058  -0.00006  -0.00209  -0.00215   2.04525
   R49        2.63309  -0.00128   0.00100  -0.00422  -0.00322   2.62987
   R50        2.05310  -0.00009  -0.00002  -0.00031  -0.00033   2.05277
   R51        2.65092  -0.00027   0.00100  -0.00158  -0.00059   2.65033
   R52        2.05968   0.00008   0.00115  -0.00038   0.00077   2.06046
   R53        2.64869  -0.00018   0.00021  -0.00093  -0.00072   2.64796
   R54        2.05944   0.00004   0.00116  -0.00053   0.00063   2.06008
   R55        2.86130  -0.00081   0.00152  -0.00430  -0.00278   2.85852
   R56        2.07301   0.00019   0.00064   0.00037   0.00101   2.07402
   R57        2.07960   0.00016   0.00088   0.00008   0.00097   2.08056
   R58        2.90649  -0.00038  -0.00058  -0.00139  -0.00197   2.90452
   R59        2.08725  -0.00003  -0.00034   0.00009  -0.00025   2.08700
   R60        2.07266   0.00004  -0.00006   0.00020   0.00014   2.07280
   R61        2.77983   0.00033   0.00273  -0.00043   0.00230   2.78213
   R62        1.92755   0.00023   0.00011   0.00063   0.00074   1.92829
   R63        1.92653   0.00003   0.00040  -0.00014   0.00025   1.92679
    A1        2.12409   0.00087   0.00240   0.00402   0.00643   2.13052
    A2        2.06929  -0.00071  -0.00394  -0.00256  -0.00651   2.06278
    A3        2.08978  -0.00016   0.00153  -0.00146   0.00005   2.08983
    A4        2.05604  -0.00295  -0.00469  -0.01179  -0.01645   2.03959
    A5        2.12935   0.00273   0.00186   0.01282   0.01466   2.14400
    A6        2.09742   0.00022   0.00281  -0.00092   0.00187   2.09930
    A7        2.10500   0.00126   0.00199   0.00629   0.00829   2.11329
    A8        2.07461  -0.00008  -0.00274   0.00232  -0.00044   2.07417
    A9        2.10334  -0.00118   0.00081  -0.00887  -0.00809   2.09525
   A10        2.10650   0.00084   0.00169   0.00237   0.00405   2.11055
   A11        2.24556  -0.00071  -0.00026  -0.00277  -0.00302   2.24254
   A12        1.93106  -0.00013  -0.00144   0.00039  -0.00105   1.93001
   A13        2.08693  -0.00098  -0.00266  -0.00469  -0.00737   2.07956
   A14        1.89749   0.00039   0.00070   0.00145   0.00215   1.89964
   A15        2.29872   0.00058   0.00196   0.00322   0.00520   2.30392
   A16        2.08772   0.00095   0.00125   0.00378   0.00502   2.09273
   A17        2.08909  -0.00048  -0.00018  -0.00220  -0.00237   2.08672
   A18        2.10638  -0.00047  -0.00107  -0.00158  -0.00265   2.10373
   A19        1.76950  -0.00004   0.00151  -0.00144   0.00007   1.76957
   A20        1.94511  -0.00002   0.00038  -0.00076  -0.00038   1.94473
   A21        1.94500  -0.00004   0.00006  -0.00100  -0.00094   1.94406
   A22        1.94165   0.00002  -0.00050   0.00082   0.00032   1.94197
   A23        1.94329  -0.00001  -0.00034   0.00019  -0.00015   1.94314
   A24        1.91589   0.00008  -0.00094   0.00192   0.00098   1.91686
   A25        2.25107   0.00002   0.00077  -0.00083  -0.00006   2.25101
   A26        1.92978  -0.00033  -0.00220   0.00030  -0.00190   1.92788
   A27        2.10233   0.00030   0.00143   0.00053   0.00196   2.10429
   A28        2.08477   0.00010   0.00153  -0.00030   0.00122   2.08599
   A29        2.10664  -0.00013  -0.00102  -0.00033  -0.00135   2.10528
   A30        2.09178   0.00003  -0.00050   0.00063   0.00013   2.09191
   A31        2.09679  -0.00021  -0.00237   0.00003  -0.00235   2.09445
   A32        2.09346   0.00001   0.00132  -0.00085   0.00047   2.09394
   A33        2.09293   0.00020   0.00106   0.00081   0.00187   2.09480
   A34        2.10780   0.00023   0.00116   0.00045   0.00162   2.10941
   A35        2.08691   0.00005  -0.00082   0.00123   0.00041   2.08732
   A36        2.08848  -0.00027  -0.00034  -0.00169  -0.00203   2.08645
   A37        2.07954   0.00016   0.00160  -0.00001   0.00159   2.08113
   A38        2.09959  -0.00007  -0.00006  -0.00034  -0.00041   2.09918
   A39        2.10405  -0.00009  -0.00153   0.00035  -0.00118   2.10287
   A40        1.89692   0.00011   0.00143  -0.00071   0.00072   1.89764
   A41        2.29113   0.00048   0.00191   0.00141   0.00333   2.29446
   A42        2.09514  -0.00059  -0.00334  -0.00071  -0.00405   2.09109
   A43        1.93670   0.00002   0.00174  -0.00067   0.00107   1.93776
   A44        1.92991   0.00000  -0.00077   0.00043  -0.00035   1.92956
   A45        1.93450   0.00010  -0.00153   0.00163   0.00009   1.93459
   A46        1.88507   0.00001   0.00090  -0.00022   0.00068   1.88575
   A47        1.88968  -0.00005   0.00035  -0.00045  -0.00010   1.88958
   A48        1.88627  -0.00010  -0.00065  -0.00078  -0.00144   1.88483
   A49        1.92948   0.00001  -0.00079   0.00042  -0.00037   1.92911
   A50        1.93709   0.00003   0.00169  -0.00057   0.00112   1.93821
   A51        1.93491   0.00010  -0.00151   0.00164   0.00012   1.93503
   A52        1.88469   0.00002   0.00102  -0.00019   0.00083   1.88552
   A53        1.88670  -0.00011  -0.00071  -0.00096  -0.00168   1.88502
   A54        1.88923  -0.00005   0.00034  -0.00041  -0.00007   1.88916
   A55        2.13985   0.00434  -0.00329   0.02480   0.02152   2.16137
   A56        2.11412  -0.00226  -0.00357  -0.00963  -0.01320   2.10092
   A57        2.02919  -0.00208   0.00687  -0.01517  -0.00831   2.02088
   A58        2.10530   0.00030  -0.00346   0.00473   0.00122   2.10652
   A59        2.19820  -0.00137   0.00221  -0.00796  -0.00576   2.19244
   A60        1.97956   0.00107   0.00130   0.00303   0.00432   1.98389
   A61        2.14705   0.00148  -0.00385   0.00991   0.00603   2.15308
   A62        2.08144  -0.00163   0.00322  -0.01330  -0.01011   2.07132
   A63        2.05383   0.00015   0.00055   0.00295   0.00347   2.05729
   A64        2.10555   0.00046  -0.00351   0.00517   0.00161   2.10716
   A65        1.98024   0.00143   0.00147   0.00509   0.00654   1.98678
   A66        2.19731  -0.00189   0.00210  -0.01045  -0.00836   2.18895
   A67        2.14851   0.00128  -0.00320   0.00793   0.00472   2.15322
   A68        2.05301   0.00045   0.00018   0.00569   0.00586   2.05887
   A69        2.08084  -0.00173   0.00294  -0.01386  -0.01093   2.06991
   A70        2.03064  -0.00143   0.00712  -0.01274  -0.00564   2.02500
   A71        2.13734   0.00374  -0.00362   0.02227   0.01866   2.15600
   A72        2.11520  -0.00231  -0.00349  -0.00954  -0.01302   2.10217
   A73        1.86767  -0.00128   0.00097  -0.00701  -0.00605   1.86162
   A74        1.86654  -0.00157   0.00067  -0.00821  -0.00755   1.85899
   A75        1.73075   0.00035  -0.00441   0.00715   0.00273   1.73349
   A76        2.13624   0.00225   0.00154   0.01054   0.01207   2.14831
   A77        2.10652  -0.00014   0.00322  -0.00304   0.00017   2.10668
   A78        2.04008  -0.00211  -0.00474  -0.00751  -0.01224   2.02785
   A79        2.11442   0.00051   0.00221   0.00212   0.00433   2.11875
   A80        2.07599  -0.00042  -0.00388  -0.00065  -0.00455   2.07144
   A81        2.09276  -0.00009   0.00167  -0.00146   0.00019   2.09295
   A82        2.12258   0.00103   0.00263   0.00457   0.00720   2.12978
   A83        2.07693  -0.00005  -0.00292   0.00246  -0.00047   2.07647
   A84        2.08355  -0.00098   0.00034  -0.00717  -0.00684   2.07671
   A85        2.12502   0.00055   0.00126   0.00192   0.00317   2.12819
   A86        2.07880  -0.00038  -0.00009  -0.00214  -0.00223   2.07657
   A87        2.07934  -0.00017  -0.00116   0.00022  -0.00094   2.07840
   A88        2.11648   0.00031   0.00064   0.00045   0.00108   2.11756
   A89        2.08485  -0.00033   0.00028  -0.00203  -0.00175   2.08310
   A90        2.08181   0.00002  -0.00093   0.00160   0.00066   2.08247
   A91        2.04771  -0.00029  -0.00201  -0.00151  -0.00354   2.04417
   A92        2.11907   0.00001   0.00062   0.00025   0.00087   2.11995
   A93        2.11558   0.00028   0.00133   0.00124   0.00258   2.11816
   A94        1.93750   0.00001   0.00165  -0.00153   0.00013   1.93763
   A95        1.91589   0.00009   0.00043  -0.00049  -0.00006   1.91583
   A96        1.97094  -0.00041   0.00125  -0.00308  -0.00183   1.96911
   A97        1.86159  -0.00015  -0.00061  -0.00094  -0.00156   1.86003
   A98        1.88203   0.00032  -0.00090   0.00386   0.00296   1.88499
   A99        1.89200   0.00016  -0.00201   0.00242   0.00041   1.89241
   A100       1.89457   0.00022  -0.00167   0.00290   0.00124   1.89580
   A101       1.89922   0.00025  -0.00045   0.00266   0.00220   1.90142
   A102       1.93676  -0.00042   0.00434  -0.00549  -0.00116   1.93561
   A103       1.85740  -0.00006  -0.00025   0.00104   0.00077   1.85818
   A104       1.98922   0.00004  -0.00239   0.00065  -0.00174   1.98747
   A105       1.88334   0.00000   0.00032  -0.00137  -0.00106   1.88228
   A106       1.90439  -0.00028  -0.00238  -0.00243  -0.00484   1.89955
   A107       1.91351  -0.00071  -0.00047  -0.00705  -0.00755   1.90596
   A108       1.84407   0.00020  -0.00125  -0.00097  -0.00228   1.84179
    D1       -0.01420  -0.00005  -0.00092  -0.00229  -0.00319  -0.01739
    D2        3.09800  -0.00001  -0.00176   0.00179   0.00004   3.09804
    D3        3.11953  -0.00010  -0.00463  -0.00234  -0.00692   3.11261
    D4       -0.05145  -0.00006  -0.00547   0.00174  -0.00370  -0.05515
    D5        0.00531   0.00006  -0.00027   0.00327   0.00302   0.00833
    D6       -3.13302   0.00005   0.00033   0.00217   0.00250  -3.13052
    D7       -3.12834   0.00012   0.00347   0.00333   0.00684  -3.12150
    D8        0.01652   0.00010   0.00407   0.00223   0.00632   0.02284
    D9        0.01449   0.00002   0.00189  -0.00058   0.00130   0.01579
   D10       -3.10390   0.00019  -0.00073   0.01200   0.01127  -3.09263
   D11       -3.09828  -0.00007   0.00273  -0.00482  -0.00207  -3.10035
   D12        0.06652   0.00011   0.00011   0.00775   0.00790   0.07442
   D13        0.51799  -0.00098  -0.04434  -0.05751  -0.10185   0.41614
   D14       -2.63057  -0.00098  -0.04358  -0.05829  -0.10189  -2.73246
   D15       -2.65367  -0.00099  -0.04531  -0.05351  -0.09881  -2.75248
   D16        0.48095  -0.00099  -0.04456  -0.05429  -0.09885   0.38210
   D17       -0.00610  -0.00000  -0.00169   0.00244   0.00073  -0.00538
   D18       -3.13417   0.00002  -0.00107   0.00379   0.00270  -3.13147
   D19        3.11190  -0.00017   0.00091  -0.01019  -0.00925   3.10265
   D20       -0.01617  -0.00014   0.00153  -0.00883  -0.00728  -0.02344
   D21       -0.00318  -0.00002   0.00043  -0.00160  -0.00116  -0.00434
   D22       -3.13639   0.00001   0.00062   0.00010   0.00073  -3.13566
   D23        3.12712  -0.00004  -0.00009  -0.00275  -0.00284   3.12429
   D24       -0.00608  -0.00002   0.00010  -0.00105  -0.00095  -0.00703
   D25        3.13598   0.00000  -0.00067  -0.00016  -0.00082   3.13516
   D26        1.06875   0.00001  -0.00109   0.00003  -0.00106   1.06769
   D27       -1.07813  -0.00005  -0.00019  -0.00119  -0.00137  -1.07950
   D28        0.00681   0.00002  -0.00011   0.00107   0.00096   0.00777
   D29       -2.06041   0.00003  -0.00053   0.00125   0.00071  -2.05970
   D30        2.07590  -0.00003   0.00037   0.00004   0.00040   2.07630
   D31        0.00359  -0.00001   0.00055  -0.00124  -0.00069   0.00290
   D32       -3.14130  -0.00000  -0.00005  -0.00013  -0.00017  -3.14147
   D33        3.13454  -0.00005   0.00029  -0.00343  -0.00314   3.13141
   D34       -0.01034  -0.00004  -0.00031  -0.00231  -0.00262  -0.01296
   D35        0.00256   0.00001  -0.00004   0.00055   0.00051   0.00307
   D36       -3.13896   0.00000  -0.00009   0.00025   0.00016  -3.13880
   D37       -3.12926   0.00005   0.00021   0.00259   0.00282  -3.12645
   D38        0.01240   0.00004   0.00017   0.00229   0.00247   0.01487
   D39        3.13797  -0.00001   0.00026  -0.00105  -0.00079   3.13718
   D40       -0.00521  -0.00002   0.00008  -0.00072  -0.00064  -0.00585
   D41       -1.07550  -0.00005   0.00132  -0.00236  -0.00105  -1.07655
   D42        2.06451  -0.00005   0.00114  -0.00204  -0.00090   2.06361
   D43        1.06765   0.00006  -0.00050   0.00083   0.00033   1.06799
   D44       -2.07552   0.00006  -0.00068   0.00116   0.00048  -2.07504
   D45        3.07887  -0.00000   0.00108   0.00421   0.00530   3.08417
   D46       -1.11289   0.00003   0.00284   0.00378   0.00662  -1.10627
   D47        0.97861  -0.00002   0.00050   0.00414   0.00465   0.98326
   D48        1.11795   0.00005  -0.00069   0.00594   0.00525   1.12319
   D49       -3.07381   0.00008   0.00106   0.00551   0.00657  -3.06725
   D50       -0.98232   0.00003  -0.00128   0.00587   0.00460  -0.97772
   D51       -1.04089  -0.00001   0.00075   0.00377   0.00453  -1.03636
   D52        1.05054   0.00003   0.00251   0.00334   0.00585   1.05638
   D53       -3.14115  -0.00003   0.00017   0.00370   0.00388  -3.13727
   D54        1.11293  -0.00003  -0.00314  -0.00445  -0.00758   1.10534
   D55       -3.07933   0.00001  -0.00128  -0.00478  -0.00606  -3.08538
   D56       -0.97909   0.00004  -0.00073  -0.00459  -0.00532  -0.98441
   D57        3.07475  -0.00011  -0.00145  -0.00669  -0.00814   3.06661
   D58       -1.11750  -0.00007   0.00041  -0.00702  -0.00661  -1.12411
   D59        0.98273  -0.00004   0.00096  -0.00683  -0.00587   0.97686
   D60       -1.05056  -0.00004  -0.00299  -0.00415  -0.00714  -1.05770
   D61        1.04037   0.00000  -0.00113  -0.00448  -0.00562   1.03476
   D62        3.14061   0.00003  -0.00058  -0.00429  -0.00488   3.13573
   D63        3.14071  -0.00001   0.00024  -0.00054  -0.00031   3.14040
   D64       -0.00098  -0.00000  -0.00001   0.00012   0.00011  -0.00087
   D65        0.00084  -0.00001   0.00043  -0.00090  -0.00046   0.00038
   D66       -3.14085  -0.00000   0.00019  -0.00024  -0.00005  -3.14090
   D67        0.00196   0.00001  -0.00003   0.00016   0.00013   0.00209
   D68       -3.13969   0.00001   0.00001   0.00042   0.00043  -3.13926
   D69       -3.14106   0.00000  -0.00019   0.00045   0.00026  -3.14080
   D70        0.00047   0.00001  -0.00015   0.00071   0.00056   0.00103
   D71       -0.00121   0.00000  -0.00039   0.00053   0.00014  -0.00106
   D72        3.14095   0.00000  -0.00031   0.00044   0.00013   3.14108
   D73        3.14048  -0.00001  -0.00014  -0.00012  -0.00027   3.14021
   D74       -0.00055  -0.00001  -0.00006  -0.00022  -0.00028  -0.00083
   D75        0.00027   0.00000   0.00005   0.00003   0.00008   0.00035
   D76       -3.14074   0.00000   0.00020  -0.00017   0.00003  -3.14071
   D77        3.14130   0.00000  -0.00003   0.00012   0.00009   3.14139
   D78        0.00029   0.00000   0.00012  -0.00007   0.00004   0.00033
   D79        0.00104   0.00000   0.00023  -0.00022   0.00001   0.00106
   D80       -3.14060   0.00000   0.00026   0.00002   0.00028  -3.14032
   D81       -3.14114   0.00000   0.00009  -0.00002   0.00007  -3.14107
   D82        0.00041   0.00001   0.00011   0.00022   0.00033   0.00074
   D83        3.14011   0.00000  -0.00013   0.00018   0.00005   3.14016
   D84       -0.00141  -0.00001  -0.00018  -0.00015  -0.00033  -0.00173
   D85       -0.00143  -0.00000  -0.00016  -0.00006  -0.00021  -0.00165
   D86        3.14024  -0.00001  -0.00021  -0.00039  -0.00059   3.13964
   D87        3.12410  -0.00020  -0.00246  -0.00947  -0.01192   3.11218
   D88        0.00056  -0.00003  -0.00546   0.00513  -0.00033   0.00024
   D89       -0.01084  -0.00020  -0.00314  -0.00874  -0.01186  -0.02270
   D90       -3.13437  -0.00002  -0.00613   0.00586  -0.00026  -3.13464
   D91       -3.12414   0.00018   0.00255   0.00908   0.01164  -3.11249
   D92        0.06331   0.00042   0.00488   0.02086   0.02571   0.08902
   D93        0.01091   0.00020   0.00321   0.00850   0.01173   0.02263
   D94       -3.08484   0.00044   0.00554   0.02029   0.02579  -3.05904
   D95       -0.00065   0.00000  -0.00019   0.00055   0.00037  -0.00029
   D96       -3.12911   0.00020  -0.00365   0.01548   0.01191  -3.11719
   D97        3.12501  -0.00018   0.00248  -0.01245  -0.01002   3.11499
   D98       -0.00344   0.00002  -0.00098   0.00249   0.00152  -0.00192
   D99        3.12477  -0.00012   0.00188  -0.00938  -0.00750   3.11727
   D100       0.00011   0.00005  -0.00086   0.00429   0.00341   0.00352
   D101       0.00114   0.00001   0.00021   0.00048   0.00068   0.00182
   D102      -3.09630   0.00021   0.00241   0.00723   0.00968  -3.08662
   D103       3.09756  -0.00027  -0.00203  -0.01154  -0.01362   3.08394
   D104       0.00012  -0.00007   0.00017  -0.00479  -0.00462  -0.00450
   D105       0.01230   0.00020   0.00351   0.00817   0.01167   0.02398
   D106      -3.12706   0.00023   0.00174   0.01232   0.01406  -3.11300
   D107       3.13901   0.00000   0.00741  -0.00860  -0.00115   3.13786
   D108      -0.00035   0.00003   0.00564  -0.00445   0.00124   0.00088
   D109       0.00489  -0.00009   0.00228  -0.00794  -0.00565  -0.00075
   D110      -3.12274   0.00010  -0.00130   0.00778   0.00643  -3.11631
   D111      -0.01285  -0.00022  -0.00361  -0.00893  -0.01257  -0.02542
   D112       3.12655  -0.00024  -0.00187  -0.01298  -0.01483   3.11172
   D113       3.08392  -0.00036  -0.00590  -0.01530  -0.02121   3.06271
   D114      -0.05987  -0.00039  -0.00416  -0.01935  -0.02347  -0.08334
   D115      -0.54255   0.00086   0.03559   0.05566   0.09125  -0.45130
   D116       2.62828   0.00090   0.03534   0.05621   0.09154   2.71982
   D117       2.60138   0.00089   0.03370   0.06001   0.09373   2.69510
   D118      -0.51098   0.00093   0.03345   0.06056   0.09402  -0.41697
   D119       0.00243  -0.00010   0.00196  -0.00795  -0.00599  -0.00355
   D120      -0.00434   0.00011  -0.00250   0.00934   0.00683   0.00249
   D121      -3.10189   0.00002  -0.00010   0.00083   0.00073  -3.10115
   D122       0.04624   0.00007   0.00472  -0.00019   0.00451   0.05074
   D123       0.01152   0.00001   0.00027   0.00036   0.00063   0.01215
   D124      -3.12354   0.00006   0.00509  -0.00065   0.00441  -3.11914
   D125       3.09979   0.00006  -0.00178   0.00328   0.00150   3.10129
   D126      -0.05858  -0.00006   0.00117  -0.00614  -0.00499  -0.06357
   D127      -0.01412   0.00002  -0.00211   0.00350   0.00139  -0.01273
   D128       3.11069  -0.00009   0.00083  -0.00592  -0.00510   3.10559
   D129      -0.00400  -0.00004   0.00106  -0.00261  -0.00155  -0.00555
   D130       3.13102  -0.00004   0.00135  -0.00318  -0.00182   3.12920
   D131       3.13100  -0.00009  -0.00379  -0.00157  -0.00539   3.12561
   D132      -0.01716  -0.00009  -0.00349  -0.00214  -0.00566  -0.02282
   D133       0.00921  -0.00003   0.00269  -0.00529  -0.00259   0.00662
   D134       3.13979  -0.00004   0.00096  -0.00372  -0.00275   3.13703
   D135      -3.11554   0.00008  -0.00022   0.00408   0.00384  -3.11170
   D136       0.01504   0.00007  -0.00195   0.00565   0.00368   0.01872
   D137      -0.00148   0.00001  -0.00059   0.00087   0.00028  -0.00120
   D138      -3.10004   0.00003   0.00115   0.00126   0.00241  -3.09763
   D139      -3.13650   0.00001  -0.00089   0.00145   0.00055  -3.13595
   D140       0.04813   0.00003   0.00085   0.00184   0.00268   0.05081
   D141      -0.00108   0.00003  -0.00126   0.00303   0.00177   0.00069
   D142       3.09758   0.00000  -0.00301   0.00261  -0.00040   3.09717
   D143      -3.13167   0.00004   0.00046   0.00148   0.00194  -3.12973
   D144      -0.03302   0.00001  -0.00129   0.00107  -0.00023  -0.03325
   D145      -2.62119   0.00006  -0.00083   0.00096   0.00013  -2.62106
   D146      -0.56738  -0.00005  -0.00032  -0.00142  -0.00175  -0.56913
   D147       1.54595  -0.00007  -0.00174  -0.00075  -0.00250   1.54345
   D148       0.56511   0.00010   0.00105   0.00144   0.00250   0.56761
   D149       2.61891  -0.00002   0.00156  -0.00095   0.00062   2.61953
   D150      -1.55094  -0.00003   0.00015  -0.00028  -0.00013  -1.55107
   D151      -0.97023  -0.00003   0.00376   0.00861   0.01237  -0.95786
   D152       1.04437   0.00015   0.00232   0.01282   0.01513   1.05950
   D153       3.11408   0.00006   0.00499   0.00951   0.01451   3.12859
   D154      -3.11743  -0.00000   0.00148   0.00982   0.01131  -3.10612
   D155      -1.10282   0.00018   0.00004   0.01402   0.01407  -1.08875
   D156       0.96689   0.00009   0.00272   0.01072   0.01344   0.98034
   D157       1.15660  -0.00008   0.00371   0.00768   0.01139   1.16799
   D158      -3.11198   0.00011   0.00226   0.01188   0.01415  -3.09783
   D159      -1.04227   0.00001   0.00494   0.00858   0.01352  -1.02874
   D160       1.17988  -0.00002  -0.00316  -0.01182  -0.01500   1.16488
   D161      -3.09143  -0.00033  -0.00627  -0.01822  -0.02447  -3.11591
   D162      -0.96526  -0.00001  -0.00256  -0.01186  -0.01444  -0.97970
   D163       1.04661  -0.00031  -0.00567  -0.01827  -0.02392   1.02269
   D164      -3.02403   0.00004  -0.00101  -0.01262  -0.01365  -3.03768
   D165      -1.01216  -0.00027  -0.00412  -0.01903  -0.02312  -1.03528
         Item               Value     Threshold  Converged?
 Maximum Force            0.006061     0.000450     NO 
 RMS     Force            0.000971     0.000300     NO 
 Maximum Displacement     0.586754     0.001800     NO 
 RMS     Displacement     0.091721     0.001200     NO 
 Predicted change in Energy=-1.150668D-03
 Lowest energy point so far.  Saving SCF results.
 GradGradGradGradGradGradGradGradGradGradGradGradGradGradGradGradGradGrad

 Leave Link  103 at Thu Mar 14 10:08:51 2024, MaxMem= 32212254720 cpu:               2.7 elap:               0.1
 (Enter /home/<user>/g16/l202.exe)
 Stoichiometry    C29H25N3S(1-,2)
 Framework group  C1[X(C29H25N3S)]
 Deg. of freedom   168
 Full point group                 C1      NOp   1
 RotChk:  IX=0 Diff= 5.97D-02
 Largest Abelian subgroup         C1      NOp   1
 Largest concise Abelian subgroup C1      NOp   1
                         Standard orientation:                         
 ---------------------------------------------------------------------
 Center     Atomic      Atomic             Coordinates (Angstroms)
 Number     Number       Type             X           Y           Z
 ---------------------------------------------------------------------
      1          6           0       -2.483624    1.672728   -0.359703
      2          6           0       -1.787237    0.446267   -0.180871
      3          6           0       -2.578426   -0.717348    0.030598
      4          6           0       -3.960396   -0.649445    0.040410
      5          6           0       -4.627142    0.578216   -0.152808
      6          6           0       -3.871708    1.741122   -0.351585
      7          1           0       -1.902746    2.575128   -0.494757
      8          1           0       -2.078871   -1.664085    0.216949
      9          1           0       -4.363110    2.700873   -0.502856
     10          6           0       -4.968456   -1.780391    0.261965
     11          6           0       -6.296020   -1.026873    0.156195
     12          6           0       -7.589351   -1.517788    0.265444
     13          6           0       -8.676240   -0.638732    0.134894
     14          6           0       -8.451331    0.720980   -0.102186
     15          6           0       -7.152270    1.224061   -0.212745
     16          6           0       -6.066270    0.348638   -0.084539
     17          1           0       -7.767177   -2.575860    0.451304
     18          1           0       -9.692986   -1.015603    0.218728
     19          1           0       -9.298740    1.396622   -0.201460
     20          1           0       -6.988329    2.283440   -0.396033
     21          6           0       -4.798356   -2.422727    1.656449
     22          1           0       -5.561076   -3.192800    1.831093
     23          1           0       -3.812684   -2.894641    1.745284
     24          1           0       -4.884779   -1.668978    2.445699
     25          6           0       -4.848689   -2.863960   -0.832090
     26          1           0       -3.863318   -3.343318   -0.792315
     27          1           0       -5.611070   -3.642877   -0.700780
     28          1           0       -4.972720   -2.427514   -1.828551
     29          6           0       -0.324850    0.345856   -0.239370
     30          6           0        0.564753    1.448629    0.012138
     31          6           0        0.295721   -0.887290   -0.549051
     32          6           0        2.026196    1.261026   -0.029442
     33          6           0        1.671290   -1.060304   -0.588212
     34          1           0       -0.330482   -1.731710   -0.823490
     35          6           0        2.592154   -0.024205   -0.321002
     36          1           0        2.054468   -2.032737   -0.887186
     37          7           0        0.190659    2.698217    0.329275
     38          7           0        2.724817    2.373350    0.254853
     39         16           0        1.599416    3.579384    0.554257
     40          6           0        4.040783   -0.288917   -0.344117
     41          6           0        5.004376    0.711649   -0.609739
     42          6           0        4.539863   -1.595249   -0.130412
     43          6           0        6.362317    0.412743   -0.669784
     44          1           0        4.668661    1.729746   -0.758554
     45          6           0        5.899544   -1.885251   -0.192906
     46          1           0        3.842181   -2.392155    0.110795
     47          6           0        6.845459   -0.887851   -0.464779
     48          1           0        7.070111    1.212663   -0.888896
     49          1           0        6.236695   -2.906861   -0.016670
     50          6           0        8.327460   -1.190638   -0.476829
     51          1           0        8.517321   -2.214056   -0.824859
     52          1           0        8.839077   -0.518742   -1.183213
     53          6           0        8.979943   -1.030276    0.905536
     54          1           0        8.763675   -0.014766    1.281909
     55          1           0        8.506289   -1.728893    1.606059
     56          7           0       10.415569   -1.351668    0.849212
     57          1           0       10.888243   -0.649558    0.279257
     58          1           0       10.816450   -1.260775    1.782293
 ---------------------------------------------------------------------
 Rotational constants (GHZ):           0.3539856           0.0394613           0.0362021
 Leave Link  202 at Thu Mar 14 10:08:51 2024, MaxMem= 32212254720 cpu:               0.0 elap:               0.0
 (Enter /home/<user>/g16/l301.exe)
 Standard basis: 6-31G(d) (6D, 7F)
 Ernie: Thresh=  0.10000D-02 Tol=  0.10000D-05 Strict=F.
 There are   549 symmetry adapted cartesian basis functions of A   symmetry.
 There are   549 symmetry adapted basis functions of A   symmetry.
   549 basis functions,  1048 primitive gaussians,   549 cartesian basis functions
   119 alpha electrons      118 beta electrons
       nuclear repulsion energy      3070.3938037325 Hartrees.
 IExCor=  402 DFT=T Ex+Corr=B3LYP ExCW=0 ScaHFX=  0.200000
 ScaDFX=  0.800000  0.720000  1.000000  0.810000 ScalE2=  1.000000  1.000000
 IRadAn=      5 IRanWt=     -1 IRanGd=            0 ICorTp=0 IEmpDi=  4
 NAtoms=   58 NActive=   58 NUniq=   58 SFac= 1.00D+00 NAtFMM=   60 NAOKFM=F Big=F
 Integral buffers will be    131072 words long.
 Raffenetti 2 integral format.
 Two-electron integral symmetry is turned on.
 Leave Link  301 at Thu Mar 14 10:08:51 2024, MaxMem= 32212254720 cpu:               0.8 elap:               0.0
 (Enter /home/<user>/g16/l302.exe)
 NPDir=0 NMtPBC=     1 NCelOv=     1 NCel=       1 NClECP=     1 NCelD=      1
         NCelK=      1 NCelE2=     1 NClLst=     1 CellRange=     0.0.
 One-electron integrals computed using PRISM.
 One-electron integral symmetry used in STVInt
 NBasis=   549 RedAO= T EigKep=  2.71D-04  NBF=   549
 NBsUse=   549 1.00D-06 EigRej= -1.00D+00 NBFU=   549
 Precomputing XC quadrature grid using
 IXCGrd= 4 IRadAn=           5 IRanWt=          -1 IRanGd=           0 AccXCQ= 0.00D+00.
 Generated NRdTot=       0 NPtTot=           0 NUsed=           0 NTot=          32
 NSgBfM=   512   512   512   512   512 MxSgAt=    58 MxSgA2=    58.
 Leave Link  302 at Thu Mar 14 10:08:51 2024, MaxMem= 32212254720 cpu:              12.6 elap:               0.4
 (Enter /home/<user>/g16/l303.exe)
 DipDrv:  MaxL=1.
 Leave Link  303 at Thu Mar 14 10:08:51 2024, MaxMem= 32212254720 cpu:               1.4 elap:               0.1
 (Enter /home/<user>/g16/l401.exe)
 Initial guess from the checkpoint file:  "FBTP_E0opt.chk"
 B after Tr=     0.000000    0.000000   -0.000000
         Rot=    0.999978   -0.006596   -0.000130   -0.000295 Ang=  -0.76 deg.
 Guess basis will be translated and rotated to current coordinates.
 JPrj=2 DoOrth=T DoCkMO=T.
 Initial guess <Sx>= 0.0000 <Sy>= 0.0000 <Sz>= 0.5000 <S**2>= 0.7606 S= 0.5053
 Generating alternative initial guess.
 ExpMin= 1.17D-01 ExpMax= 2.19D+04 ExpMxC= 3.30D+03 IAcc=3 IRadAn=         5 AccDes= 0.00D+00
 Harris functional with IExCor=  402 and IRadAn=       5 diagonalized for initial guess.
 HarFok:  IExCor=  402 AccDes= 0.00D+00 IRadAn=         5 IDoV= 1 UseB2=F ITyADJ=14
 ICtDFT=  3500011 ScaDFX=  1.000000  1.000000  1.000000  1.000000
 FoFCou: FMM=F IPFlag=           0 FMFlag=      100000 FMFlg1=           0
         NFxFlg=           0 DoJE=T BraDBF=F KetDBF=T FulRan=T
         wScrn=  0.000000 ICntrl=       500 IOpCl=  0 I1Cent=   200000004 NGrid=           0
         NMat0=    1 NMatS0=      1 NMatT0=    0 NMatD0=    1 NMtDS0=    0 NMtDT0=    0
 Petite list used in FoFCou.
 Harris En= -1682.77741123163    
 Leave Link  401 at Thu Mar 14 10:08:53 2024, MaxMem= 32212254720 cpu:              46.3 elap:               1.6
 (Enter /home/<user>/g16/l502.exe)
 Integral symmetry usage will be decided dynamically.
 UHF open shell SCF:
 Using DIIS extrapolation, IDIIS=  1040.
 NGot= 32212254720 LenX= 32211628124 LenY= 32211326174
 Requested convergence on RMS density matrix=1.00D-08 within 128 cycles.
 Requested convergence on MAX density matrix=1.00D-06.
 Requested convergence on             energy=1.00D-06.
 No special actions if energy rises.
 Fock matrices will be formed incrementally for  20 cycles.
 Integral accuracy reduced to 1.0D-05 until final iterations.

 Cycle   1  Pass 0  IDiag  1:
 FoFJK:  IHMeth= 1 ICntrl=       0 DoSepK=F KAlg= 0 I1Cent=           0 FoldK=F
 IRaf= 550000000 NMat=       1 IRICut=       1 DoRegI=T DoRafI=F ISym2E= 0 IDoP0=0 IntGTp=1.
 FoFCou: FMM=F IPFlag=           0 FMFlag=      100000 FMFlg1=           0
         NFxFlg=           0 DoJE=F BraDBF=F KetDBF=F FulRan=T
         wScrn=  0.000000 ICntrl=         0 IOpCl=  1 I1Cent=           0 NGrid=           0
         NMat0=    1 NMatS0=      1 NMatT0=    0 NMatD0=    1 NMtDS0=    0 NMtDT0=    0
 Symmetry not used in FoFCou.
 E= -1682.61886383491    
 DIIS: error= 2.55D-03 at cycle   1 NSaved=   1.
 NSaved= 1 IEnMin= 1 EnMin= -1682.61886383491     IErMin= 1 ErrMin= 2.55D-03
 ErrMax= 2.55D-03  0.00D+00 EMaxC= 1.00D-01 BMatC= 4.94D-02 BMatP= 4.94D-02
 IDIUse=3 WtCom= 9.75D-01 WtEn= 2.55D-02
 Coeff-Com:  0.100D+01
 Coeff-En:   0.100D+01
 Coeff:      0.100D+01
 Gap=     1.871 Goal=   None    Shift=    0.000
 Gap=     1.933 Goal=   None    Shift=    0.000
 GapD=    1.871 DampG=2.000 DampE=1.000 DampFc=2.0000 IDamp=-1.
 RMSDP=4.08D-04 MaxDP=1.33D-02              OVMax= 2.63D-02

 Cycle   2  Pass 0  IDiag  1:
 RMSU=  4.08D-04    CP:  1.00D+00
 E= -1682.64523561545     Delta-E=       -0.026371780546 Rises=F Damp=F
 DIIS: error= 4.15D-04 at cycle   2 NSaved=   2.
 NSaved= 2 IEnMin= 2 EnMin= -1682.64523561545     IErMin= 2 ErrMin= 4.15D-04
 ErrMax= 4.15D-04  0.00D+00 EMaxC= 1.00D-01 BMatC= 7.77D-04 BMatP= 4.94D-02
 IDIUse=3 WtCom= 9.96D-01 WtEn= 4.15D-03
 Coeff-Com: -0.728D-01 0.107D+01
 Coeff-En:   0.000D+00 0.100D+01
 Coeff:     -0.725D-01 0.107D+01
 Gap=     0.063 Goal=   None    Shift=    0.000
 Gap=     0.111 Goal=   None    Shift=    0.000
 RMSDP=7.42D-05 MaxDP=3.87D-03 DE=-2.64D-02 OVMax= 1.03D-02

 Cycle   3  Pass 0  IDiag  1:
 RMSU=  6.79D-05    CP:  1.00D+00  1.07D+00
 E= -1682.64545040144     Delta-E=       -0.000214785982 Rises=F Damp=F
 DIIS: error= 3.55D-04 at cycle   3 NSaved=   3.
 NSaved= 3 IEnMin= 3 EnMin= -1682.64545040144     IErMin= 3 ErrMin= 3.55D-04
 ErrMax= 3.55D-04  0.00D+00 EMaxC= 1.00D-01 BMatC= 6.90D-04 BMatP= 7.77D-04
 IDIUse=3 WtCom= 9.96D-01 WtEn= 3.55D-03
 Coeff-Com: -0.461D-01 0.576D+00 0.470D+00
 Coeff-En:   0.000D+00 0.637D-01 0.936D+00
 Coeff:     -0.460D-01 0.574D+00 0.472D+00
 Gap=     0.061 Goal=   None    Shift=    0.000
 Gap=     0.110 Goal=   None    Shift=    0.000
 RMSDP=4.59D-05 MaxDP=2.33D-03 DE=-2.15D-04 OVMax= 1.01D-02

 Cycle   4  Pass 0  IDiag  1:
 RMSU=  2.95D-05    CP:  1.00D+00  1.09D+00  4.88D-01
 E= -1682.64561430155     Delta-E=       -0.000163900118 Rises=F Damp=F
 DIIS: error= 1.77D-04 at cycle   4 NSaved=   4.
 NSaved= 4 IEnMin= 4 EnMin= -1682.64561430155     IErMin= 4 ErrMin= 1.77D-04
 ErrMax= 1.77D-04  0.00D+00 EMaxC= 1.00D-01 BMatC= 1.13D-04 BMatP= 6.90D-04
 IDIUse=3 WtCom= 9.98D-01 WtEn= 1.77D-03
 Coeff-Com: -0.172D-01 0.198D+00 0.300D+00 0.520D+00
 Coeff-En:   0.000D+00 0.000D+00 0.152D+00 0.848D+00
 Coeff:     -0.172D-01 0.197D+00 0.300D+00 0.520D+00
 Gap=     0.062 Goal=   None    Shift=    0.000
 Gap=     0.110 Goal=   None    Shift=    0.000
 RMSDP=1.72D-05 MaxDP=8.09D-04 DE=-1.64D-04 OVMax= 3.45D-03

 Cycle   5  Pass 0  IDiag  1:
 RMSU=  1.12D-05    CP:  1.00D+00  1.09D+00  5.90D-01  6.25D-01
 E= -1682.64564454777     Delta-E=       -0.000030246220 Rises=F Damp=F
 DIIS: error= 7.81D-05 at cycle   5 NSaved=   5.
 NSaved= 5 IEnMin= 5 EnMin= -1682.64564454777     IErMin= 5 ErrMin= 7.81D-05
 ErrMax= 7.81D-05  0.00D+00 EMaxC= 1.00D-01 BMatC= 1.40D-05 BMatP= 1.13D-04
 IDIUse=1 WtCom= 1.00D+00 WtEn= 0.00D+00
 Coeff-Com: -0.398D-02 0.371D-01 0.119D+00 0.315D+00 0.533D+00
 Coeff:     -0.398D-02 0.371D-01 0.119D+00 0.315D+00 0.533D+00
 Gap=     0.062 Goal=   None    Shift=    0.000
 Gap=     0.110 Goal=   None    Shift=    0.000
 RMSDP=5.93D-06 MaxDP=2.75D-04 DE=-3.02D-05 OVMax= 6.91D-04

 Initial convergence to 1.0D-05 achieved.  Increase integral accuracy.
 Cycle   6  Pass 1  IDiag  1:
 E= -1682.64568902695     Delta-E=       -0.000044479174 Rises=F Damp=F
 DIIS: error= 1.22D-04 at cycle   1 NSaved=   1.
 NSaved= 1 IEnMin= 1 EnMin= -1682.64568902695     IErMin= 1 ErrMin= 1.22D-04
 ErrMax= 1.22D-04  0.00D+00 EMaxC= 1.00D-01 BMatC= 1.52D-05 BMatP= 1.52D-05
 IDIUse=3 WtCom= 9.99D-01 WtEn= 1.22D-03
 Coeff-Com:  0.100D+01
 Coeff-En:   0.100D+01
 Coeff:      0.100D+01
 Gap=     0.062 Goal=   None    Shift=    0.000
 Gap=     0.110 Goal=   None    Shift=    0.000
 RMSDP=5.93D-06 MaxDP=2.75D-04 DE=-4.45D-05 OVMax= 1.23D-03

 Cycle   7  Pass 1  IDiag  1:
 RMSU=  7.51D-05    CP:  1.00D+00
 E= -1682.64568804069     Delta-E=        0.000000986254 Rises=F Damp=F
 DIIS: error= 9.02D-05 at cycle   2 NSaved=   2.
 NSaved= 2 IEnMin= 1 EnMin= -1682.64568902695     IErMin= 2 ErrMin= 9.02D-05
 ErrMax= 9.02D-05  0.00D+00 EMaxC= 1.00D-01 BMatC= 1.68D-05 BMatP= 1.52D-05
 IDIUse=1 WtCom= 1.00D+00 WtEn= 0.00D+00
 Coeff-Com:  0.518D+00 0.482D+00
 Coeff:      0.518D+00 0.482D+00
 Gap=     0.062 Goal=   None    Shift=    0.000
 Gap=     0.110 Goal=   None    Shift=    0.000
 RMSDP=7.55D-06 MaxDP=5.18D-04 DE= 9.86D-07 OVMax= 1.12D-03

 Cycle   8  Pass 1  IDiag  1:
 RMSU=  7.55D-06    CP:  1.00D+00  9.97D-01
 E= -1682.64569054626     Delta-E=       -0.000002505565 Rises=F Damp=F
 DIIS: error= 5.66D-05 at cycle   3 NSaved=   3.
 NSaved= 3 IEnMin= 3 EnMin= -1682.64569054626     IErMin= 3 ErrMin= 5.66D-05
 ErrMax= 5.66D-05  0.00D+00 EMaxC= 1.00D-01 BMatC= 7.33D-06 BMatP= 1.52D-05
 IDIUse=1 WtCom= 1.00D+00 WtEn= 0.00D+00
 Coeff-Com:  0.275D-01 0.392D+00 0.581D+00
 Coeff:      0.275D-01 0.392D+00 0.581D+00
 Gap=     0.062 Goal=   None    Shift=    0.000
 Gap=     0.110 Goal=   None    Shift=    0.000
 RMSDP=3.62D-06 MaxDP=2.31D-04 DE=-2.51D-06 OVMax= 5.89D-04

 Cycle   9  Pass 1  IDiag  1:
 RMSU=  1.54D-06    CP:  1.00D+00  1.01D+00  5.75D-01
 E= -1682.64569237887     Delta-E=       -0.000001832612 Rises=F Damp=F
 DIIS: error= 1.47D-05 at cycle   4 NSaved=   4.
 NSaved= 4 IEnMin= 4 EnMin= -1682.64569237887     IErMin= 4 ErrMin= 1.47D-05
 ErrMax= 1.47D-05  0.00D+00 EMaxC= 1.00D-01 BMatC= 7.58D-07 BMatP= 7.33D-06
 IDIUse=1 WtCom= 1.00D+00 WtEn= 0.00D+00
 Coeff-Com: -0.235D-02 0.252D+00 0.408D+00 0.341D+00
 Coeff:     -0.235D-02 0.252D+00 0.408D+00 0.341D+00
 Gap=     0.062 Goal=   None    Shift=    0.000
 Gap=     0.110 Goal=   None    Shift=    0.000
 RMSDP=1.06D-06 MaxDP=9.06D-05 DE=-1.83D-06 OVMax= 1.79D-04

 Cycle  10  Pass 1  IDiag  1:
 RMSU=  5.07D-07    CP:  1.00D+00  1.01D+00  6.04D-01  4.17D-01
 E= -1682.64569257611     Delta-E=       -0.000000197238 Rises=F Damp=F
 DIIS: error= 3.02D-06 at cycle   5 NSaved=   5.
 NSaved= 5 IEnMin= 5 EnMin= -1682.64569257611     IErMin= 5 ErrMin= 3.02D-06
 ErrMax= 3.02D-06  0.00D+00 EMaxC= 1.00D-01 BMatC= 2.81D-08 BMatP= 7.58D-07
 IDIUse=1 WtCom= 1.00D+00 WtEn= 0.00D+00
 Coeff-Com: -0.324D-02 0.123D+00 0.206D+00 0.203D+00 0.471D+00
 Coeff:     -0.324D-02 0.123D+00 0.206D+00 0.203D+00 0.471D+00
 Gap=     0.062 Goal=   None    Shift=    0.000
 Gap=     0.110 Goal=   None    Shift=    0.000
 RMSDP=2.78D-07 MaxDP=2.23D-05 DE=-1.97D-07 OVMax= 5.10D-05

 Cycle  11  Pass 1  IDiag  1:
 RMSU=  2.66D-07    CP:  1.00D+00  1.01D+00  6.07D-01  4.43D-01  8.69D-01
 E= -1682.64569258612     Delta-E=       -0.000000010016 Rises=F Damp=F
 DIIS: error= 2.01D-06 at cycle   6 NSaved=   6.
 NSaved= 6 IEnMin= 6 EnMin= -1682.64569258612     IErMin= 6 ErrMin= 2.01D-06
 ErrMax= 2.01D-06  0.00D+00 EMaxC= 1.00D-01 BMatC= 8.96D-09 BMatP= 2.81D-08
 IDIUse=1 WtCom= 1.00D+00 WtEn= 0.00D+00
 Coeff-Com: -0.124D-02-0.221D-01-0.272D-01-0.573D-02 0.312D+00 0.744D+00
 Coeff:     -0.124D-02-0.221D-01-0.272D-01-0.573D-02 0.312D+00 0.744D+00
 Gap=     0.062 Goal=   None    Shift=    0.000
 Gap=     0.110 Goal=   None    Shift=    0.000
 RMSDP=2.33D-07 MaxDP=1.72D-05 DE=-1.00D-08 OVMax= 4.33D-05

 Cycle  12  Pass 1  IDiag  1:
 RMSU=  1.65D-07    CP:  1.00D+00  1.01D+00  6.06D-01  4.73D-01  1.17D+00
                    CP:  1.13D+00
 E= -1682.64569259353     Delta-E=       -0.000000007405 Rises=F Damp=F
 DIIS: error= 1.50D-06 at cycle   7 NSaved=   7.
 NSaved= 7 IEnMin= 7 EnMin= -1682.64569259353     IErMin= 7 ErrMin= 1.50D-06
 ErrMax= 1.50D-06  0.00D+00 EMaxC= 1.00D-01 BMatC= 3.30D-09 BMatP= 8.96D-09
 IDIUse=1 WtCom= 1.00D+00 WtEn= 0.00D+00
 Coeff-Com:  0.182D-02-0.118D+00-0.186D+00-0.171D+00-0.152D+00 0.526D+00
 Coeff-Com:  0.110D+01
 Coeff:      0.182D-02-0.118D+00-0.186D+00-0.171D+00-0.152D+00 0.526D+00
 Coeff:      0.110D+01
 Gap=     0.062 Goal=   None    Shift=    0.000
 Gap=     0.110 Goal=   None    Shift=    0.000
 RMSDP=3.03D-07 MaxDP=2.58D-05 DE=-7.41D-09 OVMax= 6.18D-05

 Cycle  13  Pass 1  IDiag  1:
 RMSU=  9.62D-08    CP:  1.00D+00  1.01D+00  6.08D-01  5.11D-01  1.58D+00
                    CP:  1.82D+00  1.29D+00
 E= -1682.64569259859     Delta-E=       -0.000000005065 Rises=F Damp=F
 DIIS: error= 5.59D-07 at cycle   8 NSaved=   8.
 NSaved= 8 IEnMin= 8 EnMin= -1682.64569259859     IErMin= 8 ErrMin= 5.59D-07
 ErrMax= 5.59D-07  0.00D+00 EMaxC= 1.00D-01 BMatC= 8.07D-10 BMatP= 3.30D-09
 IDIUse=1 WtCom= 1.00D+00 WtEn= 0.00D+00
 Coeff-Com:  0.124D-02-0.675D-01-0.108D+00-0.101D+00-0.127D+00 0.225D+00
 Coeff-Com:  0.653D+00 0.523D+00
 Coeff:      0.124D-02-0.675D-01-0.108D+00-0.101D+00-0.127D+00 0.225D+00
 Coeff:      0.653D+00 0.523D+00
 Gap=     0.062 Goal=   None    Shift=    0.000
 Gap=     0.110 Goal=   None    Shift=    0.000
 RMSDP=6.21D-08 MaxDP=5.80D-06 DE=-5.06D-09 OVMax= 1.25D-05

 Cycle  14  Pass 1  IDiag  1:
 RMSU=  3.92D-08    CP:  1.00D+00  1.01D+00  6.08D-01  5.21D-01  1.64D+00
                    CP:  1.92D+00  1.41D+00  9.08D-01
 E= -1682.64569259905     Delta-E=       -0.000000000456 Rises=F Damp=F
 DIIS: error= 2.24D-07 at cycle   9 NSaved=   9.
 NSaved= 9 IEnMin= 9 EnMin= -1682.64569259905     IErMin= 9 ErrMin= 2.24D-07
 ErrMax= 2.24D-07  0.00D+00 EMaxC= 1.00D-01 BMatC= 1.08D-10 BMatP= 8.07D-10
 IDIUse=1 WtCom= 1.00D+00 WtEn= 0.00D+00
 Coeff-Com:  0.655D-04 0.140D-02 0.120D-02 0.949D-04-0.132D-01-0.389D-01
 Coeff-Com: -0.156D-01 0.225D+00 0.840D+00
 Coeff:      0.655D-04 0.140D-02 0.120D-02 0.949D-04-0.132D-01-0.389D-01
 Coeff:     -0.156D-01 0.225D+00 0.840D+00
 Gap=     0.062 Goal=   None    Shift=    0.000
 Gap=     0.110 Goal=   None    Shift=    0.000
 RMSDP=3.20D-08 MaxDP=2.55D-06 DE=-4.56D-10 OVMax= 6.40D-06

 Cycle  15  Pass 1  IDiag  1:
 RMSU=  2.24D-08    CP:  1.00D+00  1.01D+00  6.08D-01  5.23D-01  1.66D+00
                    CP:  1.95D+00  1.48D+00  1.06D+00  9.93D-01
 E= -1682.64569259912     Delta-E=       -0.000000000066 Rises=F Damp=F
 DIIS: error= 1.39D-07 at cycle  10 NSaved=  10.
 NSaved=10 IEnMin=10 EnMin= -1682.64569259912     IErMin=10 ErrMin= 1.39D-07
 ErrMax= 1.39D-07  0.00D+00 EMaxC= 1.00D-01 BMatC= 5.71D-11 BMatP= 1.08D-10
 IDIUse=1 WtCom= 1.00D+00 WtEn= 0.00D+00
 Coeff-Com: -0.310D-03 0.202D-01 0.315D-01 0.288D-01 0.291D-01-0.834D-01
 Coeff-Com: -0.198D+00-0.423D-02 0.558D+00 0.618D+00
 Coeff:     -0.310D-03 0.202D-01 0.315D-01 0.288D-01 0.291D-01-0.834D-01
 Coeff:     -0.198D+00-0.423D-02 0.558D+00 0.618D+00
 Gap=     0.062 Goal=   None    Shift=    0.000
 Gap=     0.110 Goal=   None    Shift=    0.000
 RMSDP=1.63D-08 MaxDP=1.01D-06 DE=-6.64D-11 OVMax= 3.49D-06

 Cycle  16  Pass 1  IDiag  1:
 RMSU=  1.28D-08    CP:  1.00D+00  1.01D+00  6.08D-01  5.23D-01  1.66D+00
                    CP:  1.97D+00  1.49D+00  1.11D+00  1.19D+00  9.01D-01
 E= -1682.64569259916     Delta-E=       -0.000000000045 Rises=F Damp=F
 DIIS: error= 6.05D-08 at cycle  11 NSaved=  11.
 NSaved=11 IEnMin=11 EnMin= -1682.64569259916     IErMin=11 ErrMin= 6.05D-08
 ErrMax= 6.05D-08  0.00D+00 EMaxC= 1.00D-01 BMatC= 1.37D-11 BMatP= 5.71D-11
 IDIUse=1 WtCom= 1.00D+00 WtEn= 0.00D+00
 Coeff-Com: -0.214D-03 0.127D-01 0.199D-01 0.185D-01 0.209D-01-0.458D-01
 Coeff-Com: -0.126D+00-0.546D-01 0.180D+00 0.398D+00 0.576D+00
 Coeff:     -0.214D-03 0.127D-01 0.199D-01 0.185D-01 0.209D-01-0.458D-01
 Coeff:     -0.126D+00-0.546D-01 0.180D+00 0.398D+00 0.576D+00
 Gap=     0.062 Goal=   None    Shift=    0.000
 Gap=     0.110 Goal=   None    Shift=    0.000
 RMSDP=8.04D-09 MaxDP=6.28D-07 DE=-4.55D-11 OVMax= 2.27D-06

 SCF Done:  E(UB3LYP) =  -1682.64569260     A.U. after   16 cycles
            NFock= 16  Conv=0.80D-08     -V/T= 2.0082
 <Sx>= 0.0000 <Sy>= 0.0000 <Sz>= 0.5000 <S**2>= 0.7610 S= 0.5055
 <L.S>= 0.000000000000E+00
 KE= 1.669018990592D+03 PE=-1.008910639930D+04 EE= 3.667047912377D+03
 Annihilation of the first spin contaminant:
 S**2 before annihilation     0.7610,   after     0.7501
 Leave Link  502 at Thu Mar 14 10:09:32 2024, MaxMem= 32212254720 cpu:            1179.0 elap:              39.3
 (Enter /home/<user>/g16/l701.exe)
 ... and contract with generalized density number  0.
 Compute integral first derivatives.
 Leave Link  701 at Thu Mar 14 10:09:32 2024, MaxMem= 32212254720 cpu:               5.0 elap:               0.2
 (Enter /home/<user>/g16/l702.exe)
 L702 exits ... SP integral derivatives will be done elsewhere.
 Leave Link  702 at Thu Mar 14 10:09:33 2024, MaxMem= 32212254720 cpu:               0.7 elap:               0.0
 (Enter /home/<user>/g16/l703.exe)
 Integral derivatives from FoFJK, PRISM(SPDF).
 Compute integral first derivatives, UseDBF=F ICtDFT=           0.
 Calling FoFJK, ICntrl=      2127 FMM=F ISym2X=0 I1Cent= 0 IOpClX= 1 NMat=1 NMatS=1 NMatT=0.
 FoFJK:  IHMeth= 1 ICntrl=    2127 DoSepK=F KAlg= 0 I1Cent=           0 FoldK=F
 IRaf=         0 NMat=       1 IRICut=       1 DoRegI=T DoRafI=F ISym2E= 0 IDoP0=0 IntGTp=1.
 FoFCou: FMM=F IPFlag=           0 FMFlag=      100000 FMFlg1=         800
         NFxFlg=           0 DoJE=F BraDBF=F KetDBF=F FulRan=T
         wScrn=  0.000000 ICntrl=      2127 IOpCl=  1 I1Cent=           0 NGrid=           0
         NMat0=    1 NMatS0=      1 NMatT0=    0 NMatD0=    1 NMtDS0=    0 NMtDT0=    0
 Symmetry not used in FoFCou.
 Leave Link  703 at Thu Mar 14 10:09:39 2024, MaxMem= 32212254720 cpu:             197.9 elap:               6.6
 (Enter /home/<user>/g16/l716.exe)
 Dipole        =-8.51046722D-01-1.36831671D+00 1.53233416D-01
 ***** Axes restored to original set *****
 -------------------------------------------------------------------
 Center     Atomic                   Forces (Hartrees/Bohr)
 Number     Number              X              Y              Z
 -------------------------------------------------------------------
      1        6          -0.000147131    0.000053524    0.000812096
      2        6           0.001170166   -0.000448067   -0.000796617
      3        6          -0.000429525   -0.000016561   -0.000168016
      4        6           0.000934793    0.000074216    0.000191019
      5        6          -0.000331435    0.000604952   -0.000371914
      6        6           0.000007073   -0.000617965    0.000215707
      7        1           0.000293227    0.000312132   -0.000199574
      8        1          -0.000929493   -0.000036537    0.000319371
      9        1           0.000175509    0.000073462    0.000081152
     10        6           0.000013037   -0.000401368    0.000066771
     11        6           0.000223863    0.000118780   -0.000019881
     12        6          -0.000178764   -0.000125206    0.000043778
     13        6           0.000221321    0.000068916   -0.000023459
     14        6          -0.000241390   -0.000036692    0.000027516
     15        6           0.000377905   -0.000169700    0.000030830
     16        6          -0.000495887    0.000182798   -0.000042413
     17        1          -0.000000079    0.000065303   -0.000019584
     18        1           0.000087951    0.000004192   -0.000004985
     19        1           0.000107816   -0.000011363   -0.000001838
     20        1          -0.000067156    0.000003439   -0.000013740
     21        6          -0.000018939   -0.000000959   -0.000033868
     22        1           0.000083732    0.000081007   -0.000056864
     23        1          -0.000031868   -0.000035558    0.000018440
     24        1          -0.000020732   -0.000009725    0.000004212
     25        6          -0.000024401   -0.000023027   -0.000006022
     26        1          -0.000032098   -0.000028414    0.000002809
     27        1           0.000080302    0.000088183   -0.000000061
     28        1          -0.000009118   -0.000010517    0.000014963
     29        6          -0.002644773    0.000367698    0.000585758
     30        6          -0.000573816    0.000107521    0.000001567
     31        6          -0.000414420    0.000623484    0.000247103
     32        6           0.000478250   -0.000460155   -0.000019034
     33        6           0.000602436    0.000213659    0.000217591
     34        1           0.000479507    0.000332662   -0.000303088
     35        6           0.002584773   -0.000265141    0.000425555
     36        1          -0.000390587    0.000458921   -0.000247309
     37        7           0.001437264   -0.002121664   -0.000787387
     38        7          -0.002217222   -0.001364857   -0.000631085
     39       16           0.000283649    0.002523420    0.000437405
     40        6          -0.001009742   -0.000127078   -0.000766607
     41        6           0.000248622    0.000184681    0.000739243
     42        6           0.000238185   -0.000304050   -0.000195413
     43        6          -0.000070004   -0.000414285    0.000129889
     44        1          -0.000087962    0.000177460   -0.000156243
     45        6          -0.000723045   -0.000008397    0.000195645
     46        1           0.000838800   -0.000163428    0.000282666
     47        6           0.000521765    0.000303759   -0.000262727
     48        1          -0.000182319    0.000018646    0.000045780
     49        1          -0.000215087    0.000098658   -0.000045033
     50        6           0.000086201    0.000106818   -0.000055880
     51        1          -0.000069699    0.000095838    0.000003957
     52        1          -0.000012204   -0.000091708    0.000068676
     53        6          -0.000291076    0.000272452   -0.000090695
     54        1          -0.000054778   -0.000064052    0.000095374
     55        1           0.000001208   -0.000116879   -0.000066916
     56        7           0.000051892   -0.000328353    0.000195809
     57        1           0.000042235    0.000002978   -0.000181471
     58        1           0.000243269    0.000182147    0.000067041
 -------------------------------------------------------------------
 Cartesian Forces:  Max     0.002644773 RMS     0.000538596
 Leave Link  716 at Thu Mar 14 10:09:39 2024, MaxMem= 32212254720 cpu:               0.7 elap:               0.0
 (Enter /home/<user>/g16/l103.exe)

 GradGradGradGradGradGradGradGradGradGradGradGradGradGradGradGradGradGrad
 Berny optimization.
 Using GEDIIS/GDIIS optimizer.
 FormGI is forming the generalized inverse of G from B-inverse, IUseBI=4.
 GSVD:  received Info=                   1 from GESDD.
 Internal  Forces:  Max     0.002475748 RMS     0.000423121
 Search for a local minimum.
 Step number   3 out of a maximum of  346
 All quantities printed in internal units (Hartrees-Bohrs-Radians)
 RMS Force = .42312D-03 SwitMx=.10000D-02 MixMth= 2
 Mixed Optimization -- En-DIIS/RFO-DIIS
 Swapping is turned off.
 Update second derivatives using D2CorX and points    2    3
 DE= -1.18D-03 DEPred=-1.15D-03 R= 1.03D+00
 TightC=F SS=  1.41D+00  RLast= 3.01D-01 DXNew= 8.4853D-01 9.0384D-01
 Trust test= 1.03D+00 RLast= 3.01D-01 DXMaxT set to 8.49D-01
 ITU=  1  1  0
     Eigenvalues ---    0.00230   0.00230   0.00251   0.00611   0.00754
     Eigenvalues ---    0.00787   0.00915   0.01032   0.01257   0.01458
     Eigenvalues ---    0.01462   0.01606   0.01616   0.01637   0.01639
     Eigenvalues ---    0.01680   0.01693   0.01718   0.01730   0.01754
     Eigenvalues ---    0.01880   0.01909   0.02006   0.02026   0.02037
     Eigenvalues ---    0.02072   0.02084   0.02088   0.02092   0.02094
     Eigenvalues ---    0.02108   0.02112   0.02119   0.02119   0.02125
     Eigenvalues ---    0.02134   0.02140   0.02145   0.02146   0.02148
     Eigenvalues ---    0.02158   0.02161   0.02162   0.02294   0.04020
     Eigenvalues ---    0.04216   0.04430   0.04619   0.05429   0.05434
     Eigenvalues ---    0.05438   0.05497   0.05499   0.05529   0.05937
     Eigenvalues ---    0.08009   0.09085   0.09311   0.11630   0.12687
     Eigenvalues ---    0.12845   0.15631   0.15971   0.15994   0.15998
     Eigenvalues ---    0.15999   0.15999   0.16000   0.16000   0.16000
     Eigenvalues ---    0.16000   0.16000   0.16000   0.16000   0.16000
     Eigenvalues ---    0.16000   0.16000   0.16000   0.16000   0.16000
     Eigenvalues ---    0.16073   0.16167   0.18947   0.20598   0.21926
     Eigenvalues ---    0.21961   0.22004   0.22040   0.22447   0.22449
     Eigenvalues ---    0.22649   0.22980   0.23711   0.24357   0.24525
     Eigenvalues ---    0.24912   0.24971   0.24979   0.24983   0.24990
     Eigenvalues ---    0.24994   0.24997   0.24998   0.25380   0.28045
     Eigenvalues ---    0.28064   0.28472   0.28603   0.29001   0.30119
     Eigenvalues ---    0.31287   0.33046   0.33140   0.33788   0.34028
     Eigenvalues ---    0.34090   0.34100   0.34104   0.34112   0.34133
     Eigenvalues ---    0.34276   0.34289   0.34543   0.34567   0.35033
     Eigenvalues ---    0.35051   0.35075   0.35093   0.35150   0.35151
     Eigenvalues ---    0.35161   0.35187   0.35194   0.35215   0.35285
     Eigenvalues ---    0.35452   0.35581   0.35900   0.36114   0.36870
     Eigenvalues ---    0.38088   0.38264   0.39278   0.40621   0.41523
     Eigenvalues ---    0.41607   0.41673   0.41842   0.42098   0.42690
     Eigenvalues ---    0.43533   0.44364   0.44528   0.44543   0.44949
     Eigenvalues ---    0.44975   0.45011   0.45832   0.45975   0.46075
     Eigenvalues ---    0.46127   0.46712   0.46936   0.47168   0.47366
     Eigenvalues ---    0.48706   0.54578   0.57758
 En-DIIS/RFO-DIIS/Sim-DIIS IScMMF=       -3 using points:     3    2
 RFO step:  Lambda=-4.13530811D-04.
 NNeg= 0 NGDIIS= 2 SimSw=  2.50D-03 Rises=F DC= -1.18D-03 SmlDif=  1.00D-05
 NRisDI= 0 DoIntr=F SqrtH=F CThrHd= 10.0 CDAdj=  3.0
 RMS Error=  0.7866678457D-02 NUsed= 2 OKEnD=T EnDIS=F
 InvSVX:  RCond= 1.96D-02 Info=           0 Equed=N FErr=  2.03D-15 BErr=  0.00D+00
 DidBck=F Rises=F RFO-DIIS coefs:    1.39117   -0.39117
 Iteration  1 RMS(Cart)=  0.03746285 RMS(Int)=  0.00024835
 Iteration  2 RMS(Cart)=  0.00048252 RMS(Int)=  0.00001658
 Iteration  3 RMS(Cart)=  0.00000011 RMS(Int)=  0.00001658
 ITry= 1 IFail=0 DXMaxC= 2.67D-01 DCOld= 1.00D+10 DXMaxT= 8.49D-01 DXLimC= 3.00D+00 Rises=F
 Variable       Old X    -DE/DX   Delta X   Delta X   Delta X     New X
                                 (Linear)    (Quad)   (Total)
    R1        2.68656  -0.00005   0.00441  -0.00244   0.00198   2.68855
    R2        2.62633  -0.00022  -0.00152   0.00024  -0.00129   2.62504
    R3        2.04404   0.00045  -0.00113   0.00192   0.00079   2.04483
    R4        2.68893   0.00052   0.00369  -0.00065   0.00305   2.69198
    R5        2.77222  -0.00083  -0.00181  -0.00146  -0.00327   2.76896
    R6        2.61476  -0.00064  -0.00179  -0.00050  -0.00229   2.61247
    R7        2.05328  -0.00032  -0.00048  -0.00074  -0.00122   2.05207
    R8        2.66514   0.00027  -0.00012   0.00069   0.00057   2.66571
    R9        2.89339   0.00007   0.00016   0.00023   0.00039   2.89377
   R10        2.64733  -0.00047   0.00020  -0.00131  -0.00112   2.64622
   R11        2.75697   0.00003  -0.00278   0.00147  -0.00130   2.75566
   R12        2.05753  -0.00003   0.00024  -0.00025  -0.00001   2.05752
   R13        2.89159   0.00002   0.00037  -0.00007   0.00030   2.89189
   R14        2.91907  -0.00007   0.00021  -0.00037  -0.00016   2.91892
   R15        2.91865  -0.00003   0.00026  -0.00021   0.00005   2.91870
   R16        2.62232   0.00002  -0.00129   0.00071  -0.00058   2.62174
   R17        2.67433   0.00006   0.00135  -0.00062   0.00073   2.67505
   R18        2.65310  -0.00014   0.00042  -0.00059  -0.00017   2.65293
   R19        2.05770  -0.00007   0.00021  -0.00033  -0.00012   2.05759
   R20        2.64265  -0.00009  -0.00042  -0.00002  -0.00044   2.64221
   R21        2.05523  -0.00008  -0.00020  -0.00018  -0.00038   2.05485
   R22        2.64080  -0.00000  -0.00033   0.00012  -0.00021   2.64059
   R23        2.05664  -0.00009   0.00020  -0.00040  -0.00020   2.05643
   R24        2.64710  -0.00033   0.00028  -0.00097  -0.00069   2.64641
   R25        2.05516  -0.00000   0.00011  -0.00007   0.00004   2.05520
   R26        2.07462  -0.00013  -0.00000  -0.00043  -0.00043   2.07419
   R27        2.07194  -0.00001   0.00004  -0.00006  -0.00002   2.07192
   R28        2.06882  -0.00000   0.00018  -0.00010   0.00008   2.06890
   R29        2.07209  -0.00002   0.00003  -0.00007  -0.00004   2.07206
   R30        2.07455  -0.00012   0.00000  -0.00040  -0.00040   2.07416
   R31        2.06906  -0.00002   0.00016  -0.00013   0.00003   2.06909
   R32        2.71934  -0.00059  -0.00082  -0.00131  -0.00212   2.71722
   R33        2.67359   0.00003   0.00682  -0.00373   0.00309   2.67668
   R34        2.78550  -0.00013   0.00699  -0.00439   0.00261   2.78811
   R35        2.53674  -0.00116  -0.00071  -0.00198  -0.00270   2.53404
   R36        2.62097   0.00152  -0.00840   0.00861   0.00020   2.62118
   R37        2.05320  -0.00049  -0.00114  -0.00095  -0.00208   2.05111
   R38        2.71038  -0.00011  -0.00261   0.00097  -0.00164   2.70875
   R39        2.53967  -0.00093  -0.00031  -0.00174  -0.00204   2.53762
   R40        2.66772   0.00019   0.00572  -0.00276   0.00295   2.67067
   R41        2.05436  -0.00051  -0.00080  -0.00118  -0.00198   2.05238
   R42        2.78318  -0.00040  -0.00097  -0.00065  -0.00162   2.78157
   R43        3.16870   0.00032   0.00950  -0.00421   0.00529   3.17399
   R44        3.16815   0.00044   0.00925  -0.00377   0.00548   3.17363
   R45        2.67261   0.00009   0.00329  -0.00148   0.00181   2.67442
   R46        2.67331   0.00058   0.00270  -0.00000   0.00271   2.67602
   R47        2.63002  -0.00014  -0.00090   0.00010  -0.00080   2.62922
   R48        2.04525   0.00023  -0.00084   0.00109   0.00025   2.04550
   R49        2.62987  -0.00053  -0.00126  -0.00060  -0.00186   2.62801
   R50        2.05277  -0.00034  -0.00013  -0.00096  -0.00109   2.05167
   R51        2.65033  -0.00033  -0.00023  -0.00073  -0.00097   2.64936
   R52        2.06046  -0.00012   0.00030  -0.00054  -0.00024   2.06021
   R53        2.64796   0.00029  -0.00028   0.00081   0.00052   2.64848
   R54        2.06008  -0.00017   0.00025  -0.00067  -0.00042   2.05965
   R55        2.85852  -0.00001  -0.00109   0.00044  -0.00065   2.85788
   R56        2.07402  -0.00010   0.00039  -0.00054  -0.00015   2.07387
   R57        2.08056  -0.00010   0.00038  -0.00054  -0.00017   2.08040
   R58        2.90452   0.00000  -0.00077   0.00042  -0.00036   2.90416
   R59        2.08700  -0.00002  -0.00010  -0.00002  -0.00012   2.08689
   R60        2.07280   0.00002   0.00006   0.00004   0.00010   2.07290
   R61        2.78213   0.00036   0.00090   0.00053   0.00143   2.78355
   R62        1.92829   0.00013   0.00029   0.00017   0.00046   1.92875
   R63        1.92679   0.00019   0.00010   0.00039   0.00049   1.92727
    A1        2.13052   0.00023   0.00252  -0.00037   0.00215   2.13268
    A2        2.06278  -0.00018  -0.00255   0.00051  -0.00204   2.06074
    A3        2.08983  -0.00005   0.00002  -0.00010  -0.00008   2.08974
    A4        2.03959  -0.00035  -0.00643   0.00197  -0.00450   2.03509
    A5        2.14400  -0.00172   0.00573  -0.01010  -0.00443   2.13958
    A6        2.09930   0.00207   0.00073   0.00853   0.00920   2.10849
    A7        2.11329  -0.00008   0.00324  -0.00200   0.00124   2.11453
    A8        2.07417   0.00095  -0.00017   0.00634   0.00615   2.08032
    A9        2.09525  -0.00087  -0.00316  -0.00439  -0.00757   2.08768
   A10        2.11055   0.00037   0.00158   0.00068   0.00226   2.11281
   A11        2.24254  -0.00033  -0.00118  -0.00092  -0.00210   2.24044
   A12        1.93001  -0.00004  -0.00041   0.00025  -0.00016   1.92985
   A13        2.07956  -0.00033  -0.00288  -0.00001  -0.00291   2.07665
   A14        1.89964   0.00005   0.00084  -0.00019   0.00066   1.90030
   A15        2.30392   0.00028   0.00203   0.00015   0.00219   2.30612
   A16        2.09273   0.00016   0.00196  -0.00043   0.00152   2.09426
   A17        2.08672  -0.00027  -0.00093  -0.00105  -0.00197   2.08475
   A18        2.10373   0.00010  -0.00104   0.00148   0.00045   2.10418
   A19        1.76957  -0.00006   0.00003  -0.00055  -0.00052   1.76905
   A20        1.94473   0.00003  -0.00015   0.00035   0.00021   1.94494
   A21        1.94406   0.00003  -0.00037   0.00039   0.00002   1.94409
   A22        1.94197   0.00002   0.00013  -0.00010   0.00002   1.94200
   A23        1.94314   0.00002  -0.00006   0.00001  -0.00005   1.94309
   A24        1.91686  -0.00003   0.00038  -0.00012   0.00026   1.91713
   A25        2.25101  -0.00010  -0.00002  -0.00049  -0.00051   2.25050
   A26        1.92788   0.00017  -0.00074   0.00124   0.00050   1.92838
   A27        2.10429  -0.00008   0.00077  -0.00075   0.00002   2.10431
   A28        2.08599  -0.00008   0.00048  -0.00062  -0.00014   2.08585
   A29        2.10528   0.00005  -0.00053   0.00054   0.00001   2.10529
   A30        2.09191   0.00003   0.00005   0.00008   0.00013   2.09204
   A31        2.09445   0.00012  -0.00092   0.00112   0.00020   2.09465
   A32        2.09394  -0.00009   0.00019  -0.00061  -0.00042   2.09351
   A33        2.09480  -0.00003   0.00073  -0.00051   0.00022   2.09502
   A34        2.10941  -0.00006   0.00063  -0.00066  -0.00003   2.10938
   A35        2.08732   0.00009   0.00016   0.00051   0.00067   2.08799
   A36        2.08645  -0.00003  -0.00079   0.00015  -0.00064   2.08582
   A37        2.08113  -0.00002   0.00062  -0.00050   0.00012   2.08125
   A38        2.09918  -0.00006  -0.00016  -0.00031  -0.00047   2.09871
   A39        2.10287   0.00008  -0.00046   0.00081   0.00035   2.10322
   A40        1.89764  -0.00012   0.00028  -0.00075  -0.00047   1.89716
   A41        2.29446   0.00001   0.00130  -0.00066   0.00064   2.29510
   A42        2.09109   0.00011  -0.00158   0.00142  -0.00016   2.09093
   A43        1.93776  -0.00006   0.00042  -0.00083  -0.00041   1.93735
   A44        1.92956   0.00006  -0.00014   0.00053   0.00040   1.92996
   A45        1.93459   0.00002   0.00004   0.00023   0.00027   1.93486
   A46        1.88575  -0.00002   0.00027  -0.00045  -0.00018   1.88556
   A47        1.88958   0.00001  -0.00004  -0.00007  -0.00011   1.88948
   A48        1.88483  -0.00000  -0.00056   0.00059   0.00003   1.88486
   A49        1.92911   0.00004  -0.00014   0.00042   0.00028   1.92939
   A50        1.93821  -0.00004   0.00044  -0.00069  -0.00025   1.93796
   A51        1.93503   0.00001   0.00005   0.00017   0.00022   1.93525
   A52        1.88552  -0.00001   0.00032  -0.00043  -0.00011   1.88542
   A53        1.88502  -0.00000  -0.00066   0.00056  -0.00010   1.88492
   A54        1.88916   0.00001  -0.00003  -0.00002  -0.00005   1.88911
   A55        2.16137  -0.00095   0.00842  -0.00786   0.00052   2.16189
   A56        2.10092   0.00248  -0.00516   0.01349   0.00828   2.10919
   A57        2.02088  -0.00153  -0.00325  -0.00552  -0.00883   2.01205
   A58        2.10652   0.00104   0.00048   0.00398   0.00444   2.11096
   A59        2.19244  -0.00056  -0.00225  -0.00050  -0.00277   2.18967
   A60        1.98389  -0.00047   0.00169  -0.00314  -0.00147   1.98242
   A61        2.15308   0.00060   0.00236   0.00179   0.00410   2.15718
   A62        2.07132  -0.00007  -0.00396   0.00182  -0.00215   2.06917
   A63        2.05729  -0.00053   0.00136  -0.00380  -0.00246   2.05483
   A64        2.10716   0.00101   0.00063   0.00383   0.00443   2.11159
   A65        1.98678  -0.00098   0.00256  -0.00572  -0.00317   1.98361
   A66        2.18895  -0.00002  -0.00327   0.00220  -0.00109   2.18787
   A67        2.15322   0.00058   0.00184   0.00209   0.00389   2.15712
   A68        2.05887  -0.00052   0.00229  -0.00421  -0.00192   2.05694
   A69        2.06991  -0.00007  -0.00428   0.00188  -0.00240   2.06750
   A70        2.02500  -0.00171  -0.00221  -0.00660  -0.00885   2.01615
   A71        2.15600  -0.00008   0.00730  -0.00374   0.00354   2.15954
   A72        2.10217   0.00179  -0.00509   0.01040   0.00528   2.10745
   A73        1.86162   0.00184  -0.00237   0.00879   0.00642   1.86805
   A74        1.85899   0.00202  -0.00295   0.01005   0.00710   1.86609
   A75        1.73349  -0.00240   0.00107  -0.00994  -0.00888   1.72461
   A76        2.14831  -0.00102   0.00472  -0.00663  -0.00195   2.14636
   A77        2.10668   0.00141   0.00006   0.00599   0.00601   2.11269
   A78        2.02785  -0.00038  -0.00479   0.00103  -0.00377   2.02407
   A79        2.11875   0.00020   0.00169  -0.00006   0.00164   2.12039
   A80        2.07144  -0.00011  -0.00178   0.00055  -0.00123   2.07021
   A81        2.09295  -0.00009   0.00007  -0.00044  -0.00038   2.09258
   A82        2.12978  -0.00001   0.00282  -0.00156   0.00126   2.13104
   A83        2.07647   0.00080  -0.00018   0.00547   0.00527   2.08173
   A84        2.07671  -0.00079  -0.00268  -0.00400  -0.00669   2.07001
   A85        2.12819   0.00020   0.00124   0.00011   0.00134   2.12954
   A86        2.07657  -0.00025  -0.00087  -0.00094  -0.00181   2.07476
   A87        2.07840   0.00005  -0.00037   0.00083   0.00047   2.07887
   A88        2.11756   0.00032   0.00042   0.00123   0.00165   2.11921
   A89        2.08310  -0.00033  -0.00068  -0.00155  -0.00224   2.08087
   A90        2.08247   0.00001   0.00026   0.00032   0.00058   2.08306
   A91        2.04417  -0.00032  -0.00139  -0.00084  -0.00224   2.04193
   A92        2.11995   0.00016   0.00034   0.00055   0.00090   2.12084
   A93        2.11816   0.00016   0.00101   0.00019   0.00121   2.11937
   A94        1.93763  -0.00008   0.00005  -0.00083  -0.00078   1.93685
   A95        1.91583   0.00000  -0.00002   0.00034   0.00032   1.91614
   A96        1.96911   0.00011  -0.00072   0.00094   0.00022   1.96933
   A97        1.86003   0.00000  -0.00061   0.00006  -0.00055   1.85948
   A98        1.88499   0.00001   0.00116  -0.00050   0.00066   1.88565
   A99        1.89241  -0.00005   0.00016  -0.00005   0.00011   1.89252
   A100       1.89580   0.00001   0.00048  -0.00004   0.00044   1.89625
   A101       1.90142   0.00003   0.00086  -0.00056   0.00030   1.90172
   A102       1.93561  -0.00011  -0.00045  -0.00050  -0.00095   1.93466
   A103       1.85818  -0.00001   0.00030  -0.00000   0.00030   1.85848
   A104       1.98747   0.00008  -0.00068   0.00124   0.00056   1.98804
   A105       1.88228   0.00000  -0.00041  -0.00020  -0.00062   1.88167
   A106       1.89955  -0.00004  -0.00189   0.00080  -0.00110   1.89845
   A107       1.90596   0.00023  -0.00295   0.00306   0.00010   1.90606
   A108       1.84179  -0.00009  -0.00089  -0.00004  -0.00095   1.84084
    D1       -0.01739  -0.00016  -0.00125  -0.00915  -0.01036  -0.02775
    D2        3.09804   0.00016   0.00001   0.00849   0.00843   3.10647
    D3        3.11261  -0.00009  -0.00271  -0.00434  -0.00701   3.10560
    D4       -0.05515   0.00023  -0.00145   0.01330   0.01179  -0.04336
    D5        0.00833   0.00003   0.00118   0.00145   0.00263   0.01096
    D6       -3.13052   0.00001   0.00098   0.00079   0.00177  -3.12875
    D7       -3.12150  -0.00003   0.00268  -0.00343  -0.00077  -3.12226
    D8        0.02284  -0.00005   0.00247  -0.00409  -0.00163   0.02122
    D9        0.01579   0.00017   0.00051   0.01005   0.01055   0.02634
   D10       -3.09263   0.00026   0.00441   0.01205   0.01648  -3.07615
   D11       -3.10035  -0.00008  -0.00081  -0.00681  -0.00768  -3.10803
   D12        0.07442   0.00001   0.00309  -0.00482  -0.00175   0.07267
   D13        0.41614  -0.00054  -0.03984  -0.02116  -0.06107   0.35508
   D14       -2.73246  -0.00026  -0.03986  -0.00263  -0.04247  -2.77494
   D15       -2.75248  -0.00025  -0.03865  -0.00304  -0.04170  -2.79418
   D16        0.38210   0.00004  -0.03867   0.01549  -0.02311   0.35899
   D17       -0.00538  -0.00006   0.00028  -0.00342  -0.00316  -0.00854
   D18       -3.13147  -0.00008   0.00106  -0.00458  -0.00354  -3.13501
   D19        3.10265  -0.00012  -0.00362  -0.00524  -0.00886   3.09379
   D20       -0.02344  -0.00014  -0.00285  -0.00639  -0.00924  -0.03268
   D21       -0.00434  -0.00007  -0.00046  -0.00461  -0.00505  -0.00939
   D22       -3.13566  -0.00001   0.00028  -0.00095  -0.00066  -3.13632
   D23        3.12429  -0.00006  -0.00111  -0.00365  -0.00475   3.11954
   D24       -0.00703   0.00000  -0.00037   0.00001  -0.00036  -0.00739
   D25        3.13516   0.00002  -0.00032   0.00092   0.00060   3.13576
   D26        1.06769   0.00002  -0.00041   0.00119   0.00077   1.06846
   D27       -1.07950   0.00001  -0.00054   0.00080   0.00026  -1.07923
   D28        0.00777  -0.00000   0.00037  -0.00015   0.00023   0.00800
   D29       -2.05970  -0.00000   0.00028   0.00012   0.00040  -2.05930
   D30        2.07630  -0.00001   0.00016  -0.00027  -0.00011   2.07620
   D31        0.00290   0.00009  -0.00027   0.00556   0.00530   0.00820
   D32       -3.14147   0.00011  -0.00007   0.00623   0.00616  -3.13530
   D33        3.13141   0.00001  -0.00123   0.00090  -0.00033   3.13108
   D34       -0.01296   0.00003  -0.00102   0.00157   0.00054  -0.01242
   D35        0.00307   0.00000   0.00020   0.00014   0.00034   0.00341
   D36       -3.13880  -0.00001   0.00006  -0.00028  -0.00022  -3.13902
   D37       -3.12645   0.00008   0.00110   0.00445   0.00556  -3.12088
   D38        0.01487   0.00007   0.00097   0.00403   0.00500   0.01987
   D39        3.13718   0.00000  -0.00031   0.00039   0.00008   3.13726
   D40       -0.00585   0.00000  -0.00025   0.00023  -0.00002  -0.00587
   D41       -1.07655   0.00001  -0.00041   0.00045   0.00004  -1.07651
   D42        2.06361   0.00001  -0.00035   0.00029  -0.00006   2.06355
   D43        1.06799  -0.00000   0.00013   0.00023   0.00036   1.06835
   D44       -2.07504  -0.00000   0.00019   0.00008   0.00026  -2.07478
   D45        3.08417  -0.00003   0.00207  -0.00187   0.00020   3.08438
   D46       -1.10627  -0.00005   0.00259  -0.00262  -0.00003  -1.10630
   D47        0.98326  -0.00001   0.00182  -0.00138   0.00044   0.98369
   D48        1.12319   0.00002   0.00205  -0.00134   0.00071   1.12390
   D49       -3.06725  -0.00000   0.00257  -0.00210   0.00047  -3.06678
   D50       -0.97772   0.00004   0.00180  -0.00086   0.00094  -0.97678
   D51       -1.03636   0.00001   0.00177  -0.00120   0.00057  -1.03579
   D52        1.05638  -0.00001   0.00229  -0.00196   0.00033   1.05671
   D53       -3.13727   0.00003   0.00152  -0.00072   0.00080  -3.13647
   D54        1.10534   0.00005  -0.00297   0.00321   0.00024   1.10559
   D55       -3.08538   0.00003  -0.00237   0.00250   0.00013  -3.08526
   D56       -0.98441   0.00002  -0.00208   0.00213   0.00005  -0.98436
   D57        3.06661  -0.00000  -0.00318   0.00277  -0.00041   3.06620
   D58       -1.12411  -0.00002  -0.00259   0.00206  -0.00053  -1.12464
   D59        0.97686  -0.00003  -0.00230   0.00169  -0.00061   0.97625
   D60       -1.05770   0.00001  -0.00279   0.00257  -0.00023  -1.05793
   D61        1.03476  -0.00001  -0.00220   0.00186  -0.00034   1.03442
   D62        3.13573  -0.00002  -0.00191   0.00148  -0.00042   3.13531
   D63        3.14040  -0.00000  -0.00012  -0.00015  -0.00027   3.14014
   D64       -0.00087  -0.00000   0.00004  -0.00022  -0.00018  -0.00105
   D65        0.00038  -0.00000  -0.00018   0.00002  -0.00016   0.00021
   D66       -3.14090  -0.00000  -0.00002  -0.00006  -0.00008  -3.14097
   D67        0.00209  -0.00000   0.00005  -0.00024  -0.00019   0.00190
   D68       -3.13926   0.00001   0.00017   0.00012   0.00029  -3.13897
   D69       -3.14080  -0.00000   0.00010  -0.00038  -0.00028  -3.14108
   D70        0.00103   0.00001   0.00022  -0.00002   0.00020   0.00123
   D71       -0.00106  -0.00000   0.00006  -0.00004   0.00001  -0.00105
   D72        3.14108  -0.00000   0.00005  -0.00007  -0.00002   3.14106
   D73        3.14021  -0.00000  -0.00010   0.00003  -0.00007   3.14014
   D74       -0.00083  -0.00000  -0.00011   0.00001  -0.00010  -0.00093
   D75        0.00035   0.00000   0.00003   0.00006   0.00010   0.00044
   D76       -3.14071  -0.00000   0.00001  -0.00010  -0.00009  -3.14080
   D77        3.14139   0.00000   0.00004   0.00009   0.00013   3.14152
   D78        0.00033  -0.00000   0.00002  -0.00008  -0.00006   0.00027
   D79        0.00106  -0.00000   0.00001  -0.00006  -0.00005   0.00100
   D80       -3.14032  -0.00001   0.00011  -0.00032  -0.00021  -3.14053
   D81       -3.14107   0.00000   0.00003   0.00011   0.00013  -3.14094
   D82        0.00074  -0.00000   0.00013  -0.00015  -0.00002   0.00072
   D83        3.14016   0.00001   0.00002   0.00049   0.00052   3.14068
   D84       -0.00173  -0.00000  -0.00013   0.00004  -0.00009  -0.00183
   D85       -0.00165   0.00001  -0.00008   0.00075   0.00067  -0.00097
   D86        3.13964   0.00000  -0.00023   0.00030   0.00006   3.13970
   D87        3.11218   0.00007  -0.00466   0.00753   0.00282   3.11499
   D88        0.00024  -0.00013  -0.00013  -0.00751  -0.00770  -0.00746
   D89       -0.02270  -0.00022  -0.00464  -0.01030  -0.01490  -0.03759
   D90       -3.13464  -0.00042  -0.00010  -0.02534  -0.02541   3.12314
   D91       -3.11249  -0.00004   0.00455  -0.00605  -0.00150  -3.11400
   D92        0.08902   0.00012   0.01006  -0.00196   0.00808   0.09710
   D93        0.02263   0.00022   0.00459   0.01103   0.01560   0.03823
   D94       -3.05904   0.00038   0.01009   0.01512   0.02518  -3.03386
   D95       -0.00029   0.00001   0.00014   0.00034   0.00048   0.00020
   D96       -3.11719  -0.00017   0.00466  -0.01306  -0.00838  -3.12557
   D97        3.11499   0.00018  -0.00392   0.01372   0.00979   3.12478
   D98       -0.00192   0.00001   0.00060   0.00032   0.00093  -0.00099
   D99        3.11727   0.00015  -0.00293   0.00946   0.00649   3.12377
   D100       0.00352  -0.00006   0.00133  -0.00476  -0.00343   0.00009
   D101       0.00182  -0.00002   0.00027  -0.00130  -0.00104   0.00077
   D102      -3.08662   0.00013   0.00378   0.00418   0.00798  -3.07864
   D103       3.08394  -0.00016  -0.00533  -0.00518  -0.01055   3.07340
   D104      -0.00450  -0.00001  -0.00181   0.00029  -0.00152  -0.00602
   D105       0.02398   0.00020   0.00457   0.00924   0.01379   0.03777
   D106      -3.11300  -0.00005   0.00550  -0.00681  -0.00128  -3.11429
   D107       3.13786   0.00038  -0.00045   0.02417   0.02373  -3.12160
   D108       0.00088   0.00013   0.00048   0.00811   0.00865   0.00953
   D109      -0.00075   0.00006  -0.00221   0.00432   0.00210   0.00135
   D110      -3.11631  -0.00014   0.00252  -0.00983  -0.00730  -3.12361
   D111      -0.02542  -0.00019  -0.00492  -0.00903  -0.01393  -0.03935
   D112       3.11172   0.00004  -0.00580   0.00645   0.00065   3.11237
   D113       3.06271  -0.00036  -0.00830  -0.01472  -0.02300   3.03971
   D114      -0.08334  -0.00012  -0.00918   0.00077  -0.00841  -0.09176
   D115      -0.45130   0.00044   0.03569   0.01515   0.05090  -0.40040
   D116       2.71982   0.00018   0.03581  -0.00139   0.03444   2.75426
   D117       2.69510   0.00020   0.03666  -0.00154   0.03511   2.73021
   D118      -0.41697  -0.00007   0.03678  -0.01808   0.01864  -0.39832
   D119      -0.00355   0.00009  -0.00234   0.00653   0.00417   0.00062
   D120       0.00249  -0.00009   0.00267  -0.00634  -0.00365  -0.00117
   D121      -3.10115  -0.00013   0.00029  -0.00726  -0.00694  -3.10809
   D122       0.05074  -0.00022   0.00176  -0.01281  -0.01102   0.03973
   D123       0.01215   0.00015   0.00025   0.00867   0.00890   0.02105
   D124      -3.11914   0.00006   0.00172   0.00313   0.00483  -3.11431
   D125       3.10129   0.00010   0.00059   0.00717   0.00779   3.10908
   D126      -0.06357  -0.00003  -0.00195   0.00226   0.00030  -0.06327
   D127      -0.01273  -0.00013   0.00054  -0.00814  -0.00759  -0.02032
   D128       3.10559  -0.00026  -0.00200  -0.01305  -0.01508   3.09051
   D129      -0.00555  -0.00007  -0.00061  -0.00327  -0.00387  -0.00942
   D130       3.12920  -0.00005  -0.00071  -0.00264  -0.00335   3.12585
   D131       3.12561   0.00002  -0.00211   0.00235   0.00025   3.12586
   D132      -0.02282   0.00003  -0.00221   0.00298   0.00077  -0.02205
   D133       0.00662   0.00003  -0.00101   0.00212   0.00112   0.00774
   D134       3.13703   0.00003  -0.00108   0.00175   0.00068   3.13772
   D135      -3.11170   0.00014   0.00150   0.00691   0.00840  -3.10330
   D136       0.01872   0.00013   0.00144   0.00654   0.00797   0.02668
   D137      -0.00120  -0.00004   0.00011  -0.00306  -0.00295  -0.00415
   D138      -3.09763  -0.00001   0.00094  -0.00054   0.00040  -3.09723
   D139      -3.13595  -0.00006   0.00022  -0.00368  -0.00346  -3.13941
   D140       0.05081  -0.00002   0.00105  -0.00116  -0.00012   0.05069
   D141       0.00069   0.00006   0.00069   0.00362   0.00430   0.00499
   D142       3.09717   0.00003  -0.00016   0.00111   0.00095   3.09812
   D143      -3.12973   0.00007   0.00076   0.00400   0.00475  -3.12498
   D144      -0.03325   0.00003  -0.00009   0.00149   0.00140  -0.03185
   D145      -2.62106   0.00000   0.00005  -0.00140  -0.00135  -2.62241
   D146      -0.56913  -0.00004  -0.00068  -0.00163  -0.00231  -0.57144
   D147       1.54345  -0.00003  -0.00098  -0.00082  -0.00180   1.54165
   D148       0.56761   0.00005   0.00098   0.00125   0.00223   0.56984
   D149       2.61953   0.00000   0.00024   0.00103   0.00128   2.62081
   D150      -1.55107   0.00002  -0.00005   0.00183   0.00179  -1.54929
   D151      -0.95786  -0.00001   0.00484  -0.00108   0.00376  -0.95411
   D152       1.05950   0.00000   0.00592  -0.00140   0.00452   1.06402
   D153       3.12859  -0.00005   0.00568  -0.00230   0.00338   3.13197
   D154      -3.10612   0.00002   0.00442  -0.00029   0.00413  -3.10199
   D155      -1.08875   0.00003   0.00550  -0.00062   0.00489  -1.08387
   D156       0.98034  -0.00002   0.00526  -0.00151   0.00375   0.98409
   D157       1.16799   0.00003   0.00445  -0.00007   0.00438   1.17236
   D158      -3.09783   0.00004   0.00553  -0.00040   0.00514  -3.09270
   D159      -1.02874  -0.00000   0.00529  -0.00129   0.00400  -1.02474
   D160       1.16488  -0.00010  -0.00587  -0.00924  -0.01511   1.14977
   D161      -3.11591  -0.00009  -0.00957  -0.00722  -0.01679  -3.13269
   D162      -0.97970  -0.00009  -0.00565  -0.00973  -0.01538  -0.99508
   D163       1.02269  -0.00008  -0.00936  -0.00770  -0.01705   1.00564
   D164      -3.03768  -0.00013  -0.00534  -0.01034  -0.01568  -3.05335
   D165      -1.03528  -0.00012  -0.00905  -0.00831  -0.01735  -1.05263
         Item               Value     Threshold  Converged?
 Maximum Force            0.002476     0.000450     NO 
 RMS     Force            0.000423     0.000300     NO 
 Maximum Displacement     0.266784     0.001800     NO 
 RMS     Displacement     0.037456     0.001200     NO 
 Predicted change in Energy=-2.112420D-04
 Lowest energy point so far.  Saving SCF results.
 GradGradGradGradGradGradGradGradGradGradGradGradGradGradGradGradGradGrad

 Leave Link  103 at Thu Mar 14 10:09:39 2024, MaxMem= 32212254720 cpu:               2.6 elap:               0.1
 (Enter /home/<user>/g16/l202.exe)
 Stoichiometry    C29H25N3S(1-,2)
 Framework group  C1[X(C29H25N3S)]
 Deg. of freedom   168
 Full point group                 C1      NOp   1
 RotChk:  IX=0 Diff= 2.22D-02
 Largest Abelian subgroup         C1      NOp   1
 Largest concise Abelian subgroup C1      NOp   1
                         Standard orientation:                         
 ---------------------------------------------------------------------
 Center     Atomic      Atomic             Coordinates (Angstroms)
 Number     Number       Type             X           Y           Z
 ---------------------------------------------------------------------
      1          6           0       -2.475170    1.659362   -0.300223
      2          6           0       -1.787570    0.420681   -0.169826
      3          6           0       -2.592991   -0.739520    0.015993
      4          6           0       -3.972849   -0.656795    0.034446
      5          6           0       -4.629707    0.581970   -0.120074
      6          6           0       -3.861739    1.741542   -0.282883
      7          1           0       -1.885475    2.560182   -0.408251
      8          1           0       -2.110611   -1.698193    0.181674
      9          1           0       -4.341930    2.711870   -0.398422
     10          6           0       -4.990178   -1.784808    0.228270
     11          6           0       -6.311103   -1.016067    0.150275
     12          6           0       -7.608013   -1.498304    0.251559
     13          6           0       -8.687310   -0.606122    0.151663
     14          6           0       -8.451345    0.757602   -0.047170
     15          6           0       -7.148436    1.252071   -0.149588
     16          6           0       -6.069963    0.364068   -0.052046
     17          1           0       -7.794528   -2.559606    0.407754
     18          1           0       -9.706729   -0.976419    0.229522
     19          1           0       -9.292563    1.443769   -0.122971
     20          1           0       -6.976310    2.314879   -0.303244
     21          6           0       -4.820061   -2.468385    1.602913
     22          1           0       -5.588870   -3.236211    1.758264
     23          1           0       -3.838453   -2.951592    1.674178
     24          1           0       -4.896752   -1.737126    2.414083
     25          6           0       -4.885386   -2.837339   -0.897207
     26          1           0       -3.904407   -3.326748   -0.876271
     27          1           0       -5.654192   -3.612552   -0.784516
     28          1           0       -5.010083   -2.371379   -1.880147
     29          6           0       -0.327098    0.318614   -0.229938
     30          6           0        0.563449    1.424488   -0.003011
     31          6           0        0.302894   -0.912022   -0.538064
     32          6           0        2.026819    1.241630   -0.046916
     33          6           0        1.679057   -1.080665   -0.579163
     34          1           0       -0.318112   -1.756805   -0.818759
     35          6           0        2.602181   -0.043116   -0.317174
     36          1           0        2.062634   -2.049875   -0.884209
     37          7           0        0.187944    2.679969    0.281467
     38          7           0        2.717926    2.365177    0.204610
     39         16           0        1.591875    3.579807    0.482283
     40          6           0        4.051163   -0.300844   -0.342501
     41          6           0        5.010220    0.714201   -0.572295
     42          6           0        4.564233   -1.606514   -0.149385
     43          6           0        6.370850    0.429108   -0.628756
     44          1           0        4.666648    1.732696   -0.699918
     45          6           0        5.926308   -1.881244   -0.206655
     46          1           0        3.879528   -2.417654    0.078594
     47          6           0        6.865904   -0.870473   -0.451084
     48          1           0        7.071375    1.241591   -0.822959
     49          1           0        6.270213   -2.903129   -0.047257
     50          6           0        8.350475   -1.158767   -0.458349
     51          1           0        8.552007   -2.172271   -0.827917
     52          1           0        8.861070   -0.467109   -1.146012
     53          6           0        8.991185   -1.022980    0.931923
     54          1           0        8.759395   -0.019731    1.331068
     55          1           0        8.522549   -1.744550    1.612345
     56          7           0       10.431759   -1.325376    0.877043
     57          1           0       10.896063   -0.611397    0.314562
     58          1           0       10.829208   -1.236176    1.812035
 ---------------------------------------------------------------------
 Rotational constants (GHZ):           0.3563547           0.0393374           0.0360878
 Leave Link  202 at Thu Mar 14 10:09:39 2024, MaxMem= 32212254720 cpu:               0.1 elap:               0.0
 (Enter /home/<user>/g16/l301.exe)
 Standard basis: 6-31G(d) (6D, 7F)
 Ernie: Thresh=  0.10000D-02 Tol=  0.10000D-05 Strict=F.
 There are   549 symmetry adapted cartesian basis functions of A   symmetry.
 There are   549 symmetry adapted basis functions of A   symmetry.
   549 basis functions,  1048 primitive gaussians,   549 cartesian basis functions
   119 alpha electrons      118 beta electrons
       nuclear repulsion energy      3069.3318001592 Hartrees.
 IExCor=  402 DFT=T Ex+Corr=B3LYP ExCW=0 ScaHFX=  0.200000
 ScaDFX=  0.800000  0.720000  1.000000  0.810000 ScalE2=  1.000000  1.000000
 IRadAn=      5 IRanWt=     -1 IRanGd=            0 ICorTp=0 IEmpDi=  4
 NAtoms=   58 NActive=   58 NUniq=   58 SFac= 1.00D+00 NAtFMM=   60 NAOKFM=F Big=F
 Integral buffers will be    131072 words long.
 Raffenetti 2 integral format.
 Two-electron integral symmetry is turned on.
 Leave Link  301 at Thu Mar 14 10:09:39 2024, MaxMem= 32212254720 cpu:               0.8 elap:               0.0
 (Enter /home/<user>/g16/l302.exe)
 NPDir=0 NMtPBC=     1 NCelOv=     1 NCel=       1 NClECP=     1 NCelD=      1
         NCelK=      1 NCelE2=     1 NClLst=     1 CellRange=     0.0.
 One-electron integrals computed using PRISM.
 One-electron integral symmetry used in STVInt
 NBasis=   549 RedAO= T EigKep=  2.69D-04  NBF=   549
 NBsUse=   549 1.00D-06 EigRej= -1.00D+00 NBFU=   549
 Precomputing XC quadrature grid using
 IXCGrd= 4 IRadAn=           5 IRanWt=          -1 IRanGd=           0 AccXCQ= 0.00D+00.
 Generated NRdTot=       0 NPtTot=           0 NUsed=           0 NTot=          32
 NSgBfM=   512   512   512   512   512 MxSgAt=    58 MxSgA2=    58.
 Leave Link  302 at Thu Mar 14 10:09:40 2024, MaxMem= 32212254720 cpu:              12.5 elap:               0.4
 (Enter /home/<user>/g16/l303.exe)
 DipDrv:  MaxL=1.
 Leave Link  303 at Thu Mar 14 10:09:40 2024, MaxMem= 32212254720 cpu:               1.4 elap:               0.1
 (Enter /home/<user>/g16/l401.exe)
 Initial guess from the checkpoint file:  "FBTP_E0opt.chk"
 B after Tr=    -0.000000   -0.000000    0.000000
         Rot=    0.999999   -0.001126    0.000062    0.000076 Ang=  -0.13 deg.
 Guess basis will be translated and rotated to current coordinates.
 JPrj=2 DoOrth=T DoCkMO=T.
 Initial guess <Sx>= 0.0000 <Sy>= 0.0000 <Sz>= 0.5000 <S**2>= 0.7610 S= 0.5055
 Generating alternative initial guess.
 ExpMin= 1.17D-01 ExpMax= 2.19D+04 ExpMxC= 3.30D+03 IAcc=3 IRadAn=         5 AccDes= 0.00D+00
 Harris functional with IExCor=  402 and IRadAn=       5 diagonalized for initial guess.
 HarFok:  IExCor=  402 AccDes= 0.00D+00 IRadAn=         5 IDoV= 1 UseB2=F ITyADJ=14
 ICtDFT=  3500011 ScaDFX=  1.000000  1.000000  1.000000  1.000000
 FoFCou: FMM=F IPFlag=           0 FMFlag=      100000 FMFlg1=           0
         NFxFlg=           0 DoJE=T BraDBF=F KetDBF=T FulRan=T
         wScrn=  0.000000 ICntrl=       500 IOpCl=  0 I1Cent=   200000004 NGrid=           0
         NMat0=    1 NMatS0=      1 NMatT0=    0 NMatD0=    1 NMtDS0=    0 NMtDT0=    0
 Petite list used in FoFCou.
 Harris En= -1682.77828349336    
 Leave Link  401 at Thu Mar 14 10:09:42 2024, MaxMem= 32212254720 cpu:              47.3 elap:               1.6
 (Enter /home/<user>/g16/l502.exe)
 Integral symmetry usage will be decided dynamically.
 UHF open shell SCF:
 Using DIIS extrapolation, IDIIS=  1040.
 NGot= 32212254720 LenX= 32211628124 LenY= 32211326174
 Requested convergence on RMS density matrix=1.00D-08 within 128 cycles.
 Requested convergence on MAX density matrix=1.00D-06.
 Requested convergence on             energy=1.00D-06.
 No special actions if energy rises.
 Fock matrices will be formed incrementally for  20 cycles.
 Integral accuracy reduced to 1.0D-05 until final iterations.

 Cycle   1  Pass 0  IDiag  1:
 FoFJK:  IHMeth= 1 ICntrl=       0 DoSepK=F KAlg= 0 I1Cent=           0 FoldK=F
 IRaf= 550000000 NMat=       1 IRICut=       1 DoRegI=T DoRafI=F ISym2E= 0 IDoP0=0 IntGTp=1.
 FoFCou: FMM=F IPFlag=           0 FMFlag=      100000 FMFlg1=           0
         NFxFlg=           0 DoJE=F BraDBF=F KetDBF=F FulRan=T
         wScrn=  0.000000 ICntrl=         0 IOpCl=  1 I1Cent=           0 NGrid=           0
         NMat0=    1 NMatS0=      1 NMatT0=    0 NMatD0=    1 NMtDS0=    0 NMtDT0=    0
 Symmetry not used in FoFCou.
 E= -1682.63949161719    
 DIIS: error= 1.43D-03 at cycle   1 NSaved=   1.
 NSaved= 1 IEnMin= 1 EnMin= -1682.63949161719     IErMin= 1 ErrMin= 1.43D-03
 ErrMax= 1.43D-03  0.00D+00 EMaxC= 1.00D-01 BMatC= 1.13D-02 BMatP= 1.13D-02
 IDIUse=3 WtCom= 9.86D-01 WtEn= 1.43D-02
 Coeff-Com:  0.100D+01
 Coeff-En:   0.100D+01
 Coeff:      0.100D+01
 Gap=     1.871 Goal=   None    Shift=    0.000
 Gap=     1.932 Goal=   None    Shift=    0.000
 GapD=    1.871 DampG=2.000 DampE=1.000 DampFc=2.0000 IDamp=-1.
 RMSDP=2.13D-04 MaxDP=6.78D-03              OVMax= 1.49D-02

 Cycle   2  Pass 0  IDiag  1:
 RMSU=  2.13D-04    CP:  1.00D+00
 E= -1682.64568217503     Delta-E=       -0.006190557835 Rises=F Damp=F
 DIIS: error= 2.11D-04 at cycle   2 NSaved=   2.
 NSaved= 2 IEnMin= 2 EnMin= -1682.64568217503     IErMin= 2 ErrMin= 2.11D-04
 ErrMax= 2.11D-04  0.00D+00 EMaxC= 1.00D-01 BMatC= 1.89D-04 BMatP= 1.13D-02
 IDIUse=3 WtCom= 9.98D-01 WtEn= 2.11D-03
 Coeff-Com: -0.750D-01 0.108D+01
 Coeff-En:   0.000D+00 0.100D+01
 Coeff:     -0.749D-01 0.107D+01
 Gap=     0.063 Goal=   None    Shift=    0.000
 Gap=     0.109 Goal=   None    Shift=    0.000
 RMSDP=3.72D-05 MaxDP=2.02D-03 DE=-6.19D-03 OVMax= 3.57D-03

 Cycle   3  Pass 0  IDiag  1:
 RMSU=  3.44D-05    CP:  1.00D+00  1.07D+00
 E= -1682.64573526958     Delta-E=       -0.000053094558 Rises=F Damp=F
 DIIS: error= 1.74D-04 at cycle   3 NSaved=   3.
 NSaved= 3 IEnMin= 3 EnMin= -1682.64573526958     IErMin= 3 ErrMin= 1.74D-04
 ErrMax= 1.74D-04  0.00D+00 EMaxC= 1.00D-01 BMatC= 1.80D-04 BMatP= 1.89D-04
 IDIUse=3 WtCom= 9.98D-01 WtEn= 1.74D-03
 Coeff-Com: -0.484D-01 0.588D+00 0.461D+00
 Coeff-En:   0.000D+00 0.745D-01 0.926D+00
 Coeff:     -0.483D-01 0.587D+00 0.461D+00
 Gap=     0.063 Goal=   None    Shift=    0.000
 Gap=     0.109 Goal=   None    Shift=    0.000
 RMSDP=2.10D-05 MaxDP=1.14D-03 DE=-5.31D-05 OVMax= 3.52D-03

 Cycle   4  Pass 0  IDiag  1:
 RMSU=  1.36D-05    CP:  1.00D+00  1.08D+00  5.40D-01
 E= -1682.64577768573     Delta-E=       -0.000042416147 Rises=F Damp=F
 DIIS: error= 7.13D-05 at cycle   4 NSaved=   4.
 NSaved= 4 IEnMin= 4 EnMin= -1682.64577768573     IErMin= 4 ErrMin= 7.13D-05
 ErrMax= 7.13D-05  0.00D+00 EMaxC= 1.00D-01 BMatC= 2.69D-05 BMatP= 1.80D-04
 IDIUse=1 WtCom= 1.00D+00 WtEn= 0.00D+00
 Coeff-Com: -0.185D-01 0.207D+00 0.289D+00 0.522D+00
 Coeff:     -0.185D-01 0.207D+00 0.289D+00 0.522D+00
 Gap=     0.063 Goal=   None    Shift=    0.000
 Gap=     0.109 Goal=   None    Shift=    0.000
 RMSDP=8.18D-06 MaxDP=4.94D-04 DE=-4.24D-05 OVMax= 1.38D-03

 Initial convergence to 1.0D-05 achieved.  Increase integral accuracy.
 Cycle   5  Pass 1  IDiag  1:
 E= -1682.64582788167     Delta-E=       -0.000050195938 Rises=F Damp=F
 DIIS: error= 1.30D-04 at cycle   1 NSaved=   1.
 NSaved= 1 IEnMin= 1 EnMin= -1682.64582788167     IErMin= 1 ErrMin= 1.30D-04
 ErrMax= 1.30D-04  0.00D+00 EMaxC= 1.00D-01 BMatC= 1.82D-05 BMatP= 1.82D-05
 IDIUse=3 WtCom= 9.99D-01 WtEn= 1.30D-03
 Coeff-Com:  0.100D+01
 Coeff-En:   0.100D+01
 Coeff:      0.100D+01
 Gap=     0.063 Goal=   None    Shift=    0.000
 Gap=     0.109 Goal=   None    Shift=    0.000
 RMSDP=8.18D-06 MaxDP=4.94D-04 DE=-5.02D-05 OVMax= 1.98D-03

 Cycle   6  Pass 1  IDiag  1:
 RMSU=  7.58D-05    CP:  1.00D+00
 E= -1682.64582156843     Delta-E=        0.000006313238 Rises=F Damp=F
 DIIS: error= 1.28D-04 at cycle   2 NSaved=   2.
 NSaved= 2 IEnMin= 1 EnMin= -1682.64582788167     IErMin= 2 ErrMin= 1.28D-04
 ErrMax= 1.28D-04  0.00D+00 EMaxC= 1.00D-01 BMatC= 4.11D-05 BMatP= 1.82D-05
 IDIUse=3 WtCom= 4.69D-01 WtEn= 5.31D-01
 Coeff-Com:  0.628D+00 0.372D+00
 Coeff-En:   0.721D+00 0.279D+00
 Coeff:      0.677D+00 0.323D+00
 Gap=     0.063 Goal=   None    Shift=    0.000
 Gap=     0.109 Goal=   None    Shift=    0.000
 RMSDP=8.57D-06 MaxDP=7.50D-04 DE= 6.31D-06 OVMax= 1.76D-03

 Cycle   7  Pass 1  IDiag  1:
 RMSU=  8.54D-06    CP:  1.00D+00  9.90D-01
 E= -1682.64583146676     Delta-E=       -0.000009898333 Rises=F Damp=F
 DIIS: error= 2.94D-05 at cycle   3 NSaved=   3.
 NSaved= 3 IEnMin= 3 EnMin= -1682.64583146676     IErMin= 3 ErrMin= 2.94D-05
 ErrMax= 2.94D-05  0.00D+00 EMaxC= 1.00D-01 BMatC= 2.33D-06 BMatP= 1.82D-05
 IDIUse=1 WtCom= 1.00D+00 WtEn= 0.00D+00
 Coeff-Com:  0.414D-01 0.188D+00 0.771D+00
 Coeff:      0.414D-01 0.188D+00 0.771D+00
 Gap=     0.063 Goal=   None    Shift=    0.000
 Gap=     0.109 Goal=   None    Shift=    0.000
 RMSDP=2.26D-06 MaxDP=1.88D-04 DE=-9.90D-06 OVMax= 3.92D-04

 Cycle   8  Pass 1  IDiag  1:
 RMSU=  1.54D-06    CP:  1.00D+00  9.98D-01  8.21D-01
 E= -1682.64583189614     Delta-E=       -0.000000429373 Rises=F Damp=F
 DIIS: error= 1.08D-05 at cycle   4 NSaved=   4.
 NSaved= 4 IEnMin= 4 EnMin= -1682.64583189614     IErMin= 4 ErrMin= 1.08D-05
 ErrMax= 1.08D-05  0.00D+00 EMaxC= 1.00D-01 BMatC= 6.59D-07 BMatP= 2.33D-06
 IDIUse=1 WtCom= 1.00D+00 WtEn= 0.00D+00
 Coeff-Com: -0.201D-02 0.104D+00 0.498D+00 0.400D+00
 Coeff:     -0.201D-02 0.104D+00 0.498D+00 0.400D+00
 Gap=     0.063 Goal=   None    Shift=    0.000
 Gap=     0.109 Goal=   None    Shift=    0.000
 RMSDP=1.01D-06 MaxDP=7.93D-05 DE=-4.29D-07 OVMax= 1.98D-04

 Cycle   9  Pass 1  IDiag  1:
 RMSU=  5.00D-07    CP:  1.00D+00  1.00D+00  8.27D-01  4.40D-01
 E= -1682.64583205765     Delta-E=       -0.000000161512 Rises=F Damp=F
 DIIS: error= 3.46D-06 at cycle   5 NSaved=   5.
 NSaved= 5 IEnMin= 5 EnMin= -1682.64583205765     IErMin= 5 ErrMin= 3.46D-06
 ErrMax= 3.46D-06  0.00D+00 EMaxC= 1.00D-01 BMatC= 2.81D-08 BMatP= 6.59D-07
 IDIUse=1 WtCom= 1.00D+00 WtEn= 0.00D+00
 Coeff-Com: -0.300D-02 0.590D-01 0.291D+00 0.257D+00 0.396D+00
 Coeff:     -0.300D-02 0.590D-01 0.291D+00 0.257D+00 0.396D+00
 Gap=     0.063 Goal=   None    Shift=    0.000
 Gap=     0.109 Goal=   None    Shift=    0.000
 RMSDP=2.39D-07 MaxDP=1.42D-05 DE=-1.62D-07 OVMax= 4.98D-05

 Cycle  10  Pass 1  IDiag  1:
 RMSU=  1.85D-07    CP:  1.00D+00  1.00D+00  8.29D-01  4.70D-01  7.16D-01
 E= -1682.64583206615     Delta-E=       -0.000000008498 Rises=F Damp=F
 DIIS: error= 1.17D-06 at cycle   6 NSaved=   6.
 NSaved= 6 IEnMin= 6 EnMin= -1682.64583206615     IErMin= 6 ErrMin= 1.17D-06
 ErrMax= 1.17D-06  0.00D+00 EMaxC= 1.00D-01 BMatC= 2.39D-09 BMatP= 2.81D-08
 IDIUse=1 WtCom= 1.00D+00 WtEn= 0.00D+00
 Coeff-Com: -0.883D-03 0.252D-02 0.193D-01 0.255D-01 0.135D+00 0.819D+00
 Coeff:     -0.883D-03 0.252D-02 0.193D-01 0.255D-01 0.135D+00 0.819D+00
 Gap=     0.063 Goal=   None    Shift=    0.000
 Gap=     0.109 Goal=   None    Shift=    0.000
 RMSDP=1.61D-07 MaxDP=1.39D-05 DE=-8.50D-09 OVMax= 6.01D-05

 Cycle  11  Pass 1  IDiag  1:
 RMSU=  1.20D-07    CP:  1.00D+00  1.00D+00  8.28D-01  4.69D-01  9.11D-01
                    CP:  1.25D+00
 E= -1682.64583206859     Delta-E=       -0.000000002448 Rises=F Damp=F
 DIIS: error= 8.63D-07 at cycle   7 NSaved=   7.
 NSaved= 7 IEnMin= 7 EnMin= -1682.64583206859     IErMin= 7 ErrMin= 8.63D-07
 ErrMax= 8.63D-07  0.00D+00 EMaxC= 1.00D-01 BMatC= 1.69D-09 BMatP= 2.39D-09
 IDIUse=1 WtCom= 1.00D+00 WtEn= 0.00D+00
 Coeff-Com:  0.153D-02-0.396D-01-0.187D+00-0.161D+00-0.233D+00 0.578D+00
 Coeff-Com:  0.104D+01
 Coeff:      0.153D-02-0.396D-01-0.187D+00-0.161D+00-0.233D+00 0.578D+00
 Coeff:      0.104D+01
 Gap=     0.063 Goal=   None    Shift=    0.000
 Gap=     0.109 Goal=   None    Shift=    0.000
 RMSDP=1.79D-07 MaxDP=1.21D-05 DE=-2.45D-09 OVMax= 4.36D-05

 Cycle  12  Pass 1  IDiag  1:
 RMSU=  7.12D-08    CP:  1.00D+00  1.00D+00  8.29D-01  4.94D-01  1.11D+00
                    CP:  1.91D+00  1.24D+00
 E= -1682.64583207048     Delta-E=       -0.000000001884 Rises=F Damp=F
 DIIS: error= 5.12D-07 at cycle   8 NSaved=   8.
 NSaved= 8 IEnMin= 8 EnMin= -1682.64583207048     IErMin= 8 ErrMin= 5.12D-07
 ErrMax= 5.12D-07  0.00D+00 EMaxC= 1.00D-01 BMatC= 3.42D-10 BMatP= 1.69D-09
 IDIUse=1 WtCom= 1.00D+00 WtEn= 0.00D+00
 Coeff-Com:  0.982D-03-0.228D-01-0.108D+00-0.940D-01-0.148D+00 0.238D+00
 Coeff-Com:  0.590D+00 0.544D+00
 Coeff:      0.982D-03-0.228D-01-0.108D+00-0.940D-01-0.148D+00 0.238D+00
 Coeff:      0.590D+00 0.544D+00
 Gap=     0.063 Goal=   None    Shift=    0.000
 Gap=     0.109 Goal=   None    Shift=    0.000
 RMSDP=4.25D-08 MaxDP=2.93D-06 DE=-1.88D-09 OVMax= 1.01D-05

 Cycle  13  Pass 1  IDiag  1:
 RMSU=  2.94D-08    CP:  1.00D+00  1.00D+00  8.29D-01  4.98D-01  1.15D+00
                    CP:  2.00D+00  1.37D+00  9.91D-01
 E= -1682.64583207059     Delta-E=       -0.000000000113 Rises=F Damp=F
 DIIS: error= 3.41D-07 at cycle   9 NSaved=   9.
 NSaved= 9 IEnMin= 9 EnMin= -1682.64583207059     IErMin= 9 ErrMin= 3.41D-07
 ErrMax= 3.41D-07  0.00D+00 EMaxC= 1.00D-01 BMatC= 9.90D-11 BMatP= 3.42D-10
 IDIUse=1 WtCom= 1.00D+00 WtEn= 0.00D+00
 Coeff-Com: -0.880D-04 0.395D-02 0.183D-01 0.156D-01 0.185D-01-0.126D+00
 Coeff-Com: -0.120D+00 0.326D+00 0.863D+00
 Coeff:     -0.880D-04 0.395D-02 0.183D-01 0.156D-01 0.185D-01-0.126D+00
 Coeff:     -0.120D+00 0.326D+00 0.863D+00
 Gap=     0.063 Goal=   None    Shift=    0.000
 Gap=     0.109 Goal=   None    Shift=    0.000
 RMSDP=3.25D-08 MaxDP=3.00D-06 DE=-1.13D-10 OVMax= 6.13D-06

 Cycle  14  Pass 1  IDiag  1:
 RMSU=  1.99D-08    CP:  1.00D+00  1.00D+00  8.29D-01  5.00D-01  1.16D+00
                    CP:  2.08D+00  1.45D+00  1.23D+00  1.02D+00
 E= -1682.64583207072     Delta-E=       -0.000000000124 Rises=F Damp=F
 DIIS: error= 1.76D-07 at cycle  10 NSaved=  10.
 NSaved=10 IEnMin=10 EnMin= -1682.64583207072     IErMin=10 ErrMin= 1.76D-07
 ErrMax= 1.76D-07  0.00D+00 EMaxC= 1.00D-01 BMatC= 4.39D-11 BMatP= 9.90D-11
 IDIUse=1 WtCom= 1.00D+00 WtEn= 0.00D+00
 Coeff-Com: -0.349D-03 0.935D-02 0.441D-01 0.381D-01 0.585D-01-0.157D+00
 Coeff-Com: -0.248D+00 0.472D-01 0.587D+00 0.622D+00
 Coeff:     -0.349D-03 0.935D-02 0.441D-01 0.381D-01 0.585D-01-0.157D+00
 Coeff:     -0.248D+00 0.472D-01 0.587D+00 0.622D+00
 Gap=     0.063 Goal=   None    Shift=    0.000
 Gap=     0.109 Goal=   None    Shift=    0.000
 RMSDP=1.52D-08 MaxDP=1.34D-06 DE=-1.24D-10 OVMax= 2.74D-06

 Cycle  15  Pass 1  IDiag  1:
 RMSU=  1.07D-08    CP:  1.00D+00  1.00D+00  8.29D-01  5.00D-01  1.17D+00
                    CP:  2.09D+00  1.49D+00  1.32D+00  1.25D+00  1.05D+00
 E= -1682.64583207077     Delta-E=       -0.000000000059 Rises=F Damp=F
 DIIS: error= 6.99D-08 at cycle  11 NSaved=  11.
 NSaved=11 IEnMin=11 EnMin= -1682.64583207077     IErMin=11 ErrMin= 6.99D-08
 ErrMax= 6.99D-08  0.00D+00 EMaxC= 1.00D-01 BMatC= 7.66D-12 BMatP= 4.39D-11
 IDIUse=1 WtCom= 1.00D+00 WtEn= 0.00D+00
 Coeff-Com: -0.174D-03 0.436D-02 0.205D-01 0.177D-01 0.296D-01-0.645D-01
 Coeff-Com: -0.107D+00-0.460D-01 0.149D+00 0.339D+00 0.657D+00
 Coeff:     -0.174D-03 0.436D-02 0.205D-01 0.177D-01 0.296D-01-0.645D-01
 Coeff:     -0.107D+00-0.460D-01 0.149D+00 0.339D+00 0.657D+00
 Gap=     0.063 Goal=   None    Shift=    0.000
 Gap=     0.109 Goal=   None    Shift=    0.000
 RMSDP=6.58D-09 MaxDP=4.08D-07 DE=-5.91D-11 OVMax= 1.21D-06

 SCF Done:  E(UB3LYP) =  -1682.64583207     A.U. after   15 cycles
            NFock= 15  Conv=0.66D-08     -V/T= 2.0082
 <Sx>= 0.0000 <Sy>= 0.0000 <Sz>= 0.5000 <S**2>= 0.7610 S= 0.5055
 <L.S>= 0.000000000000E+00
 KE= 1.669024925076D+03 PE=-1.008698531534D+04 EE= 3.665982758030D+03
 Annihilation of the first spin contaminant:
 S**2 before annihilation     0.7610,   after     0.7501
 Leave Link  502 at Thu Mar 14 10:10:20 2024, MaxMem= 32212254720 cpu:            1138.5 elap:              38.0
 (Enter /home/<user>/g16/l701.exe)
 ... and contract with generalized density number  0.
 Compute integral first derivatives.
 Leave Link  701 at Thu Mar 14 10:10:20 2024, MaxMem= 32212254720 cpu:               6.1 elap:               0.2
 (Enter /home/<user>/g16/l702.exe)
 L702 exits ... SP integral derivatives will be done elsewhere.
 Leave Link  702 at Thu Mar 14 10:10:20 2024, MaxMem= 32212254720 cpu:               0.7 elap:               0.0
 (Enter /home/<user>/g16/l703.exe)
 Integral derivatives from FoFJK, PRISM(SPDF).
 Compute integral first derivatives, UseDBF=F ICtDFT=           0.
 Calling FoFJK, ICntrl=      2127 FMM=F ISym2X=0 I1Cent= 0 IOpClX= 1 NMat=1 NMatS=1 NMatT=0.
 FoFJK:  IHMeth= 1 ICntrl=    2127 DoSepK=F KAlg= 0 I1Cent=           0 FoldK=F
 IRaf=         0 NMat=       1 IRICut=       1 DoRegI=T DoRafI=F ISym2E= 0 IDoP0=0 IntGTp=1.
 FoFCou: FMM=F IPFlag=           0 FMFlag=      100000 FMFlg1=         800
         NFxFlg=           0 DoJE=F BraDBF=F KetDBF=F FulRan=T
         wScrn=  0.000000 ICntrl=      2127 IOpCl=  1 I1Cent=           0 NGrid=           0
         NMat0=    1 NMatS0=      1 NMatT0=    0 NMatD0=    1 NMtDS0=    0 NMtDT0=    0
 Symmetry not used in FoFCou.
 Leave Link  703 at Thu Mar 14 10:10:27 2024, MaxMem= 32212254720 cpu:             197.0 elap:               6.6
 (Enter /home/<user>/g16/l716.exe)
 Dipole        =-8.56503393D-01-1.32912700D+00 1.90653489D-01
 ***** Axes restored to original set *****
 -------------------------------------------------------------------
 Center     Atomic                   Forces (Hartrees/Bohr)
 Number     Number              X              Y              Z
 -------------------------------------------------------------------
      1        6           0.000281420    0.000048406   -0.000264655
      2        6          -0.000249900    0.000100713    0.000698431
      3        6           0.001056029    0.000275169   -0.000295977
      4        6          -0.000055078    0.000102222    0.000043893
      5        6           0.000233232    0.000344772   -0.000092562
      6        6          -0.000519815   -0.000336160   -0.000005683
      7        1          -0.000290296   -0.000203067   -0.000160588
      8        1           0.000137493   -0.000399589   -0.000147413
      9        1           0.000072304    0.000095367    0.000080230
     10        6           0.000013543   -0.000158964   -0.000022465
     11        6           0.000372767    0.000172424   -0.000060855
     12        6          -0.000238133   -0.000140588    0.000050789
     13        6           0.000120561    0.000000083   -0.000000521
     14        6          -0.000256864    0.000024165    0.000005313
     15        6           0.000310211    0.000063417   -0.000037651
     16        6          -0.000508827   -0.000277951    0.000123568
     17        1          -0.000024118    0.000024301   -0.000007188
     18        1          -0.000064669   -0.000011734    0.000003286
     19        1           0.000002433   -0.000024437    0.000006279
     20        1          -0.000015978   -0.000012615   -0.000012721
     21        6          -0.000014651    0.000059765   -0.000051824
     22        1          -0.000008799   -0.000030753    0.000011700
     23        1          -0.000012531   -0.000033673   -0.000001278
     24        1          -0.000009947   -0.000011891   -0.000031904
     25        6          -0.000003559    0.000041433    0.000012276
     26        1          -0.000011671   -0.000008267    0.000018572
     27        1          -0.000024132   -0.000023687    0.000008187
     28        1          -0.000000970    0.000012650    0.000040092
     29        6          -0.001044183   -0.001412120   -0.000545589
     30        6           0.000196357    0.001603577    0.000070003
     31        6          -0.001178868    0.001259234    0.000142325
     32        6           0.000160774    0.001785575    0.000147253
     33        6           0.001235121    0.000774978    0.000081529
     34        1          -0.000118756   -0.000569487    0.000198662
     35        6           0.000887867   -0.001523779   -0.000425140
     36        1          -0.000166753   -0.000451644    0.000124392
     37        7           0.001924053    0.000231349    0.000329714
     38        7          -0.001435622    0.000509828    0.000274179
     39       16          -0.000117003   -0.001925661   -0.000334894
     40        6           0.000011035    0.000187541    0.000492790
     41        6          -0.000316409    0.000086723   -0.000154762
     42        6          -0.000775072    0.000289173   -0.000151461
     43        6           0.000224076   -0.000340142   -0.000007625
     44        1           0.000070904   -0.000135031   -0.000104708
     45        6           0.000041382   -0.000025223    0.000009781
     46        1          -0.000095080   -0.000225694   -0.000088802
     47        6           0.000176387    0.000214553   -0.000020172
     48        1          -0.000032578    0.000072366    0.000053224
     49        1          -0.000044659   -0.000033455   -0.000023430
     50        6           0.000030718   -0.000049662   -0.000077512
     51        1           0.000013728    0.000022135    0.000036902
     52        1          -0.000023435    0.000018940    0.000045408
     53        6           0.000131951    0.000015334   -0.000041389
     54        1           0.000015148   -0.000029185    0.000028704
     55        1          -0.000043650   -0.000048522   -0.000058207
     56        7          -0.000105159    0.000004283    0.000204322
     57        1          -0.000024655   -0.000060801   -0.000084741
     58        1           0.000112323    0.000063306   -0.000030086
 -------------------------------------------------------------------
 Cartesian Forces:  Max     0.001925661 RMS     0.000440428
 Leave Link  716 at Thu Mar 14 10:10:27 2024, MaxMem= 32212254720 cpu:               0.7 elap:               0.0
 (Enter /home/<user>/g16/l103.exe)

 GradGradGradGradGradGradGradGradGradGradGradGradGradGradGradGradGradGrad
 Berny optimization.
 Using GEDIIS/GDIIS optimizer.
 FormGI is forming the generalized inverse of G from B-inverse, IUseBI=4.
 GSVD:  received Info=                   1 from GESDD.
 Internal  Forces:  Max     0.002698084 RMS     0.000378902
 Search for a local minimum.
 Step number   4 out of a maximum of  346
 All quantities printed in internal units (Hartrees-Bohrs-Radians)
 RMS Force = .37890D-03 SwitMx=.10000D-02 MixMth= 2
 Mixed Optimization -- En-DIIS/RFO-DIIS
 Swapping is turned off.
 Update second derivatives using D2CorX and points    2    3    4
 DE= -1.39D-04 DEPred=-2.11D-04 R= 6.60D-01
 TightC=F SS=  1.41D+00  RLast= 1.49D-01 DXNew= 1.4270D+00 4.4597D-01
 Trust test= 6.60D-01 RLast= 1.49D-01 DXMaxT set to 8.49D-01
 ITU=  1  1  1  0
     Eigenvalues ---    0.00230   0.00230   0.00251   0.00611   0.00641
     Eigenvalues ---    0.00755   0.00865   0.01032   0.01259   0.01459
     Eigenvalues ---    0.01464   0.01604   0.01620   0.01636   0.01649
     Eigenvalues ---    0.01681   0.01697   0.01726   0.01754   0.01814
     Eigenvalues ---    0.01881   0.01927   0.02018   0.02037   0.02045
     Eigenvalues ---    0.02072   0.02085   0.02088   0.02094   0.02094
     Eigenvalues ---    0.02112   0.02116   0.02119   0.02124   0.02131
     Eigenvalues ---    0.02134   0.02143   0.02145   0.02147   0.02158
     Eigenvalues ---    0.02159   0.02161   0.02240   0.02300   0.04017
     Eigenvalues ---    0.04221   0.04426   0.04629   0.05426   0.05434
     Eigenvalues ---    0.05439   0.05495   0.05497   0.05530   0.05941
     Eigenvalues ---    0.08011   0.09079   0.09317   0.11624   0.12681
     Eigenvalues ---    0.12847   0.15202   0.15962   0.15991   0.15997
     Eigenvalues ---    0.15999   0.16000   0.16000   0.16000   0.16000
     Eigenvalues ---    0.16000   0.16000   0.16000   0.16000   0.16000
     Eigenvalues ---    0.16000   0.16000   0.16000   0.16000   0.16005
     Eigenvalues ---    0.16011   0.16269   0.18951   0.19713   0.21919
     Eigenvalues ---    0.21983   0.22003   0.22019   0.22443   0.22450
     Eigenvalues ---    0.22636   0.22955   0.23634   0.24174   0.24525
     Eigenvalues ---    0.24700   0.24945   0.24967   0.24989   0.24994
     Eigenvalues ---    0.24995   0.24998   0.24999   0.26568   0.28055
     Eigenvalues ---    0.28085   0.28471   0.28609   0.29029   0.31231
     Eigenvalues ---    0.31877   0.33125   0.33306   0.33786   0.34028
     Eigenvalues ---    0.34090   0.34100   0.34104   0.34113   0.34132
     Eigenvalues ---    0.34277   0.34289   0.34558   0.34828   0.35033
     Eigenvalues ---    0.35050   0.35084   0.35148   0.35151   0.35161
     Eigenvalues ---    0.35186   0.35190   0.35212   0.35284   0.35453
     Eigenvalues ---    0.35581   0.35616   0.35915   0.36901   0.37756
     Eigenvalues ---    0.38099   0.39062   0.40592   0.41404   0.41510
     Eigenvalues ---    0.41573   0.41731   0.42086   0.42651   0.43424
     Eigenvalues ---    0.44362   0.44523   0.44542   0.44849   0.44948
     Eigenvalues ---    0.45000   0.45812   0.45899   0.46054   0.46086
     Eigenvalues ---    0.46210   0.46923   0.47163   0.47270   0.48562
     Eigenvalues ---    0.49623   0.54579   0.57773
 En-DIIS/RFO-DIIS/Sim-DIIS IScMMF=       -3 using points:     4    3    2
 RFO step:  Lambda=-1.39137092D-04.
 NNeg= 0 NGDIIS= 3 SimSw=  2.50D-01 Rises=F DC= -1.39D-04 SmlDif=  1.00D-05
 NRisDI= 0 DoIntr=F SqrtH=F CThrHd= 10.0 CDAdj=  3.0
 RMS Error=  0.3122602053D-02 NUsed= 3 OKEnD=T EnDIS=F
 InvSVX:  RCond= 7.00D-04 Info=           0 Equed=N FErr=  1.34D-14 BErr=  1.00D-16
 DidBck=T Rises=F RFO-DIIS coefs:    0.78535    0.37890   -0.16425
 Iteration  1 RMS(Cart)=  0.02299890 RMS(Int)=  0.00004224
 Iteration  2 RMS(Cart)=  0.00018580 RMS(Int)=  0.00000506
 Iteration  3 RMS(Cart)=  0.00000001 RMS(Int)=  0.00000506
 ITry= 1 IFail=0 DXMaxC= 9.35D-02 DCOld= 1.00D+10 DXMaxT= 8.49D-01 DXLimC= 3.00D+00 Rises=F
 Variable       Old X    -DE/DX   Delta X   Delta X   Delta X     New X
                                 (Linear)    (Quad)   (Total)
    R1        2.68855   0.00007   0.00143  -0.00132   0.00011   2.68865
    R2        2.62504   0.00049  -0.00036   0.00097   0.00060   2.62564
    R3        2.04483  -0.00029  -0.00064   0.00034  -0.00030   2.04453
    R4        2.69198  -0.00057   0.00090  -0.00152  -0.00062   2.69136
    R5        2.76896  -0.00031  -0.00006  -0.00097  -0.00103   2.76793
    R6        2.61247   0.00015  -0.00026   0.00026  -0.00000   2.61247
    R7        2.05207   0.00037   0.00006   0.00046   0.00052   2.05259
    R8        2.66571   0.00006  -0.00017   0.00038   0.00021   2.66591
    R9        2.89377   0.00015  -0.00002   0.00039   0.00038   2.89415
   R10        2.64622  -0.00007   0.00032  -0.00051  -0.00019   2.64603
   R11        2.75566   0.00034  -0.00089   0.00149   0.00060   2.75627
   R12        2.05752   0.00004   0.00010  -0.00004   0.00006   2.05758
   R13        2.89189  -0.00001   0.00009  -0.00013  -0.00004   2.89185
   R14        2.91892  -0.00007   0.00012  -0.00033  -0.00020   2.91871
   R15        2.91870  -0.00007   0.00010  -0.00029  -0.00019   2.91851
   R16        2.62174   0.00028  -0.00042   0.00080   0.00038   2.62212
   R17        2.67505  -0.00010   0.00041  -0.00052  -0.00012   2.67494
   R18        2.65293   0.00001   0.00021  -0.00021   0.00000   2.65293
   R19        2.05759  -0.00002   0.00011  -0.00017  -0.00006   2.05753
   R20        2.64221   0.00002  -0.00008   0.00009   0.00001   2.64222
   R21        2.05485   0.00006  -0.00000   0.00010   0.00010   2.05495
   R22        2.64059   0.00020  -0.00009   0.00039   0.00029   2.64088
   R23        2.05643  -0.00002   0.00013  -0.00018  -0.00006   2.05638
   R24        2.64641  -0.00005   0.00026  -0.00040  -0.00014   2.64627
   R25        2.05520  -0.00001   0.00004  -0.00006  -0.00002   2.05518
   R26        2.07419   0.00003   0.00009  -0.00007   0.00002   2.07421
   R27        2.07192   0.00000   0.00002  -0.00002   0.00000   2.07192
   R28        2.06890  -0.00003   0.00006  -0.00011  -0.00006   2.06884
   R29        2.07206  -0.00001   0.00002  -0.00004  -0.00002   2.07204
   R30        2.07416   0.00003   0.00009  -0.00005   0.00003   2.07419
   R31        2.06909  -0.00003   0.00006  -0.00013  -0.00007   2.06902
   R32        2.71722   0.00197   0.00011   0.00282   0.00294   2.72015
   R33        2.67668  -0.00100   0.00220  -0.00333  -0.00113   2.67555
   R34        2.78811   0.00065   0.00237  -0.00112   0.00125   2.78936
   R35        2.53404  -0.00070   0.00028  -0.00122  -0.00094   2.53310
   R36        2.62118   0.00035  -0.00357   0.00432   0.00075   2.62193
   R37        2.05111   0.00049  -0.00003   0.00073   0.00069   2.05181
   R38        2.70875   0.00140  -0.00074   0.00297   0.00223   2.71097
   R39        2.53762  -0.00082   0.00031  -0.00133  -0.00102   2.53660
   R40        2.67067  -0.00082   0.00177  -0.00262  -0.00086   2.66982
   R41        2.05238   0.00033   0.00009   0.00031   0.00040   2.05278
   R42        2.78157  -0.00063  -0.00006  -0.00130  -0.00136   2.78021
   R43        3.17399  -0.00130   0.00285  -0.00451  -0.00166   3.17233
   R44        3.17363  -0.00153   0.00271  -0.00467  -0.00195   3.17167
   R45        2.67442  -0.00008   0.00099  -0.00108  -0.00009   2.67433
   R46        2.67602  -0.00039   0.00055  -0.00090  -0.00035   2.67567
   R47        2.62922   0.00034  -0.00021   0.00064   0.00044   2.62966
   R48        2.04550  -0.00013  -0.00041   0.00030  -0.00011   2.04539
   R49        2.62801   0.00016  -0.00013   0.00020   0.00007   2.62808
   R50        2.05167   0.00020   0.00018   0.00002   0.00020   2.05188
   R51        2.64936  -0.00002   0.00011  -0.00021  -0.00010   2.64926
   R52        2.06021   0.00002   0.00018  -0.00018  -0.00000   2.06021
   R53        2.64848   0.00017  -0.00023   0.00057   0.00033   2.64882
   R54        2.05965   0.00001   0.00020  -0.00023  -0.00003   2.05962
   R55        2.85788   0.00012  -0.00032   0.00059   0.00028   2.85815
   R56        2.07387  -0.00003   0.00020  -0.00029  -0.00009   2.07378
   R57        2.08040  -0.00003   0.00019  -0.00029  -0.00009   2.08031
   R58        2.90416   0.00004  -0.00025   0.00034   0.00010   2.90426
   R59        2.08689  -0.00002  -0.00001  -0.00004  -0.00006   2.08683
   R60        2.07290   0.00001   0.00000   0.00002   0.00002   2.07292
   R61        2.78355  -0.00002   0.00007   0.00008   0.00016   2.78371
   R62        1.92875   0.00000   0.00002   0.00002   0.00005   1.92880
   R63        1.92727   0.00003  -0.00006   0.00017   0.00011   1.92738
    A1        2.13268  -0.00025   0.00059  -0.00102  -0.00043   2.13225
    A2        2.06074   0.00028  -0.00063   0.00134   0.00071   2.06145
    A3        2.08974  -0.00003   0.00003  -0.00030  -0.00028   2.08946
    A4        2.03509   0.00019  -0.00174   0.00200   0.00027   2.03536
    A5        2.13958   0.00210   0.00336   0.00068   0.00404   2.14362
    A6        2.10849  -0.00229  -0.00167  -0.00271  -0.00438   2.10412
    A7        2.11453   0.00006   0.00109  -0.00104   0.00006   2.11459
    A8        2.08032  -0.00000  -0.00139   0.00230   0.00090   2.08122
    A9        2.08768  -0.00006   0.00030  -0.00119  -0.00090   2.08678
   A10        2.11281   0.00003   0.00018   0.00006   0.00025   2.11305
   A11        2.24044  -0.00005  -0.00005  -0.00024  -0.00028   2.24016
   A12        1.92985   0.00002  -0.00014   0.00019   0.00005   1.92991
   A13        2.07665  -0.00010  -0.00059   0.00016  -0.00043   2.07621
   A14        1.90030  -0.00009   0.00021  -0.00037  -0.00016   1.90014
   A15        2.30612   0.00019   0.00038   0.00022   0.00060   2.30672
   A16        2.09426   0.00007   0.00050  -0.00010   0.00039   2.09465
   A17        2.08475  -0.00013   0.00003  -0.00077  -0.00074   2.08401
   A18        2.10418   0.00007  -0.00053   0.00088   0.00035   2.10452
   A19        1.76905  -0.00001   0.00012  -0.00020  -0.00007   1.76897
   A20        1.94494   0.00002  -0.00011   0.00038   0.00028   1.94521
   A21        1.94409   0.00003  -0.00016   0.00048   0.00032   1.94441
   A22        1.94200  -0.00001   0.00005  -0.00027  -0.00022   1.94177
   A23        1.94309   0.00000  -0.00001  -0.00010  -0.00011   1.94298
   A24        1.91713  -0.00003   0.00010  -0.00027  -0.00017   1.91696
   A25        2.25050  -0.00002   0.00010  -0.00017  -0.00006   2.25043
   A26        1.92838   0.00008  -0.00042   0.00065   0.00023   1.92861
   A27        2.10431  -0.00006   0.00032  -0.00048  -0.00017   2.10415
   A28        2.08585  -0.00002   0.00023  -0.00030  -0.00007   2.08578
   A29        2.10529   0.00004  -0.00022   0.00038   0.00016   2.10545
   A30        2.09204  -0.00002  -0.00001  -0.00008  -0.00009   2.09196
   A31        2.09465   0.00004  -0.00043   0.00062   0.00019   2.09484
   A32        2.09351  -0.00001   0.00017  -0.00023  -0.00007   2.09345
   A33        2.09502  -0.00003   0.00026  -0.00038  -0.00012   2.09490
   A34        2.10938  -0.00006   0.00027  -0.00045  -0.00018   2.10920
   A35        2.08799   0.00001  -0.00008   0.00014   0.00006   2.08805
   A36        2.08582   0.00005  -0.00020   0.00031   0.00012   2.08593
   A37        2.08125  -0.00000   0.00024  -0.00025  -0.00002   2.08124
   A38        2.09871  -0.00001   0.00003  -0.00013  -0.00010   2.09862
   A39        2.10322   0.00002  -0.00027   0.00038   0.00011   2.10333
   A40        1.89716  -0.00000   0.00022  -0.00026  -0.00004   1.89712
   A41        2.29510  -0.00009   0.00041  -0.00061  -0.00020   2.29489
   A42        2.09093   0.00010  -0.00063   0.00087   0.00024   2.09117
   A43        1.93735   0.00001   0.00026  -0.00030  -0.00003   1.93732
   A44        1.92996   0.00001  -0.00014   0.00025   0.00011   1.93006
   A45        1.93486  -0.00002  -0.00004  -0.00003  -0.00008   1.93479
   A46        1.88556  -0.00002   0.00015  -0.00032  -0.00017   1.88540
   A47        1.88948   0.00000   0.00001   0.00000   0.00001   1.88948
   A48        1.88486   0.00002  -0.00024   0.00041   0.00016   1.88502
   A49        1.92939  -0.00000  -0.00012   0.00016   0.00004   1.92942
   A50        1.93796   0.00000   0.00024  -0.00027  -0.00003   1.93793
   A51        1.93525  -0.00003  -0.00003  -0.00011  -0.00014   1.93511
   A52        1.88542  -0.00000   0.00016  -0.00020  -0.00004   1.88538
   A53        1.88492   0.00002  -0.00025   0.00039   0.00014   1.88505
   A54        1.88911   0.00001  -0.00000   0.00005   0.00005   1.88916
   A55        2.16189   0.00270   0.00342   0.00245   0.00588   2.16777
   A56        2.10919  -0.00243  -0.00395  -0.00054  -0.00448   2.10471
   A57        2.01205  -0.00026   0.00053  -0.00188  -0.00135   2.01070
   A58        2.11096  -0.00034  -0.00075   0.00067  -0.00009   2.11087
   A59        2.18967   0.00092  -0.00035   0.00201   0.00167   2.19134
   A60        1.98242  -0.00059   0.00103  -0.00266  -0.00164   1.98078
   A61        2.15718   0.00053   0.00011   0.00130   0.00139   2.15858
   A62        2.06917  -0.00004  -0.00120   0.00178   0.00057   2.06974
   A63        2.05483  -0.00047   0.00110  -0.00277  -0.00168   2.05315
   A64        2.11159  -0.00011  -0.00069   0.00116   0.00047   2.11206
   A65        1.98361  -0.00003   0.00176  -0.00236  -0.00060   1.98301
   A66        2.18787   0.00014  -0.00114   0.00122   0.00010   2.18796
   A67        2.15712   0.00036  -0.00006   0.00099   0.00092   2.15804
   A68        2.05694  -0.00050   0.00138  -0.00326  -0.00189   2.05506
   A69        2.06750   0.00014  -0.00128   0.00246   0.00117   2.06868
   A70        2.01615  -0.00018   0.00097  -0.00226  -0.00129   2.01486
   A71        2.15954   0.00132   0.00231   0.00070   0.00301   2.16255
   A72        2.10745  -0.00114  -0.00327   0.00158  -0.00169   2.10577
   A73        1.86805   0.00023  -0.00237   0.00422   0.00184   1.86989
   A74        1.86609   0.00002  -0.00276   0.00412   0.00135   1.86744
   A75        1.72461   0.00036   0.00235  -0.00331  -0.00096   1.72365
   A76        2.14636   0.00101   0.00240  -0.00059   0.00181   2.14817
   A77        2.11269  -0.00123  -0.00126  -0.00088  -0.00214   2.11055
   A78        2.02407   0.00022  -0.00120   0.00147   0.00028   2.02435
   A79        2.12039  -0.00017   0.00036  -0.00065  -0.00029   2.12010
   A80        2.07021   0.00013  -0.00048   0.00074   0.00026   2.07047
   A81        2.09258   0.00004   0.00011  -0.00009   0.00003   2.09260
   A82        2.13104  -0.00004   0.00091  -0.00107  -0.00016   2.13088
   A83        2.08173   0.00008  -0.00121   0.00223   0.00101   2.08275
   A84        2.07001  -0.00004   0.00031  -0.00114  -0.00083   2.06919
   A85        2.12954   0.00007   0.00023   0.00015   0.00038   2.12992
   A86        2.07476  -0.00010   0.00002  -0.00060  -0.00057   2.07419
   A87        2.07887   0.00003  -0.00026   0.00044   0.00019   2.07906
   A88        2.11921   0.00006  -0.00018   0.00055   0.00038   2.11958
   A89        2.08087  -0.00008   0.00019  -0.00071  -0.00052   2.08035
   A90        2.08306   0.00002  -0.00002   0.00017   0.00015   2.08321
   A91        2.04193  -0.00015  -0.00010  -0.00044  -0.00054   2.04139
   A92        2.12084   0.00016  -0.00005   0.00056   0.00051   2.12135
   A93        2.11937  -0.00001   0.00016  -0.00006   0.00011   2.11947
   A94        1.93685  -0.00003   0.00019  -0.00027  -0.00008   1.93677
   A95        1.91614  -0.00004  -0.00008   0.00006  -0.00001   1.91613
   A96        1.96933   0.00014  -0.00035   0.00087   0.00052   1.96985
   A97        1.85948   0.00004  -0.00014   0.00021   0.00007   1.85955
   A98        1.88565  -0.00007   0.00034  -0.00063  -0.00028   1.88537
   A99        1.89252  -0.00005   0.00005  -0.00029  -0.00024   1.89228
   A100       1.89625  -0.00001   0.00011  -0.00020  -0.00010   1.89615
   A101       1.90172  -0.00003   0.00030  -0.00050  -0.00020   1.90152
   A102       1.93466   0.00001   0.00001   0.00001   0.00002   1.93468
   A103       1.85848   0.00001   0.00006   0.00003   0.00010   1.85857
   A104       1.98804  -0.00000  -0.00041   0.00049   0.00009   1.98812
   A105       1.88167   0.00002  -0.00004   0.00012   0.00008   1.88175
   A106       1.89845  -0.00004  -0.00056   0.00044  -0.00012   1.89833
   A107       1.90606   0.00016  -0.00126   0.00224   0.00097   1.90703
   A108       1.84084  -0.00003  -0.00017   0.00012  -0.00006   1.84078
    D1       -0.02775   0.00018   0.00170   0.00313   0.00485  -0.02291
    D2        3.10647  -0.00009  -0.00180  -0.00032  -0.00212   3.10436
    D3        3.10560   0.00020   0.00037   0.00541   0.00579   3.11138
    D4       -0.04336  -0.00007  -0.00314   0.00196  -0.00118  -0.04454
    D5        0.01096  -0.00009  -0.00007  -0.00265  -0.00271   0.00825
    D6       -3.12875  -0.00009   0.00003  -0.00259  -0.00256  -3.13131
    D7       -3.12226  -0.00012   0.00129  -0.00497  -0.00367  -3.12593
    D8        0.02122  -0.00011   0.00139  -0.00491  -0.00352   0.01770
    D9        0.02634  -0.00016  -0.00205  -0.00211  -0.00417   0.02217
   D10       -3.07615  -0.00023  -0.00169  -0.00415  -0.00584  -3.08199
   D11       -3.10803   0.00008   0.00131   0.00126   0.00259  -3.10544
   D12        0.07267   0.00001   0.00167  -0.00078   0.00091   0.07358
   D13        0.35508   0.00024  -0.00362   0.00399   0.00036   0.35544
   D14       -2.77494  -0.00004  -0.00762  -0.00007  -0.00771  -2.78265
   D15       -2.79418  -0.00002  -0.00728   0.00042  -0.00684  -2.80103
   D16        0.35899  -0.00031  -0.01127  -0.00365  -0.01492   0.34407
   D17       -0.00854   0.00005   0.00080   0.00064   0.00143  -0.00710
   D18       -3.13501   0.00002   0.00120  -0.00134  -0.00014  -3.13515
   D19        3.09379   0.00013   0.00038   0.00276   0.00315   3.09694
   D20       -0.03268   0.00010   0.00079   0.00078   0.00157  -0.03111
   D21       -0.00939   0.00005   0.00089   0.00001   0.00090  -0.00849
   D22       -3.13632   0.00000   0.00026  -0.00021   0.00005  -3.13627
   D23        3.11954   0.00007   0.00055   0.00167   0.00222   3.12176
   D24       -0.00739   0.00003  -0.00008   0.00145   0.00137  -0.00603
   D25        3.13576  -0.00000  -0.00026   0.00026   0.00000   3.13576
   D26        1.06846   0.00001  -0.00034   0.00052   0.00018   1.06864
   D27       -1.07923   0.00001  -0.00028   0.00025  -0.00003  -1.07926
   D28        0.00800  -0.00003   0.00011  -0.00155  -0.00144   0.00656
   D29       -2.05930  -0.00002   0.00003  -0.00130  -0.00126  -2.06056
   D30        2.07620  -0.00001   0.00009  -0.00156  -0.00148   2.07472
   D31        0.00820  -0.00003  -0.00125   0.00097  -0.00028   0.00791
   D32       -3.13530  -0.00003  -0.00135   0.00091  -0.00044  -3.13574
   D33        3.13108   0.00002  -0.00045   0.00124   0.00079   3.13187
   D34       -0.01242   0.00002  -0.00055   0.00118   0.00064  -0.01178
   D35        0.00341  -0.00002   0.00001  -0.00068  -0.00067   0.00274
   D36       -3.13902   0.00001   0.00007  -0.00011  -0.00004  -3.13906
   D37       -3.12088  -0.00006  -0.00073  -0.00094  -0.00166  -3.12255
   D38        0.01987  -0.00004  -0.00067  -0.00037  -0.00103   0.01884
   D39        3.13726   0.00001  -0.00015   0.00087   0.00072   3.13798
   D40       -0.00587   0.00002  -0.00010   0.00113   0.00103  -0.00484
   D41       -1.07651   0.00002  -0.00018   0.00108   0.00090  -1.07561
   D42        2.06355   0.00003  -0.00013   0.00134   0.00121   2.06475
   D43        1.06835  -0.00002  -0.00002   0.00046   0.00044   1.06879
   D44       -2.07478  -0.00001   0.00002   0.00072   0.00074  -2.07404
   D45        3.08438  -0.00001   0.00083  -0.00175  -0.00092   3.08345
   D46       -1.10630  -0.00002   0.00109  -0.00218  -0.00109  -1.10739
   D47        0.98369  -0.00001   0.00067  -0.00153  -0.00086   0.98283
   D48        1.12390  -0.00001   0.00071  -0.00157  -0.00086   1.12304
   D49       -3.06678  -0.00002   0.00098  -0.00200  -0.00102  -3.06780
   D50       -0.97678  -0.00000   0.00055  -0.00135  -0.00080  -0.97758
   D51       -1.03579   0.00002   0.00062  -0.00106  -0.00044  -1.03624
   D52        1.05671   0.00001   0.00089  -0.00149  -0.00060   1.05611
   D53       -3.13647   0.00002   0.00046  -0.00084  -0.00038  -3.13685
   D54        1.10559   0.00001  -0.00130   0.00267   0.00137   1.10696
   D55       -3.08526   0.00001  -0.00102   0.00235   0.00133  -3.08393
   D56       -0.98436   0.00001  -0.00088   0.00216   0.00127  -0.98309
   D57        3.06620   0.00002  -0.00125   0.00265   0.00141   3.06761
   D58       -1.12464   0.00002  -0.00097   0.00233   0.00136  -1.12328
   D59        0.97625   0.00002  -0.00083   0.00214   0.00130   0.97755
   D60       -1.05793  -0.00001  -0.00112   0.00204   0.00092  -1.05701
   D61        1.03442  -0.00002  -0.00085   0.00172   0.00087   1.03529
   D62        3.13531  -0.00002  -0.00071   0.00153   0.00082   3.13612
   D63        3.14014   0.00001   0.00001   0.00049   0.00050   3.14063
   D64       -0.00105   0.00001   0.00006   0.00026   0.00032  -0.00073
   D65        0.00021   0.00000  -0.00004   0.00021   0.00017   0.00038
   D66       -3.14097   0.00000   0.00001  -0.00002  -0.00001  -3.14098
   D67        0.00190  -0.00000   0.00006  -0.00035  -0.00029   0.00161
   D68       -3.13897  -0.00002   0.00001  -0.00084  -0.00083  -3.13980
   D69       -3.14108   0.00000   0.00010  -0.00012  -0.00001  -3.14109
   D70        0.00123  -0.00002   0.00005  -0.00061  -0.00056   0.00068
   D71       -0.00105   0.00001   0.00002   0.00017   0.00019  -0.00086
   D72        3.14106  -0.00000   0.00003  -0.00011  -0.00009   3.14097
   D73        3.14014   0.00001  -0.00003   0.00039   0.00036   3.14050
   D74       -0.00093   0.00000  -0.00002   0.00011   0.00009  -0.00085
   D75        0.00044  -0.00000  -0.00001  -0.00014  -0.00015   0.00029
   D76       -3.14080  -0.00001   0.00002  -0.00030  -0.00028  -3.14108
   D77        3.14152   0.00000  -0.00001   0.00013   0.00012  -3.14155
   D78        0.00027  -0.00000   0.00002  -0.00002  -0.00000   0.00027
   D79        0.00100  -0.00001   0.00001  -0.00025  -0.00024   0.00077
   D80       -3.14053  -0.00001   0.00009  -0.00036  -0.00027  -3.14080
   D81       -3.14094  -0.00000  -0.00002  -0.00010  -0.00011  -3.14105
   D82        0.00072  -0.00001   0.00006  -0.00021  -0.00015   0.00057
   D83        3.14068  -0.00001  -0.00010  -0.00000  -0.00010   3.14058
   D84       -0.00183   0.00002  -0.00003   0.00062   0.00059  -0.00124
   D85       -0.00097  -0.00001  -0.00018   0.00011  -0.00007  -0.00104
   D86        3.13970   0.00002  -0.00011   0.00073   0.00062   3.14033
   D87        3.11499  -0.00017  -0.00256  -0.00390  -0.00644   3.10855
   D88       -0.00746  -0.00002   0.00160  -0.00465  -0.00304  -0.01049
   D89       -0.03759   0.00009   0.00125  -0.00003   0.00121  -0.03638
   D90        3.12314   0.00024   0.00541  -0.00079   0.00462   3.12776
   D91       -3.11400   0.00021   0.00223   0.00390   0.00616  -3.10784
   D92        0.09710  -0.00000   0.00249  -0.00140   0.00109   0.09819
   D93        0.03823  -0.00007  -0.00142   0.00014  -0.00127   0.03696
   D94       -3.03386  -0.00029  -0.00117  -0.00516  -0.00634  -3.04020
   D95        0.00020  -0.00001  -0.00004  -0.00025  -0.00029  -0.00010
   D96       -3.12557   0.00009   0.00376  -0.00211   0.00165  -3.12392
   D97        3.12478  -0.00013  -0.00375   0.00046  -0.00329   3.12149
   D98       -0.00099  -0.00003   0.00005  -0.00139  -0.00134  -0.00233
   D99        3.12377  -0.00005  -0.00263   0.00202  -0.00059   3.12318
   D100       0.00009   0.00009   0.00130   0.00129   0.00259   0.00268
   D101       0.00077   0.00001   0.00034   0.00007   0.00041   0.00118
   D102      -3.07864  -0.00018  -0.00012  -0.00361  -0.00372  -3.08237
   D103       3.07340   0.00024   0.00003   0.00550   0.00551   3.07891
   D104      -0.00602   0.00004  -0.00043   0.00182   0.00138  -0.00464
   D105       0.03777  -0.00007  -0.00104   0.00042  -0.00062   0.03715
   D106      -3.11429   0.00013   0.00259   0.00217   0.00474  -3.10955
   D107      -3.12160  -0.00018  -0.00528   0.00247  -0.00281  -3.12441
   D108       0.00953   0.00002  -0.00165   0.00422   0.00255   0.01208
   D109       0.00135  -0.00004  -0.00138   0.00073  -0.00065   0.00070
   D110      -3.12361   0.00006   0.00262  -0.00122   0.00139  -3.12222
   D111      -0.03935   0.00005   0.00093  -0.00035   0.00057  -0.03879
   D112       3.11237  -0.00016  -0.00258  -0.00204  -0.00463   3.10773
   D113       3.03971   0.00022   0.00145   0.00316   0.00462   3.04434
   D114      -0.09176   0.00002  -0.00205   0.00147  -0.00058  -0.09233
   D115      -0.40040  -0.00013   0.00406  -0.00137   0.00269  -0.39771
   D116       2.75426   0.00004   0.00764  -0.00091   0.00672   2.76098
   D117       2.73021   0.00008   0.00786   0.00045   0.00832   2.73852
   D118      -0.39832   0.00026   0.01144   0.00091   0.01235  -0.38598
   D119       0.00062  -0.00011  -0.00188  -0.00079  -0.00266  -0.00204
   D120      -0.00117   0.00009   0.00191   0.00001   0.00191   0.00074
   D121      -3.10809   0.00006   0.00161  -0.00061   0.00099  -3.10711
   D122       0.03973   0.00005   0.00311  -0.00281   0.00029   0.04002
   D123       0.02105  -0.00012  -0.00181  -0.00107  -0.00288   0.01817
   D124      -3.11431  -0.00013  -0.00031  -0.00326  -0.00358  -3.11789
   D125       3.10908  -0.00006  -0.00143  -0.00002  -0.00146   3.10762
   D126      -0.06327   0.00000  -0.00088   0.00046  -0.00043  -0.06370
   D127      -0.02032   0.00010   0.00186   0.00042   0.00229  -0.01804
   D128       3.09051   0.00016   0.00240   0.00091   0.00331   3.09382
   D129      -0.00942   0.00007   0.00058   0.00093   0.00150  -0.00792
   D130       3.12585   0.00006   0.00042   0.00099   0.00141   3.12727
   D131       3.12586   0.00008  -0.00094   0.00315   0.00221   3.12807
   D132      -0.02205   0.00007  -0.00109   0.00322   0.00212  -0.01993
   D133       0.00774  -0.00002  -0.00067   0.00040  -0.00027   0.00747
   D134       3.13772   0.00001  -0.00060   0.00113   0.00053   3.13825
   D135      -3.10330  -0.00008  -0.00117  -0.00014  -0.00131  -3.10461
   D136       0.02668  -0.00005  -0.00111   0.00060  -0.00051   0.02617
   D137      -0.00415   0.00002   0.00068  -0.00005   0.00063  -0.00352
   D138      -3.09723  -0.00003   0.00031  -0.00144  -0.00113  -3.09837
   D139      -3.13941   0.00003   0.00083  -0.00011   0.00072  -3.13869
   D140       0.05069  -0.00002   0.00046  -0.00151  -0.00104   0.04965
   D141       0.00499  -0.00005  -0.00063  -0.00061  -0.00124   0.00375
   D142       3.09812   0.00001  -0.00027   0.00081   0.00054   3.09865
   D143      -3.12498  -0.00008  -0.00070  -0.00133  -0.00203  -3.12701
   D144      -0.03185  -0.00002  -0.00034   0.00008  -0.00026  -0.03211
   D145      -2.62241   0.00002   0.00031   0.00069   0.00100  -2.62141
   D146      -0.57144   0.00003   0.00021   0.00082   0.00103  -0.57041
   D147       1.54165   0.00003  -0.00002   0.00109   0.00106   1.54271
   D148       0.56984  -0.00003  -0.00007  -0.00076  -0.00082   0.56902
   D149       2.62081  -0.00002  -0.00017  -0.00063  -0.00080   2.62001
   D150      -1.54929  -0.00002  -0.00040  -0.00036  -0.00077  -1.55005
   D151      -0.95411  -0.00001   0.00123  -0.00305  -0.00183  -0.95593
   D152       1.06402  -0.00001   0.00152  -0.00339  -0.00187   1.06215
   D153       3.13197  -0.00001   0.00166  -0.00354  -0.00188   3.13009
   D154      -3.10199  -0.00002   0.00097  -0.00284  -0.00187  -3.10386
   D155      -1.08387  -0.00002   0.00126  -0.00317  -0.00191  -1.08578
   D156       0.98409  -0.00002   0.00140  -0.00333  -0.00192   0.98216
   D157       1.17236  -0.00000   0.00093  -0.00261  -0.00168   1.17069
   D158      -3.09270  -0.00001   0.00122  -0.00294  -0.00172  -3.09442
   D159      -1.02474   0.00000   0.00136  -0.00310  -0.00173  -1.02648
   D160       1.14977  -0.00007   0.00078  -0.00736  -0.00659   1.14319
   D161      -3.13269  -0.00004  -0.00042  -0.00579  -0.00621  -3.13890
   D162      -0.99508  -0.00006   0.00093  -0.00747  -0.00654  -1.00162
   D163       1.00564  -0.00003  -0.00027  -0.00590  -0.00616   0.99948
   D164      -3.05335  -0.00009   0.00112  -0.00789  -0.00677  -3.06012
   D165      -1.05263  -0.00006  -0.00007  -0.00632  -0.00639  -1.05902
         Item               Value     Threshold  Converged?
 Maximum Force            0.002698     0.000450     NO 
 RMS     Force            0.000379     0.000300     NO 
 Maximum Displacement     0.093545     0.001800     NO 
 RMS     Displacement     0.022985     0.001200     NO 
 Predicted change in Energy=-6.719920D-05
 Lowest energy point so far.  Saving SCF results.
 GradGradGradGradGradGradGradGradGradGradGradGradGradGradGradGradGradGrad

 Leave Link  103 at Thu Mar 14 10:10:27 2024, MaxMem= 32212254720 cpu:               2.6 elap:               0.1
 (Enter /home/<user>/g16/l202.exe)
 Stoichiometry    C29H25N3S(1-,2)
 Framework group  C1[X(C29H25N3S)]
 Deg. of freedom   168
 Full point group                 C1      NOp   1
 RotChk:  IX=0 Diff= 8.51D-03
 Largest Abelian subgroup         C1      NOp   1
 Largest concise Abelian subgroup C1      NOp   1
                         Standard orientation:                         
 ---------------------------------------------------------------------
 Center     Atomic      Atomic             Coordinates (Angstroms)
 Number     Number       Type             X           Y           Z
 ---------------------------------------------------------------------
      1          6           0       -2.488548    1.677804   -0.291320
      2          6           0       -1.790467    0.444232   -0.167764
      3          6           0       -2.585607   -0.723909    0.009879
      4          6           0       -3.966062   -0.652915    0.032133
      5          6           0       -4.634006    0.581289   -0.112006
      6          6           0       -3.876029    1.748041   -0.269401
      7          1           0       -1.907285    2.583991   -0.398575
      8          1           0       -2.095632   -1.680841    0.164806
      9          1           0       -4.364112    2.715336   -0.377377
     10          6           0       -4.973281   -1.791485    0.218461
     11          6           0       -6.300904   -1.033477    0.150154
     12          6           0       -7.593529   -1.527743    0.250967
     13          6           0       -8.680679   -0.644125    0.160520
     14          6           0       -8.457168    0.723065   -0.028718
     15          6           0       -7.158665    1.229524   -0.130618
     16          6           0       -6.072435    0.350197   -0.042024
     17          1           0       -7.770646   -2.591740    0.399361
     18          1           0       -9.696713   -1.023835    0.237987
     19          1           0       -9.304489    1.402384   -0.097463
     20          1           0       -6.996163    2.294859   -0.277020
     21          6           0       -4.794537   -2.485534    1.586626
     22          1           0       -5.557027   -3.260609    1.737116
     23          1           0       -3.809139   -2.961894    1.651413
     24          1           0       -4.874967   -1.761902    2.404206
     25          6           0       -4.862444   -2.833424   -0.916119
     26          1           0       -3.877827   -3.315666   -0.900931
     27          1           0       -5.625257   -3.615323   -0.808868
     28          1           0       -4.992301   -2.359874   -1.894713
     29          6           0       -0.330419    0.348143   -0.234459
     30          6           0        0.564342    1.452981   -0.009219
     31          6           0        0.297414   -0.883614   -0.539747
     32          6           0        2.027802    1.265762   -0.053934
     33          6           0        1.673467   -1.056200   -0.581642
     34          1           0       -0.324926   -1.730156   -0.813529
     35          6           0        2.600359   -0.021830   -0.322855
     36          1           0        2.052228   -2.029156   -0.881499
     37          7           0        0.194910    2.709197    0.277616
     38          7           0        2.721357    2.387120    0.197737
     39         16           0        1.600640    3.605234    0.475477
     40          6           0        4.047064   -0.288461   -0.343990
     41          6           0        5.015104    0.719463   -0.567077
     42          6           0        4.548147   -1.599575   -0.157755
     43          6           0        6.373657    0.422956   -0.620393
     44          1           0        4.680548    1.741149   -0.692643
     45          6           0        5.908051   -1.885511   -0.212572
     46          1           0        3.856407   -2.407171    0.061927
     47          6           0        6.857440   -0.881490   -0.447824
     48          1           0        7.081294    1.230781   -0.808128
     49          1           0        6.242188   -2.911528   -0.059174
     50          6           0        8.339566   -1.182885   -0.452961
     51          1           0        8.533008   -2.195963   -0.827840
     52          1           0        8.858002   -0.491839   -1.135275
     53          6           0        8.978540   -1.061022    0.939455
     54          1           0        8.756420   -0.057442    1.343153
     55          1           0        8.500591   -1.781116    1.614963
     56          7           0       10.416023   -1.378455    0.886250
     57          1           0       10.888115   -0.670007    0.323214
     58          1           0       10.814393   -1.292753    1.821240
 ---------------------------------------------------------------------
 Rotational constants (GHZ):           0.3522420           0.0394159           0.0361081
 Leave Link  202 at Thu Mar 14 10:10:27 2024, MaxMem= 32212254720 cpu:               0.0 elap:               0.0
 (Enter /home/<user>/g16/l301.exe)
 Standard basis: 6-31G(d) (6D, 7F)
 Ernie: Thresh=  0.10000D-02 Tol=  0.10000D-05 Strict=F.
 There are   549 symmetry adapted cartesian basis functions of A   symmetry.
 There are   549 symmetry adapted basis functions of A   symmetry.
   549 basis functions,  1048 primitive gaussians,   549 cartesian basis functions
   119 alpha electrons      118 beta electrons
       nuclear repulsion energy      3068.9695019461 Hartrees.
 IExCor=  402 DFT=T Ex+Corr=B3LYP ExCW=0 ScaHFX=  0.200000
 ScaDFX=  0.800000  0.720000  1.000000  0.810000 ScalE2=  1.000000  1.000000
 IRadAn=      5 IRanWt=     -1 IRanGd=            0 ICorTp=0 IEmpDi=  4
 NAtoms=   58 NActive=   58 NUniq=   58 SFac= 1.00D+00 NAtFMM=   60 NAOKFM=F Big=F
 Integral buffers will be    131072 words long.
 Raffenetti 2 integral format.
 Two-electron integral symmetry is turned on.
 Leave Link  301 at Thu Mar 14 10:10:27 2024, MaxMem= 32212254720 cpu:               0.8 elap:               0.0
 (Enter /home/<user>/g16/l302.exe)
 NPDir=0 NMtPBC=     1 NCelOv=     1 NCel=       1 NClECP=     1 NCelD=      1
         NCelK=      1 NCelE2=     1 NClLst=     1 CellRange=     0.0.
 One-electron integrals computed using PRISM.
 One-electron integral symmetry used in STVInt
 NBasis=   549 RedAO= T EigKep=  2.68D-04  NBF=   549
 NBsUse=   549 1.00D-06 EigRej= -1.00D+00 NBFU=   549
 Precomputing XC quadrature grid using
 IXCGrd= 4 IRadAn=           5 IRanWt=          -1 IRanGd=           0 AccXCQ= 0.00D+00.
 Generated NRdTot=       0 NPtTot=           0 NUsed=           0 NTot=          32
 NSgBfM=   512   512   512   512   512 MxSgAt=    58 MxSgA2=    58.
 Leave Link  302 at Thu Mar 14 10:10:27 2024, MaxMem= 32212254720 cpu:              12.5 elap:               0.4
 (Enter /home/<user>/g16/l303.exe)
 DipDrv:  MaxL=1.
 Leave Link  303 at Thu Mar 14 10:10:27 2024, MaxMem= 32212254720 cpu:               1.4 elap:               0.1
 (Enter /home/<user>/g16/l401.exe)
 Initial guess from the checkpoint file:  "FBTP_E0opt.chk"
 B after Tr=     0.000000    0.000000   -0.000000
         Rot=    0.999999   -0.001478   -0.000049   -0.000073 Ang=  -0.17 deg.
 Guess basis will be translated and rotated to current coordinates.
 JPrj=2 DoOrth=T DoCkMO=T.
 Initial guess <Sx>= 0.0000 <Sy>= 0.0000 <Sz>= 0.5000 <S**2>= 0.7610 S= 0.5055
 Generating alternative initial guess.
 ExpMin= 1.17D-01 ExpMax= 2.19D+04 ExpMxC= 3.30D+03 IAcc=3 IRadAn=         5 AccDes= 0.00D+00
 Harris functional with IExCor=  402 and IRadAn=       5 diagonalized for initial guess.
 HarFok:  IExCor=  402 AccDes= 0.00D+00 IRadAn=         5 IDoV= 1 UseB2=F ITyADJ=14
 ICtDFT=  3500011 ScaDFX=  1.000000  1.000000  1.000000  1.000000
 FoFCou: FMM=F IPFlag=           0 FMFlag=      100000 FMFlg1=           0
         NFxFlg=           0 DoJE=T BraDBF=F KetDBF=T FulRan=T
         wScrn=  0.000000 ICntrl=       500 IOpCl=  0 I1Cent=   200000004 NGrid=           0
         NMat0=    1 NMatS0=      1 NMatT0=    0 NMatD0=    1 NMtDS0=    0 NMtDT0=    0
 Petite list used in FoFCou.
 Harris En= -1682.77819179074    
 Leave Link  401 at Thu Mar 14 10:10:29 2024, MaxMem= 32212254720 cpu:              47.2 elap:               1.6
 (Enter /home/<user>/g16/l502.exe)
 Integral symmetry usage will be decided dynamically.
 UHF open shell SCF:
 Using DIIS extrapolation, IDIIS=  1040.
 NGot= 32212254720 LenX= 32211628124 LenY= 32211326174
 Requested convergence on RMS density matrix=1.00D-08 within 128 cycles.
 Requested convergence on MAX density matrix=1.00D-06.
 Requested convergence on             energy=1.00D-06.
 No special actions if energy rises.
 Fock matrices will be formed incrementally for  20 cycles.
 Integral accuracy reduced to 1.0D-05 until final iterations.

 Cycle   1  Pass 0  IDiag  1:
 FoFJK:  IHMeth= 1 ICntrl=       0 DoSepK=F KAlg= 0 I1Cent=           0 FoldK=F
 IRaf= 550000000 NMat=       1 IRICut=       1 DoRegI=T DoRafI=F ISym2E= 0 IDoP0=0 IntGTp=1.
 FoFCou: FMM=F IPFlag=           0 FMFlag=      100000 FMFlg1=           0
         NFxFlg=           0 DoJE=F BraDBF=F KetDBF=F FulRan=T
         wScrn=  0.000000 ICntrl=         0 IOpCl=  1 I1Cent=           0 NGrid=           0
         NMat0=    1 NMatS0=      1 NMatT0=    0 NMatD0=    1 NMtDS0=    0 NMtDT0=    0
 Symmetry not used in FoFCou.
 E= -1682.64505833197    
 DIIS: error= 7.36D-04 at cycle   1 NSaved=   1.
 NSaved= 1 IEnMin= 1 EnMin= -1682.64505833197     IErMin= 1 ErrMin= 7.36D-04
 ErrMax= 7.36D-04  0.00D+00 EMaxC= 1.00D-01 BMatC= 1.83D-03 BMatP= 1.83D-03
 IDIUse=3 WtCom= 9.93D-01 WtEn= 7.36D-03
 Coeff-Com:  0.100D+01
 Coeff-En:   0.100D+01
 Coeff:      0.100D+01
 Gap=     1.870 Goal=   None    Shift=    0.000
 Gap=     1.932 Goal=   None    Shift=    0.000
 RMSDP=9.83D-05 MaxDP=2.14D-03              OVMax= 4.18D-03

 Cycle   2  Pass 0  IDiag  1:
 RMSU=  9.83D-05    CP:  1.00D+00
 E= -1682.64582980137     Delta-E=       -0.000771469399 Rises=F Damp=F
 DIIS: error= 5.35D-05 at cycle   2 NSaved=   2.
 NSaved= 2 IEnMin= 2 EnMin= -1682.64582980137     IErMin= 2 ErrMin= 5.35D-05
 ErrMax= 5.35D-05  0.00D+00 EMaxC= 1.00D-01 BMatC= 2.80D-05 BMatP= 1.83D-03
 IDIUse=1 WtCom= 1.00D+00 WtEn= 0.00D+00
 Coeff-Com: -0.577D-01 0.106D+01
 Coeff:     -0.577D-01 0.106D+01
 Gap=     0.063 Goal=   None    Shift=    0.000
 Gap=     0.109 Goal=   None    Shift=    0.000
 RMSDP=1.61D-05 MaxDP=8.31D-04 DE=-7.71D-04 OVMax= 2.08D-03

 Cycle   3  Pass 0  IDiag  1:
 RMSU=  1.59D-05    CP:  1.00D+00  1.02D+00
 E= -1682.64582342312     Delta-E=        0.000006378248 Rises=F Damp=F
 DIIS: error= 1.04D-04 at cycle   3 NSaved=   3.
 NSaved= 3 IEnMin= 2 EnMin= -1682.64582980137     IErMin= 2 ErrMin= 5.35D-05
 ErrMax= 1.04D-04  0.00D+00 EMaxC= 1.00D-01 BMatC= 6.22D-05 BMatP= 2.80D-05
 IDIUse=3 WtCom= 4.96D-01 WtEn= 5.04D-01
 Coeff-Com: -0.473D-01 0.675D+00 0.372D+00
 Coeff-En:   0.000D+00 0.628D+00 0.372D+00
 Coeff:     -0.234D-01 0.651D+00 0.372D+00
 Gap=     0.063 Goal=   None    Shift=    0.000
 Gap=     0.109 Goal=   None    Shift=    0.000
 RMSDP=1.07D-05 MaxDP=5.57D-04 DE= 6.38D-06 OVMax= 1.59D-03

 Cycle   4  Pass 0  IDiag  1:
 RMSU=  4.80D-06    CP:  1.00D+00  1.03D+00  4.04D-01
 E= -1682.64583987358     Delta-E=       -0.000016450458 Rises=F Damp=F
 DIIS: error= 2.86D-05 at cycle   4 NSaved=   4.
 NSaved= 4 IEnMin= 4 EnMin= -1682.64583987358     IErMin= 4 ErrMin= 2.86D-05
 ErrMax= 2.86D-05  0.00D+00 EMaxC= 1.00D-01 BMatC= 2.43D-06 BMatP= 2.80D-05
 IDIUse=1 WtCom= 1.00D+00 WtEn= 0.00D+00
 Coeff-Com: -0.204D-01 0.266D+00 0.212D+00 0.543D+00
 Coeff:     -0.204D-01 0.266D+00 0.212D+00 0.543D+00
 Gap=     0.063 Goal=   None    Shift=    0.000
 Gap=     0.109 Goal=   None    Shift=    0.000
 RMSDP=3.04D-06 MaxDP=2.98D-04 DE=-1.65D-05 OVMax= 8.43D-04

 Initial convergence to 1.0D-05 achieved.  Increase integral accuracy.
 Cycle   5  Pass 1  IDiag  1:
 E= -1682.64588867304     Delta-E=       -0.000048799462 Rises=F Damp=F
 DIIS: error= 1.29D-04 at cycle   1 NSaved=   1.
 NSaved= 1 IEnMin= 1 EnMin= -1682.64588867304     IErMin= 1 ErrMin= 1.29D-04
 ErrMax= 1.29D-04  0.00D+00 EMaxC= 1.00D-01 BMatC= 1.29D-05 BMatP= 1.29D-05
 IDIUse=3 WtCom= 9.99D-01 WtEn= 1.29D-03
 Coeff-Com:  0.100D+01
 Coeff-En:   0.100D+01
 Coeff:      0.100D+01
 Gap=     0.063 Goal=   None    Shift=    0.000
 Gap=     0.109 Goal=   None    Shift=    0.000
 RMSDP=3.04D-06 MaxDP=2.98D-04 DE=-4.88D-05 OVMax= 8.31D-04

 Cycle   6  Pass 1  IDiag  1:
 RMSU=  7.39D-05    CP:  1.00D+00
 E= -1682.64588965743     Delta-E=       -0.000000984395 Rises=F Damp=F
 DIIS: error= 4.81D-05 at cycle   2 NSaved=   2.
 NSaved= 2 IEnMin= 2 EnMin= -1682.64588965743     IErMin= 2 ErrMin= 4.81D-05
 ErrMax= 4.81D-05  0.00D+00 EMaxC= 1.00D-01 BMatC= 6.54D-06 BMatP= 1.29D-05
 IDIUse=1 WtCom= 1.00D+00 WtEn= 0.00D+00
 Coeff-Com:  0.369D+00 0.631D+00
 Coeff:      0.369D+00 0.631D+00
 Gap=     0.063 Goal=   None    Shift=    0.000
 Gap=     0.109 Goal=   None    Shift=    0.000
 RMSDP=6.88D-06 MaxDP=6.89D-04 DE=-9.84D-07 OVMax= 1.49D-03

 Cycle   7  Pass 1  IDiag  1:
 RMSU=  6.87D-06    CP:  1.00D+00  1.00D+00
 E= -1682.64588835358     Delta-E=        0.000001303859 Rises=F Damp=F
 DIIS: error= 6.73D-05 at cycle   3 NSaved=   3.
 NSaved= 3 IEnMin= 2 EnMin= -1682.64588965743     IErMin= 2 ErrMin= 4.81D-05
 ErrMax= 6.73D-05  0.00D+00 EMaxC= 1.00D-01 BMatC= 1.17D-05 BMatP= 6.54D-06
 IDIUse=1 WtCom= 1.00D+00 WtEn= 0.00D+00
 Coeff-Com:  0.414D-02 0.571D+00 0.424D+00
 Coeff:      0.414D-02 0.571D+00 0.424D+00
 Gap=     0.063 Goal=   None    Shift=    0.000
 Gap=     0.109 Goal=   None    Shift=    0.000
 RMSDP=3.92D-06 MaxDP=3.62D-04 DE= 1.30D-06 OVMax= 7.43D-04

 Cycle   8  Pass 1  IDiag  1:
 RMSU=  9.86D-07    CP:  1.00D+00  1.01D+00  4.54D-01
 E= -1682.64589134029     Delta-E=       -0.000002986711 Rises=F Damp=F
 DIIS: error= 8.52D-06 at cycle   4 NSaved=   4.
 NSaved= 4 IEnMin= 4 EnMin= -1682.64589134029     IErMin= 4 ErrMin= 8.52D-06
 ErrMax= 8.52D-06  0.00D+00 EMaxC= 1.00D-01 BMatC= 2.22D-07 BMatP= 6.54D-06
 IDIUse=1 WtCom= 1.00D+00 WtEn= 0.00D+00
 Coeff-Com: -0.389D-02 0.379D+00 0.288D+00 0.337D+00
 Coeff:     -0.389D-02 0.379D+00 0.288D+00 0.337D+00
 Gap=     0.063 Goal=   None    Shift=    0.000
 Gap=     0.109 Goal=   None    Shift=    0.000
 RMSDP=6.07D-07 MaxDP=5.63D-05 DE=-2.99D-06 OVMax= 1.69D-04

 Cycle   9  Pass 1  IDiag  1:
 RMSU=  2.09D-07    CP:  1.00D+00  1.01D+00  4.48D-01  4.25D-01
 E= -1682.64589139884     Delta-E=       -0.000000058557 Rises=F Damp=F
 DIIS: error= 1.25D-06 at cycle   5 NSaved=   5.
 NSaved= 5 IEnMin= 5 EnMin= -1682.64589139884     IErMin= 5 ErrMin= 1.25D-06
 ErrMax= 1.25D-06  0.00D+00 EMaxC= 1.00D-01 BMatC= 5.15D-09 BMatP= 2.22D-07
 IDIUse=1 WtCom= 1.00D+00 WtEn= 0.00D+00
 Coeff-Com: -0.261D-02 0.225D+00 0.170D+00 0.202D+00 0.406D+00
 Coeff:     -0.261D-02 0.225D+00 0.170D+00 0.202D+00 0.406D+00
 Gap=     0.063 Goal=   None    Shift=    0.000
 Gap=     0.109 Goal=   None    Shift=    0.000
 RMSDP=1.10D-07 MaxDP=1.19D-05 DE=-5.86D-08 OVMax= 3.02D-05

 Cycle  10  Pass 1  IDiag  1:
 RMSU=  1.02D-07    CP:  1.00D+00  1.01D+00  4.49D-01  4.56D-01  8.85D-01
 E= -1682.64589140028     Delta-E=       -0.000000001435 Rises=F Damp=F
 DIIS: error= 7.44D-07 at cycle   6 NSaved=   6.
 NSaved= 6 IEnMin= 6 EnMin= -1682.64589140028     IErMin= 6 ErrMin= 7.44D-07
 ErrMax= 7.44D-07  0.00D+00 EMaxC= 1.00D-01 BMatC= 8.84D-10 BMatP= 5.15D-09
 IDIUse=1 WtCom= 1.00D+00 WtEn= 0.00D+00
 Coeff-Com:  0.650D-03-0.684D-01-0.550D-01-0.876D-01 0.177D+00 0.103D+01
 Coeff:      0.650D-03-0.684D-01-0.550D-01-0.876D-01 0.177D+00 0.103D+01
 Gap=     0.063 Goal=   None    Shift=    0.000
 Gap=     0.109 Goal=   None    Shift=    0.000
 RMSDP=9.32D-08 MaxDP=8.43D-06 DE=-1.44D-09 OVMax= 3.02D-05

 Cycle  11  Pass 1  IDiag  1:
 RMSU=  6.13D-08    CP:  1.00D+00  1.01D+00  4.50D-01  4.78D-01  1.19D+00
                    CP:  1.20D+00
 E= -1682.64589140103     Delta-E=       -0.000000000751 Rises=F Damp=F
 DIIS: error= 2.64D-07 at cycle   7 NSaved=   7.
 NSaved= 7 IEnMin= 7 EnMin= -1682.64589140103     IErMin= 7 ErrMin= 2.64D-07
 ErrMax= 2.64D-07  0.00D+00 EMaxC= 1.00D-01 BMatC= 3.62D-10 BMatP= 8.84D-10
 IDIUse=1 WtCom= 1.00D+00 WtEn= 0.00D+00
 Coeff-Com:  0.149D-02-0.137D+00-0.107D+00-0.149D+00-0.108D-01 0.748D+00
 Coeff-Com:  0.654D+00
 Coeff:      0.149D-02-0.137D+00-0.107D+00-0.149D+00-0.108D-01 0.748D+00
 Coeff:      0.654D+00
 Gap=     0.063 Goal=   None    Shift=    0.000
 Gap=     0.109 Goal=   None    Shift=    0.000
 RMSDP=6.08D-08 MaxDP=4.94D-06 DE=-7.51D-10 OVMax= 2.05D-05

 Cycle  12  Pass 1  IDiag  1:
 RMSU=  3.31D-08    CP:  1.00D+00  1.01D+00  4.51D-01  4.92D-01  1.34D+00
                    CP:  1.52D+00  1.29D+00
 E= -1682.64589140129     Delta-E=       -0.000000000256 Rises=F Damp=F
 DIIS: error= 1.53D-07 at cycle   8 NSaved=   8.
 NSaved= 8 IEnMin= 8 EnMin= -1682.64589140129     IErMin= 8 ErrMin= 1.53D-07
 ErrMax= 1.53D-07  0.00D+00 EMaxC= 1.00D-01 BMatC= 4.29D-11 BMatP= 3.62D-10
 IDIUse=1 WtCom= 1.00D+00 WtEn= 0.00D+00
 Coeff-Com:  0.418D-03-0.365D-01-0.282D-01-0.376D-01-0.412D-01 0.422D-01
 Coeff-Com:  0.277D+00 0.824D+00
 Coeff:      0.418D-03-0.365D-01-0.282D-01-0.376D-01-0.412D-01 0.422D-01
 Coeff:      0.277D+00 0.824D+00
 Gap=     0.063 Goal=   None    Shift=    0.000
 Gap=     0.109 Goal=   None    Shift=    0.000
 RMSDP=2.41D-08 MaxDP=1.81D-06 DE=-2.56D-10 OVMax= 7.14D-06

 Cycle  13  Pass 1  IDiag  1:
 RMSU=  1.23D-08    CP:  1.00D+00  1.01D+00  4.51D-01  4.98D-01  1.39D+00
                    CP:  1.59D+00  1.52D+00  1.08D+00
 E= -1682.64589140130     Delta-E=       -0.000000000015 Rises=F Damp=F
 DIIS: error= 9.12D-08 at cycle   9 NSaved=   9.
 NSaved= 9 IEnMin= 9 EnMin= -1682.64589140130     IErMin= 9 ErrMin= 9.12D-08
 ErrMax= 9.12D-08  0.00D+00 EMaxC= 1.00D-01 BMatC= 1.79D-11 BMatP= 4.29D-11
 IDIUse=1 WtCom= 1.00D+00 WtEn= 0.00D+00
 Coeff-Com: -0.105D-03 0.109D-01 0.873D-02 0.138D-01-0.246D-01-0.159D+00
 Coeff-Com:  0.124D-01 0.479D+00 0.659D+00
 Coeff:     -0.105D-03 0.109D-01 0.873D-02 0.138D-01-0.246D-01-0.159D+00
 Coeff:      0.124D-01 0.479D+00 0.659D+00
 Gap=     0.063 Goal=   None    Shift=    0.000
 Gap=     0.109 Goal=   None    Shift=    0.000
 RMSDP=1.13D-08 MaxDP=7.83D-07 DE=-1.55D-11 OVMax= 2.27D-06

 Cycle  14  Pass 1  IDiag  1:
 RMSU=  8.79D-09    CP:  1.00D+00  1.01D+00  4.51D-01  4.98D-01  1.41D+00
                    CP:  1.62D+00  1.59D+00  1.20D+00  9.67D-01
 E= -1682.64589140130     Delta-E=       -0.000000000001 Rises=F Damp=F
 DIIS: error= 6.28D-08 at cycle  10 NSaved=  10.
 NSaved=10 IEnMin=10 EnMin= -1682.64589140130     IErMin=10 ErrMin= 6.28D-08
 ErrMax= 6.28D-08  0.00D+00 EMaxC= 1.00D-01 BMatC= 8.16D-12 BMatP= 1.79D-11
 IDIUse=1 WtCom= 1.00D+00 WtEn= 0.00D+00
 Coeff-Com: -0.188D-03 0.176D-01 0.138D-01 0.204D-01-0.511D-02-0.110D+00
 Coeff-Com: -0.655D-01 0.625D-01 0.454D+00 0.612D+00
 Coeff:     -0.188D-03 0.176D-01 0.138D-01 0.204D-01-0.511D-02-0.110D+00
 Coeff:     -0.655D-01 0.625D-01 0.454D+00 0.612D+00
 Gap=     0.063 Goal=   None    Shift=    0.000
 Gap=     0.109 Goal=   None    Shift=    0.000
 RMSDP=6.15D-09 MaxDP=4.38D-07 DE=-9.09D-13 OVMax= 1.04D-06

 SCF Done:  E(UB3LYP) =  -1682.64589140     A.U. after   14 cycles
            NFock= 14  Conv=0.62D-08     -V/T= 2.0082
 <Sx>= 0.0000 <Sy>= 0.0000 <Sz>= 0.5000 <S**2>= 0.7610 S= 0.5055
 <L.S>= 0.000000000000E+00
 KE= 1.669020436423D+03 PE=-1.008623882886D+04 EE= 3.665602999085D+03
 Annihilation of the first spin contaminant:
 S**2 before annihilation     0.7610,   after     0.7501
 Leave Link  502 at Thu Mar 14 10:11:04 2024, MaxMem= 32212254720 cpu:            1041.8 elap:              34.7
 (Enter /home/<user>/g16/l701.exe)
 ... and contract with generalized density number  0.
 Compute integral first derivatives.
 Leave Link  701 at Thu Mar 14 10:11:04 2024, MaxMem= 32212254720 cpu:               5.0 elap:               0.2
 (Enter /home/<user>/g16/l702.exe)
 L702 exits ... SP integral derivatives will be done elsewhere.
 Leave Link  702 at Thu Mar 14 10:11:04 2024, MaxMem= 32212254720 cpu:               0.7 elap:               0.0
 (Enter /home/<user>/g16/l703.exe)
 Integral derivatives from FoFJK, PRISM(SPDF).
 Compute integral first derivatives, UseDBF=F ICtDFT=           0.
 Calling FoFJK, ICntrl=      2127 FMM=F ISym2X=0 I1Cent= 0 IOpClX= 1 NMat=1 NMatS=1 NMatT=0.
 FoFJK:  IHMeth= 1 ICntrl=    2127 DoSepK=F KAlg= 0 I1Cent=           0 FoldK=F
 IRaf=         0 NMat=       1 IRICut=       1 DoRegI=T DoRafI=F ISym2E= 0 IDoP0=0 IntGTp=1.
 FoFCou: FMM=F IPFlag=           0 FMFlag=      100000 FMFlg1=         800
         NFxFlg=           0 DoJE=F BraDBF=F KetDBF=F FulRan=T
         wScrn=  0.000000 ICntrl=      2127 IOpCl=  1 I1Cent=           0 NGrid=           0
         NMat0=    1 NMatS0=      1 NMatT0=    0 NMatD0=    1 NMtDS0=    0 NMtDT0=    0
 Symmetry not used in FoFCou.
 Leave Link  703 at Thu Mar 14 10:11:11 2024, MaxMem= 32212254720 cpu:             198.3 elap:               6.6
 (Enter /home/<user>/g16/l716.exe)
 Dipole        =-8.49565536D-01-1.34738799D+00 1.93451934D-01
 ***** Axes restored to original set *****
 -------------------------------------------------------------------
 Center     Atomic                   Forces (Hartrees/Bohr)
 Number     Number              X              Y              Z
 -------------------------------------------------------------------
      1        6           0.000390546   -0.000089237    0.000086973
      2        6          -0.000071374    0.000185396   -0.000025087
      3        6           0.000213254   -0.000029177    0.000046877
      4        6          -0.000025839    0.000001004   -0.000026642
      5        6           0.000081492    0.000188018    0.000022422
      6        6          -0.000242821   -0.000070303   -0.000044718
      7        1           0.000051473    0.000027192   -0.000036726
      8        1          -0.000155029   -0.000001045   -0.000000120
      9        1           0.000036181    0.000045780    0.000032058
     10        6          -0.000009863   -0.000044671    0.000046624
     11        6           0.000174306    0.000095113   -0.000053273
     12        6          -0.000086747   -0.000042359    0.000010618
     13        6           0.000053852   -0.000007669   -0.000002007
     14        6          -0.000089647    0.000020197   -0.000005209
     15        6           0.000106448    0.000058671   -0.000008918
     16        6          -0.000201882   -0.000186593    0.000035305
     17        1          -0.000009353    0.000007560   -0.000002418
     18        1          -0.000035595   -0.000005527    0.000006971
     19        1          -0.000005913   -0.000010918    0.000003763
     20        1          -0.000004289   -0.000004707   -0.000003906
     21        6           0.000005196    0.000039181   -0.000019687
     22        1          -0.000010209   -0.000021570    0.000008279
     23        1          -0.000000734   -0.000016815    0.000006256
     24        1          -0.000003445   -0.000009702   -0.000003896
     25        6           0.000005497    0.000041090   -0.000018958
     26        1          -0.000000192   -0.000005607    0.000004560
     27        1          -0.000013425   -0.000011789    0.000010808
     28        1          -0.000001949   -0.000001591    0.000010087
     29        6          -0.000338980   -0.000796376   -0.000061954
     30        6           0.000000162    0.001095716    0.000186647
     31        6          -0.000311973    0.000594187   -0.000003796
     32        6           0.000265377    0.001092991    0.000058916
     33        6           0.000481100    0.000467365    0.000040139
     34        1           0.000263414   -0.000193376   -0.000018495
     35        6           0.000316200   -0.000905569   -0.000128154
     36        1          -0.000231144   -0.000169244    0.000008617
     37        7           0.000518834    0.000141487   -0.000055367
     38        7          -0.000653811    0.000331787    0.000057358
     39       16          -0.000268290   -0.001951067   -0.000206956
     40        6          -0.000059883    0.000205556    0.000073668
     41        6          -0.000199666    0.000038820    0.000004960
     42        6          -0.000206889    0.000020957    0.000007763
     43        6           0.000124312   -0.000146233   -0.000006998
     44        1          -0.000002725   -0.000029103   -0.000031448
     45        6           0.000017826   -0.000010919    0.000017608
     46        1           0.000059021   -0.000050473   -0.000028541
     47        6           0.000100108    0.000119953   -0.000032708
     48        1          -0.000002362    0.000049660    0.000026424
     49        1           0.000003336   -0.000031448   -0.000000547
     50        6           0.000006222   -0.000015194   -0.000017215
     51        1          -0.000002903   -0.000014822    0.000012721
     52        1          -0.000019487    0.000034401    0.000001098
     53        6           0.000134709   -0.000012882    0.000018084
     54        1           0.000018344   -0.000001873    0.000035968
     55        1          -0.000029025   -0.000033665   -0.000038269
     56        7          -0.000103447    0.000021376    0.000108259
     57        1          -0.000032389   -0.000050468   -0.000059130
     58        1           0.000004069    0.000048539   -0.000048688
 -------------------------------------------------------------------
 Cartesian Forces:  Max     0.001951067 RMS     0.000250036
 Leave Link  716 at Thu Mar 14 10:11:11 2024, MaxMem= 32212254720 cpu:               0.7 elap:               0.0
 (Enter /home/<user>/g16/l103.exe)

 GradGradGradGradGradGradGradGradGradGradGradGradGradGradGradGradGradGrad
 Berny optimization.
 Using GEDIIS/GDIIS optimizer.
 FormGI is forming the generalized inverse of G from B-inverse, IUseBI=4.
 GSVD:  received Info=                   1 from GESDD.
 Internal  Forces:  Max     0.001074603 RMS     0.000151945
 Search for a local minimum.
 Step number   5 out of a maximum of  346
 All quantities printed in internal units (Hartrees-Bohrs-Radians)
 RMS Force = .15195D-03 SwitMx=.10000D-02 MixMth= 2
 Mixed Optimization -- En-DIIS/RFO-DIIS
 Swapping is turned off.
 Update second derivatives using D2CorX and points    2    3    4    5
 DE= -5.93D-05 DEPred=-6.72D-05 R= 8.83D-01
 TightC=F SS=  1.41D+00  RLast= 4.09D-02 DXNew= 1.4270D+00 1.2261D-01
 Trust test= 8.83D-01 RLast= 4.09D-02 DXMaxT set to 8.49D-01
 ITU=  1  1  1  1  0
     Eigenvalues ---    0.00230   0.00230   0.00251   0.00610   0.00619
     Eigenvalues ---    0.00755   0.00889   0.01033   0.01259   0.01460
     Eigenvalues ---    0.01462   0.01604   0.01612   0.01635   0.01649
     Eigenvalues ---    0.01682   0.01700   0.01728   0.01758   0.01820
     Eigenvalues ---    0.01881   0.01917   0.02018   0.02034   0.02039
     Eigenvalues ---    0.02071   0.02085   0.02089   0.02094   0.02094
     Eigenvalues ---    0.02112   0.02114   0.02119   0.02123   0.02132
     Eigenvalues ---    0.02134   0.02141   0.02145   0.02147   0.02157
     Eigenvalues ---    0.02158   0.02161   0.02209   0.02299   0.04015
     Eigenvalues ---    0.04221   0.04425   0.04624   0.05427   0.05435
     Eigenvalues ---    0.05439   0.05494   0.05496   0.05531   0.05941
     Eigenvalues ---    0.08011   0.09077   0.09321   0.11623   0.12681
     Eigenvalues ---    0.12852   0.14987   0.15883   0.15970   0.15992
     Eigenvalues ---    0.15999   0.16000   0.16000   0.16000   0.16000
     Eigenvalues ---    0.16000   0.16000   0.16000   0.16000   0.16000
     Eigenvalues ---    0.16000   0.16000   0.16000   0.16000   0.16005
     Eigenvalues ---    0.16024   0.16198   0.18948   0.21263   0.21901
     Eigenvalues ---    0.21961   0.22002   0.22084   0.22441   0.22456
     Eigenvalues ---    0.22672   0.22884   0.23519   0.24247   0.24517
     Eigenvalues ---    0.24614   0.24948   0.24970   0.24988   0.24993
     Eigenvalues ---    0.24995   0.24998   0.25145   0.28017   0.28063
     Eigenvalues ---    0.28309   0.28515   0.28610   0.29013   0.31217
     Eigenvalues ---    0.32865   0.33131   0.33716   0.33861   0.34028
     Eigenvalues ---    0.34090   0.34100   0.34105   0.34120   0.34162
     Eigenvalues ---    0.34278   0.34290   0.34560   0.34892   0.35031
     Eigenvalues ---    0.35051   0.35079   0.35140   0.35152   0.35173
     Eigenvalues ---    0.35178   0.35194   0.35219   0.35299   0.35326
     Eigenvalues ---    0.35460   0.35579   0.35808   0.36331   0.37752
     Eigenvalues ---    0.38062   0.39088   0.40596   0.41228   0.41509
     Eigenvalues ---    0.41602   0.42010   0.42135   0.42650   0.43462
     Eigenvalues ---    0.44361   0.44527   0.44530   0.44725   0.44950
     Eigenvalues ---    0.44999   0.45829   0.45897   0.46062   0.46081
     Eigenvalues ---    0.46436   0.46924   0.47136   0.47298   0.48325
     Eigenvalues ---    0.54507   0.54983   0.59533
 En-DIIS/RFO-DIIS/Sim-DIIS IScMMF=       -3 using points:     5    4    3    2
 RFO step:  Lambda=-2.82060977D-05.
 NNeg= 0 NGDIIS= 4 SimSw=  2.50D-01 Rises=F DC= -5.93D-05 SmlDif=  1.00D-05
 NRisDI= 0 DoIntr=F SqrtH=F CThrHd= 10.0 CDAdj=  3.0
 RMS Error=  0.1710456637D-02 NUsed= 4 OKEnD=T EnDIS=F
 InvSVX:  RCond= 9.29D-05 Info=           0 Equed=N FErr=  1.27D-14 BErr=  9.65D-17
 DidBck=F Rises=F RFO-DIIS coefs:    1.54274   -0.43662   -0.11364    0.00752
 Iteration  1 RMS(Cart)=  0.00907312 RMS(Int)=  0.00000999
 Iteration  2 RMS(Cart)=  0.00003913 RMS(Int)=  0.00000197
 Iteration  3 RMS(Cart)=  0.00000000 RMS(Int)=  0.00000197
 ITry= 1 IFail=0 DXMaxC= 5.36D-02 DCOld= 1.00D+10 DXMaxT= 8.49D-01 DXLimC= 3.00D+00 Rises=F
 Variable       Old X    -DE/DX   Delta X   Delta X   Delta X     New X
                                 (Linear)    (Quad)   (Total)
    R1        2.68865  -0.00018   0.00018  -0.00056  -0.00038   2.68828
    R2        2.62564   0.00017   0.00022   0.00029   0.00051   2.62615
    R3        2.04453   0.00006  -0.00006   0.00014   0.00009   2.04461
    R4        2.69136   0.00003  -0.00008   0.00001  -0.00007   2.69129
    R5        2.76793  -0.00014  -0.00087   0.00015  -0.00072   2.76721
    R6        2.61247   0.00011  -0.00021   0.00037   0.00016   2.61263
    R7        2.05259  -0.00007   0.00016  -0.00025  -0.00008   2.05251
    R8        2.66591   0.00009   0.00017   0.00014   0.00031   2.66622
    R9        2.89415   0.00004   0.00024   0.00003   0.00027   2.89443
   R10        2.64603  -0.00005  -0.00022  -0.00003  -0.00026   2.64577
   R11        2.75627   0.00011   0.00024   0.00026   0.00050   2.75677
   R12        2.05758   0.00002   0.00003   0.00003   0.00006   2.05764
   R13        2.89185  -0.00000   0.00000  -0.00006  -0.00006   2.89179
   R14        2.91871  -0.00001  -0.00013   0.00005  -0.00008   2.91863
   R15        2.91851  -0.00002  -0.00010  -0.00002  -0.00012   2.91838
   R16        2.62212   0.00010   0.00017   0.00015   0.00032   2.62244
   R17        2.67494  -0.00008  -0.00001  -0.00025  -0.00026   2.67467
   R18        2.65293   0.00001  -0.00002   0.00000  -0.00002   2.65291
   R19        2.05753  -0.00001  -0.00005  -0.00000  -0.00005   2.05748
   R20        2.64222   0.00002  -0.00003   0.00006   0.00003   2.64225
   R21        2.05495   0.00004   0.00002   0.00009   0.00011   2.05505
   R22        2.64088   0.00007   0.00014   0.00008   0.00023   2.64111
   R23        2.05638  -0.00000  -0.00006   0.00001  -0.00004   2.05633
   R24        2.64627   0.00001  -0.00015   0.00006  -0.00010   2.64617
   R25        2.05518  -0.00000  -0.00001  -0.00001  -0.00002   2.05516
   R26        2.07421   0.00002  -0.00004   0.00008   0.00004   2.07425
   R27        2.07192   0.00001  -0.00000   0.00002   0.00002   2.07194
   R28        2.06884  -0.00001  -0.00003  -0.00001  -0.00004   2.06880
   R29        2.07204   0.00000  -0.00001   0.00001  -0.00000   2.07204
   R30        2.07419   0.00002  -0.00002   0.00006   0.00004   2.07423
   R31        2.06902  -0.00001  -0.00004  -0.00001  -0.00005   2.06897
   R32        2.72015   0.00023   0.00138   0.00008   0.00147   2.72162
   R33        2.67555  -0.00028  -0.00042  -0.00069  -0.00111   2.67444
   R34        2.78936   0.00021   0.00082   0.00043   0.00125   2.79061
   R35        2.53310  -0.00073  -0.00078  -0.00094  -0.00172   2.53138
   R36        2.62193   0.00019   0.00059   0.00023   0.00082   2.62275
   R37        2.05181   0.00001   0.00018  -0.00004   0.00014   2.05194
   R38        2.71097   0.00049   0.00108   0.00088   0.00197   2.71294
   R39        2.53660  -0.00072  -0.00077  -0.00095  -0.00171   2.53489
   R40        2.66982  -0.00028  -0.00026  -0.00073  -0.00100   2.66882
   R41        2.05278   0.00007   0.00002   0.00022   0.00024   2.05303
   R42        2.78021  -0.00021  -0.00089  -0.00016  -0.00105   2.77916
   R43        3.17233  -0.00107  -0.00052  -0.00259  -0.00311   3.16922
   R44        3.17167  -0.00103  -0.00066  -0.00244  -0.00310   3.16857
   R45        2.67433  -0.00007   0.00008  -0.00023  -0.00014   2.67419
   R46        2.67567   0.00000   0.00005  -0.00010  -0.00005   2.67563
   R47        2.62966   0.00014   0.00017   0.00023   0.00040   2.63006
   R48        2.04539  -0.00002  -0.00002  -0.00007  -0.00009   2.04530
   R49        2.62808   0.00008  -0.00014   0.00025   0.00011   2.62819
   R50        2.05188  -0.00001  -0.00000   0.00000   0.00000   2.05188
   R51        2.64926  -0.00004  -0.00015  -0.00003  -0.00018   2.64908
   R52        2.06021   0.00003  -0.00003   0.00009   0.00005   2.06027
   R53        2.64882   0.00008   0.00024   0.00005   0.00029   2.64910
   R54        2.05962   0.00003  -0.00007   0.00011   0.00004   2.05966
   R55        2.85815  -0.00002   0.00010  -0.00014  -0.00003   2.85812
   R56        2.07378   0.00001  -0.00007   0.00006  -0.00001   2.07377
   R57        2.08031   0.00001  -0.00007   0.00006  -0.00002   2.08029
   R58        2.90426   0.00001   0.00003   0.00002   0.00005   2.90430
   R59        2.08683   0.00000  -0.00004   0.00004  -0.00000   2.08682
   R60        2.07292   0.00001   0.00002   0.00001   0.00003   2.07295
   R61        2.78371  -0.00013   0.00022  -0.00054  -0.00033   2.78338
   R62        1.92880  -0.00001   0.00007  -0.00006   0.00001   1.92880
   R63        1.92738  -0.00003   0.00011  -0.00014  -0.00003   1.92735
    A1        2.13225   0.00003  -0.00005   0.00008   0.00003   2.13228
    A2        2.06145  -0.00004   0.00022  -0.00024  -0.00002   2.06142
    A3        2.08946   0.00001  -0.00016   0.00016  -0.00000   2.08946
    A4        2.03536   0.00008  -0.00021   0.00046   0.00025   2.03562
    A5        2.14362  -0.00056   0.00161  -0.00275  -0.00115   2.14247
    A6        2.10412   0.00049  -0.00141   0.00233   0.00091   2.10502
    A7        2.11459  -0.00010   0.00010  -0.00049  -0.00039   2.11420
    A8        2.08122   0.00019   0.00114   0.00052   0.00166   2.08288
    A9        2.08678  -0.00009  -0.00123  -0.00004  -0.00127   2.08551
   A10        2.11305   0.00005   0.00034   0.00003   0.00038   2.11343
   A11        2.24016  -0.00003  -0.00035   0.00001  -0.00034   2.23982
   A12        1.92991  -0.00002   0.00002  -0.00005  -0.00003   1.92988
   A13        2.07621  -0.00002  -0.00049   0.00022  -0.00027   2.07595
   A14        1.90014  -0.00003  -0.00003  -0.00009  -0.00013   1.90002
   A15        2.30672   0.00005   0.00052  -0.00012   0.00040   2.30712
   A16        2.09465  -0.00003   0.00034  -0.00033   0.00001   2.09466
   A17        2.08401  -0.00003  -0.00059   0.00005  -0.00054   2.08347
   A18        2.10452   0.00007   0.00026   0.00027   0.00053   2.10506
   A19        1.76897   0.00000  -0.00010   0.00005  -0.00005   1.76892
   A20        1.94521   0.00001   0.00017   0.00011   0.00028   1.94550
   A21        1.94441  -0.00000   0.00018  -0.00009   0.00009   1.94450
   A22        1.94177   0.00000  -0.00012   0.00006  -0.00006   1.94171
   A23        1.94298  -0.00001  -0.00007  -0.00015  -0.00022   1.94276
   A24        1.91696   0.00000  -0.00007   0.00003  -0.00004   1.91691
   A25        2.25043  -0.00001  -0.00009   0.00005  -0.00003   2.25040
   A26        1.92861   0.00005   0.00019   0.00007   0.00026   1.92887
   A27        2.10415  -0.00004  -0.00010  -0.00012  -0.00022   2.10392
   A28        2.08578   0.00000  -0.00006   0.00002  -0.00004   2.08574
   A29        2.10545   0.00001   0.00010   0.00003   0.00013   2.10558
   A30        2.09196  -0.00001  -0.00003  -0.00005  -0.00009   2.09187
   A31        2.09484   0.00002   0.00014   0.00006   0.00020   2.09503
   A32        2.09345  -0.00000  -0.00008   0.00002  -0.00006   2.09338
   A33        2.09490  -0.00002  -0.00006  -0.00008  -0.00013   2.09477
   A34        2.10920  -0.00003  -0.00011  -0.00009  -0.00020   2.10900
   A35        2.08805   0.00000   0.00010  -0.00006   0.00004   2.08809
   A36        2.08593   0.00003   0.00001   0.00015   0.00016   2.08609
   A37        2.08124  -0.00001  -0.00001  -0.00007  -0.00008   2.08116
   A38        2.09862   0.00000  -0.00010   0.00006  -0.00004   2.09858
   A39        2.10333   0.00001   0.00011   0.00001   0.00012   2.10345
   A40        1.89712   0.00000  -0.00008   0.00003  -0.00005   1.89707
   A41        2.29489  -0.00006  -0.00007  -0.00023  -0.00030   2.29460
   A42        2.09117   0.00006   0.00014   0.00020   0.00035   2.09152
   A43        1.93732   0.00000  -0.00007   0.00001  -0.00005   1.93726
   A44        1.93006   0.00001   0.00010   0.00004   0.00014   1.93021
   A45        1.93479   0.00000  -0.00001   0.00007   0.00005   1.93484
   A46        1.88540  -0.00001  -0.00012  -0.00009  -0.00020   1.88519
   A47        1.88948  -0.00000  -0.00001  -0.00003  -0.00004   1.88944
   A48        1.88502  -0.00000   0.00010  -0.00000   0.00010   1.88512
   A49        1.92942   0.00000   0.00005   0.00000   0.00005   1.92948
   A50        1.93793  -0.00001  -0.00005  -0.00008  -0.00014   1.93779
   A51        1.93511  -0.00000  -0.00005   0.00006   0.00001   1.93511
   A52        1.88538   0.00000  -0.00004  -0.00002  -0.00006   1.88532
   A53        1.88505   0.00000   0.00008   0.00003   0.00011   1.88516
   A54        1.88916   0.00001   0.00002   0.00001   0.00003   1.88920
   A55        2.16777  -0.00071   0.00308  -0.00400  -0.00093   2.16684
   A56        2.10471   0.00083  -0.00145   0.00377   0.00231   2.10702
   A57        2.01070  -0.00012  -0.00161   0.00023  -0.00138   2.00932
   A58        2.11087   0.00005   0.00041   0.00002   0.00043   2.11131
   A59        2.19134  -0.00023   0.00065  -0.00142  -0.00077   2.19057
   A60        1.98078   0.00018  -0.00108   0.00141   0.00034   1.98112
   A61        2.15858   0.00012   0.00115  -0.00012   0.00102   2.15960
   A62        2.06974   0.00028   0.00016   0.00187   0.00203   2.07177
   A63        2.05315  -0.00040  -0.00120  -0.00170  -0.00290   2.05025
   A64        2.11206  -0.00006   0.00071  -0.00051   0.00020   2.11226
   A65        1.98301  -0.00001  -0.00071   0.00055  -0.00017   1.98284
   A66        2.18796   0.00006   0.00000  -0.00005  -0.00005   2.18791
   A67        2.15804   0.00018   0.00088   0.00028   0.00116   2.15920
   A68        2.05506  -0.00037  -0.00127  -0.00147  -0.00274   2.05231
   A69        2.06868   0.00019   0.00046   0.00124   0.00170   2.07038
   A70        2.01486  -0.00017  -0.00160   0.00009  -0.00151   2.01335
   A71        2.16255  -0.00009   0.00187  -0.00105   0.00081   2.16336
   A72        2.10577   0.00026  -0.00026   0.00097   0.00071   2.10647
   A73        1.86989  -0.00053   0.00173  -0.00316  -0.00143   1.86846
   A74        1.86744  -0.00043   0.00154  -0.00269  -0.00115   1.86630
   A75        1.72365   0.00079  -0.00148   0.00390   0.00241   1.72607
   A76        2.14817  -0.00004   0.00069  -0.00031   0.00037   2.14854
   A77        2.11055  -0.00000  -0.00052  -0.00002  -0.00054   2.11001
   A78        2.02435   0.00004  -0.00016   0.00032   0.00015   2.02450
   A79        2.12010  -0.00000  -0.00001  -0.00006  -0.00008   2.12002
   A80        2.07047  -0.00001   0.00005   0.00001   0.00006   2.07053
   A81        2.09260   0.00001  -0.00003   0.00004   0.00002   2.09262
   A82        2.13088  -0.00004  -0.00001  -0.00021  -0.00022   2.13066
   A83        2.08275   0.00010   0.00111   0.00001   0.00113   2.08388
   A84        2.06919  -0.00005  -0.00111   0.00022  -0.00089   2.06830
   A85        2.12992   0.00001   0.00033  -0.00014   0.00018   2.13010
   A86        2.07419  -0.00004  -0.00049   0.00003  -0.00046   2.07373
   A87        2.07906   0.00003   0.00016   0.00012   0.00028   2.07934
   A88        2.11958   0.00003   0.00037  -0.00005   0.00032   2.11990
   A89        2.08035  -0.00002  -0.00051   0.00015  -0.00036   2.07999
   A90        2.08321  -0.00001   0.00014  -0.00009   0.00004   2.08325
   A91        2.04139  -0.00003  -0.00050   0.00017  -0.00034   2.04105
   A92        2.12135   0.00007   0.00036   0.00009   0.00046   2.12181
   A93        2.11947  -0.00003   0.00017  -0.00023  -0.00006   2.11941
   A94        1.93677  -0.00002  -0.00013  -0.00004  -0.00017   1.93660
   A95        1.91613  -0.00003   0.00003  -0.00024  -0.00021   1.91591
   A96        1.96985   0.00006   0.00032   0.00005   0.00037   1.97022
   A97        1.85955   0.00002  -0.00001   0.00024   0.00023   1.85978
   A98        1.88537  -0.00003  -0.00011  -0.00007  -0.00018   1.88519
   A99        1.89228  -0.00001  -0.00012   0.00008  -0.00005   1.89223
   A100       1.89615   0.00003  -0.00001   0.00011   0.00010   1.89625
   A101       1.90152  -0.00000  -0.00009   0.00000  -0.00009   1.90143
   A102       1.93468  -0.00006  -0.00008  -0.00034  -0.00042   1.93426
   A103       1.85857  -0.00000   0.00008   0.00012   0.00020   1.85877
   A104       1.98812   0.00001   0.00012  -0.00011   0.00001   1.98813
   A105       1.88175   0.00003  -0.00001   0.00024   0.00023   1.88198
   A106       1.89833  -0.00003  -0.00015  -0.00006  -0.00020   1.89812
   A107       1.90703   0.00002   0.00059  -0.00018   0.00041   1.90744
   A108       1.84078   0.00001  -0.00012   0.00021   0.00009   1.84086
    D1       -0.02291  -0.00001   0.00155  -0.00096   0.00059  -0.02231
    D2        3.10436   0.00005  -0.00025   0.00225   0.00199   3.10635
    D3        3.11138  -0.00001   0.00245  -0.00134   0.00111   3.11250
    D4       -0.04454   0.00005   0.00064   0.00188   0.00251  -0.04203
    D5        0.00825   0.00001  -0.00121   0.00083  -0.00039   0.00786
    D6       -3.13131  -0.00002  -0.00122  -0.00017  -0.00139  -3.13270
    D7       -3.12593   0.00000  -0.00212   0.00121  -0.00092  -3.12685
    D8        0.01770  -0.00002  -0.00213   0.00021  -0.00192   0.01578
    D9        0.02217   0.00001  -0.00115   0.00088  -0.00028   0.02189
   D10       -3.08199   0.00001  -0.00151   0.00108  -0.00043  -3.08242
   D11       -3.10544  -0.00003   0.00060  -0.00222  -0.00162  -3.10706
   D12        0.07358  -0.00003   0.00025  -0.00202  -0.00177   0.07181
   D13        0.35544  -0.00004  -0.00552  -0.00088  -0.00640   0.34904
   D14       -2.78265  -0.00003  -0.00793  -0.00003  -0.00796  -2.79061
   D15       -2.80103   0.00001  -0.00740   0.00244  -0.00495  -2.80598
   D16        0.34407   0.00002  -0.00981   0.00329  -0.00652   0.33756
   D17       -0.00710  -0.00001   0.00044  -0.00068  -0.00025  -0.00735
   D18       -3.13515  -0.00000  -0.00047   0.00021  -0.00026  -3.13541
   D19        3.09694  -0.00001   0.00084  -0.00087  -0.00004   3.09690
   D20       -0.03111  -0.00000  -0.00007   0.00003  -0.00005  -0.03116
   D21       -0.00849   0.00001  -0.00004   0.00051   0.00048  -0.00801
   D22       -3.13627  -0.00000  -0.00005   0.00000  -0.00005  -3.13632
   D23        3.12176   0.00000   0.00072  -0.00024   0.00048   3.12224
   D24       -0.00603  -0.00001   0.00071  -0.00075  -0.00004  -0.00607
   D25        3.13576   0.00000   0.00007   0.00001   0.00008   3.13584
   D26        1.06864  -0.00000   0.00019  -0.00014   0.00005   1.06869
   D27       -1.07926  -0.00001   0.00002  -0.00019  -0.00017  -1.07943
   D28        0.00656   0.00001  -0.00077   0.00083   0.00006   0.00662
   D29       -2.06056   0.00000  -0.00065   0.00068   0.00004  -2.06053
   D30        2.07472  -0.00000  -0.00081   0.00064  -0.00018   2.07454
   D31        0.00791  -0.00000   0.00041  -0.00057  -0.00016   0.00775
   D32       -3.13574   0.00002   0.00042   0.00044   0.00085  -3.13489
   D33        3.13187   0.00001   0.00042   0.00008   0.00050   3.13238
   D34       -0.01178   0.00003   0.00043   0.00109   0.00152  -0.01026
   D35        0.00274   0.00000  -0.00033   0.00033  -0.00000   0.00274
   D36       -3.13906   0.00001  -0.00005   0.00029   0.00025  -3.13881
   D37       -3.12255  -0.00001  -0.00033  -0.00028  -0.00061  -3.12316
   D38        0.01884  -0.00000  -0.00005  -0.00031  -0.00036   0.01848
   D39        3.13798  -0.00001   0.00041  -0.00041  -0.00001   3.13797
   D40       -0.00484  -0.00001   0.00056  -0.00063  -0.00007  -0.00491
   D41       -1.07561   0.00001   0.00050  -0.00023   0.00027  -1.07534
   D42        2.06475   0.00001   0.00065  -0.00045   0.00021   2.06496
   D43        1.06879   0.00000   0.00028  -0.00026   0.00001   1.06880
   D44       -2.07404  -0.00000   0.00043  -0.00047  -0.00005  -2.07408
   D45        3.08345   0.00000  -0.00052   0.00028  -0.00024   3.08321
   D46       -1.10739  -0.00000  -0.00064   0.00020  -0.00044  -1.10783
   D47        0.98283   0.00000  -0.00046   0.00027  -0.00019   0.98264
   D48        1.12304  -0.00001  -0.00043   0.00012  -0.00031   1.12273
   D49       -3.06780  -0.00001  -0.00056   0.00005  -0.00051  -3.06831
   D50       -0.97758  -0.00001  -0.00037   0.00011  -0.00026  -0.97784
   D51       -1.03624   0.00001  -0.00021   0.00026   0.00004  -1.03619
   D52        1.05611  -0.00000  -0.00034   0.00018  -0.00015   1.05595
   D53       -3.13685   0.00001  -0.00015   0.00025   0.00010  -3.13676
   D54        1.10696   0.00001   0.00083  -0.00048   0.00035   1.10732
   D55       -3.08393   0.00000   0.00078  -0.00055   0.00023  -3.08370
   D56       -0.98309   0.00000   0.00074  -0.00055   0.00018  -0.98291
   D57        3.06761   0.00000   0.00078  -0.00056   0.00022   3.06782
   D58       -1.12328  -0.00000   0.00073  -0.00064   0.00009  -1.12319
   D59        0.97755  -0.00000   0.00069  -0.00064   0.00005   0.97760
   D60       -1.05701  -0.00000   0.00053  -0.00057  -0.00004  -1.05705
   D61        1.03529  -0.00001   0.00048  -0.00065  -0.00017   1.03512
   D62        3.13612  -0.00001   0.00044  -0.00065  -0.00021   3.13591
   D63        3.14063  -0.00000   0.00024  -0.00026  -0.00002   3.14062
   D64       -0.00073  -0.00000   0.00015  -0.00015   0.00000  -0.00073
   D65        0.00038  -0.00000   0.00008  -0.00003   0.00005   0.00043
   D66       -3.14098   0.00000  -0.00001   0.00008   0.00007  -3.14091
   D67        0.00161   0.00000  -0.00018   0.00022   0.00005   0.00166
   D68       -3.13980   0.00000  -0.00042   0.00025  -0.00017  -3.13997
   D69       -3.14109   0.00000  -0.00004   0.00003  -0.00001  -3.14110
   D70        0.00068  -0.00000  -0.00029   0.00006  -0.00022   0.00045
   D71       -0.00086   0.00000   0.00010   0.00002   0.00012  -0.00074
   D72        3.14097   0.00000  -0.00005   0.00014   0.00009   3.14107
   D73        3.14050  -0.00000   0.00019  -0.00009   0.00010   3.14060
   D74       -0.00085   0.00000   0.00004   0.00003   0.00007  -0.00077
   D75        0.00029  -0.00000  -0.00007  -0.00004  -0.00011   0.00018
   D76       -3.14108  -0.00000  -0.00016   0.00004  -0.00012  -3.14119
   D77       -3.14155  -0.00000   0.00008  -0.00016  -0.00008   3.14155
   D78        0.00027  -0.00000  -0.00001  -0.00008  -0.00009   0.00018
   D79        0.00077  -0.00000  -0.00013   0.00007  -0.00006   0.00070
   D80       -3.14080  -0.00000  -0.00017  -0.00001  -0.00018  -3.14098
   D81       -3.14105  -0.00000  -0.00005  -0.00001  -0.00006  -3.14111
   D82        0.00057  -0.00000  -0.00009  -0.00009  -0.00018   0.00039
   D83        3.14058  -0.00000  -0.00000  -0.00004  -0.00005   3.14053
   D84       -0.00124   0.00000   0.00031  -0.00008   0.00023  -0.00101
   D85       -0.00104   0.00000   0.00004   0.00004   0.00007  -0.00097
   D86        3.14033   0.00000   0.00035   0.00000   0.00035   3.14068
   D87        3.10855  -0.00001  -0.00311   0.00045  -0.00267   3.10588
   D88       -0.01049  -0.00003  -0.00246  -0.00027  -0.00274  -0.01324
   D89       -0.03638  -0.00002  -0.00083  -0.00034  -0.00118  -0.03756
   D90        3.12776  -0.00003  -0.00019  -0.00107  -0.00125   3.12651
   D91       -3.10784   0.00002   0.00310  -0.00004   0.00305  -3.10479
   D92        0.09819  -0.00000   0.00126  -0.00096   0.00029   0.09848
   D93        0.03696   0.00003   0.00088   0.00074   0.00162   0.03858
   D94       -3.04020   0.00001  -0.00096  -0.00018  -0.00114  -3.04134
   D95       -0.00010  -0.00000  -0.00011  -0.00009  -0.00021  -0.00030
   D96       -3.12392   0.00001  -0.00008   0.00117   0.00108  -3.12284
   D97        3.12149   0.00001  -0.00067   0.00052  -0.00015   3.12134
   D98       -0.00233   0.00002  -0.00064   0.00178   0.00114  -0.00120
   D99        3.12318  -0.00001   0.00043  -0.00099  -0.00056   3.12262
   D100       0.00268  -0.00002   0.00102  -0.00165  -0.00064   0.00204
   D101       0.00118  -0.00001   0.00010  -0.00069  -0.00059   0.00059
   D102      -3.08237  -0.00005  -0.00125  -0.00187  -0.00311  -3.08547
   D103       3.07891   0.00003   0.00198   0.00033   0.00230   3.08121
   D104      -0.00464  -0.00001   0.00062  -0.00084  -0.00021  -0.00485
   D105       0.03715   0.00001   0.00104   0.00017   0.00121   0.03836
   D106      -3.10955   0.00003   0.00233   0.00126   0.00359  -3.10595
   D107      -3.12441  -0.00001   0.00100  -0.00124  -0.00024  -3.12464
   D108       0.01208   0.00001   0.00229  -0.00015   0.00214   0.01422
   D109       0.00070  -0.00001  -0.00009  -0.00092  -0.00101  -0.00031
   D110      -3.12222   0.00001  -0.00007   0.00040   0.00034  -3.12188
   D111      -0.03879  -0.00001  -0.00108   0.00019  -0.00088  -0.03967
   D112       3.10773  -0.00003  -0.00233  -0.00085  -0.00318   3.10455
   D113       3.04434   0.00001   0.00023   0.00129   0.00152   3.04585
   D114      -0.09233  -0.00001  -0.00103   0.00025  -0.00078  -0.09311
   D115      -0.39771   0.00001   0.00617  -0.00089   0.00529  -0.39242
   D116       2.76098   0.00002   0.00661   0.00003   0.00664   2.76762
   D117       2.73852   0.00003   0.00753   0.00025   0.00778   2.74631
   D118      -0.38598   0.00004   0.00797   0.00117   0.00914  -0.37684
   D119      -0.00204   0.00001  -0.00095   0.00101   0.00005  -0.00199
   D120       0.00074  -0.00000   0.00060  -0.00002   0.00058   0.00132
   D121      -3.10711  -0.00001  -0.00021  -0.00023  -0.00043  -3.10754
   D122       0.04002  -0.00001  -0.00105   0.00031  -0.00073   0.03928
   D123       0.01817  -0.00002  -0.00062  -0.00111  -0.00173   0.01644
   D124      -3.11789  -0.00002  -0.00146  -0.00057  -0.00203  -3.11992
   D125       3.10762   0.00000   0.00002  -0.00006  -0.00003   3.10759
   D126      -0.06370   0.00002  -0.00017   0.00085   0.00068  -0.06302
   D127      -0.01804   0.00001   0.00042   0.00080   0.00122  -0.01681
   D128       3.09382   0.00003   0.00024   0.00171   0.00194   3.09576
   D129      -0.00792   0.00002   0.00042   0.00065   0.00107  -0.00685
   D130       3.12727   0.00002   0.00043   0.00094   0.00137   3.12863
   D131       3.12807   0.00001   0.00127   0.00010   0.00137   3.12944
   D132      -0.01993   0.00002   0.00128   0.00039   0.00167  -0.01826
   D133       0.00747   0.00000  -0.00001  -0.00001  -0.00002   0.00746
   D134       3.13825   0.00001   0.00038   0.00014   0.00053   3.13878
   D135      -3.10461  -0.00001   0.00015  -0.00091  -0.00076  -3.10537
   D136       0.02617  -0.00001   0.00054  -0.00075  -0.00021   0.02596
   D137      -0.00352  -0.00000   0.00003   0.00018   0.00020  -0.00331
   D138      -3.09837  -0.00001  -0.00059  -0.00047  -0.00106  -3.09943
   D139      -3.13869  -0.00001   0.00002  -0.00011  -0.00009  -3.13878
   D140       0.04965  -0.00002  -0.00060  -0.00075  -0.00135   0.04830
   D141       0.00375  -0.00001  -0.00023  -0.00049  -0.00072   0.00303
   D142       3.09865   0.00001   0.00040   0.00016   0.00055   3.09921
   D143      -3.12701  -0.00001  -0.00061  -0.00065  -0.00126  -3.12828
   D144      -0.03211  -0.00000   0.00001   0.00000   0.00001  -0.03210
   D145      -2.62141   0.00001   0.00040   0.00075   0.00115  -2.62025
   D146      -0.57041   0.00001   0.00033   0.00087   0.00120  -0.56921
   D147       1.54271   0.00001   0.00040   0.00084   0.00124   1.54395
   D148       0.56902  -0.00000  -0.00023   0.00007  -0.00016   0.56886
   D149       2.62001  -0.00000  -0.00030   0.00019  -0.00011   2.61990
   D150      -1.55005   0.00000  -0.00023   0.00016  -0.00007  -1.55012
   D151      -0.95593  -0.00001  -0.00069  -0.00135  -0.00204  -0.95797
   D152       1.06215  -0.00000  -0.00065  -0.00115  -0.00180   1.06035
   D153       3.13009   0.00000  -0.00077  -0.00105  -0.00182   3.12826
   D154      -3.10386  -0.00001  -0.00066  -0.00128  -0.00194  -3.10580
   D155      -1.08578   0.00000  -0.00062  -0.00108  -0.00170  -1.08748
   D156       0.98216   0.00000  -0.00075  -0.00098  -0.00173   0.98044
   D157       1.17069  -0.00002  -0.00053  -0.00157  -0.00210   1.16859
   D158      -3.09442  -0.00001  -0.00050  -0.00136  -0.00186  -3.09627
   D159      -1.02648  -0.00000  -0.00062  -0.00127  -0.00188  -1.02836
   D160       1.14319  -0.00004  -0.00507  -0.00326  -0.00832   1.13487
   D161      -3.13890  -0.00004  -0.00497  -0.00314  -0.00811   3.13618
   D162      -1.00162  -0.00004  -0.00507  -0.00306  -0.00813  -1.00975
   D163       0.99948  -0.00003  -0.00497  -0.00294  -0.00792   0.99156
   D164      -3.06012  -0.00006  -0.00523  -0.00330  -0.00853  -3.06865
   D165      -1.05902  -0.00005  -0.00513  -0.00318  -0.00832  -1.06734
         Item               Value     Threshold  Converged?
 Maximum Force            0.001075     0.000450     NO 
 RMS     Force            0.000152     0.000300     YES
 Maximum Displacement     0.053578     0.001800     NO 
 RMS     Displacement     0.009071     0.001200     NO 
 Predicted change in Energy=-1.409097D-05
 Lowest energy point so far.  Saving SCF results.
 GradGradGradGradGradGradGradGradGradGradGradGradGradGradGradGradGradGrad

 Leave Link  103 at Thu Mar 14 10:11:11 2024, MaxMem= 32212254720 cpu:               2.6 elap:               0.1
 (Enter /home/<user>/g16/l202.exe)
 Stoichiometry    C29H25N3S(1-,2)
 Framework group  C1[X(C29H25N3S)]
 Deg. of freedom   168
 Full point group                 C1      NOp   1
 RotChk:  IX=0 Diff= 5.96D-03
 Largest Abelian subgroup         C1      NOp   1
 Largest concise Abelian subgroup C1      NOp   1
                         Standard orientation:                         
 ---------------------------------------------------------------------
 Center     Atomic      Atomic             Coordinates (Angstroms)
 Number     Number       Type             X           Y           Z
 ---------------------------------------------------------------------
      1          6           0       -2.487773    1.676736   -0.284761
      2          6           0       -1.790382    0.442043   -0.171205
      3          6           0       -2.585572   -0.726770    0.001433
      4          6           0       -3.965964   -0.654637    0.028650
      5          6           0       -4.633740    0.581034   -0.104938
      6          6           0       -3.875375    1.748017   -0.257464
      7          1           0       -1.906105    2.583060   -0.389084
      8          1           0       -2.097257   -1.685745    0.148453
      9          1           0       -4.362461    2.716796   -0.356561
     10          6           0       -4.973361   -1.793957    0.210575
     11          6           0       -6.300673   -1.034680    0.151662
     12          6           0       -7.593432   -1.528901    0.253323
     13          6           0       -8.680271   -0.643998    0.172360
     14          6           0       -8.456737    0.724336   -0.008500
     15          6           0       -7.158121    1.230679   -0.111186
     16          6           0       -6.072300    0.350047   -0.031820
     17          1           0       -7.770865   -2.593719    0.395111
     18          1           0       -9.696329   -1.023643    0.250635
     19          1           0       -9.303917    1.404487   -0.070004
     20          1           0       -6.995436    2.296835   -0.251191
     21          6           0       -4.790929   -2.497594    1.573298
     22          1           0       -5.553704   -3.272995    1.720803
     23          1           0       -3.805880   -2.975519    1.631721
     24          1           0       -4.868124   -1.779624    2.396136
     25          6           0       -4.867163   -2.828141   -0.931429
     26          1           0       -3.882973   -3.311415   -0.922769
     27          1           0       -5.630347   -3.610074   -0.826888
     28          1           0       -4.999891   -2.347813   -1.906298
     29          6           0       -0.330806    0.347164   -0.241459
     30          6           0        0.563073    1.453929   -0.017214
     31          6           0        0.299975   -0.882362   -0.546944
     32          6           0        2.027502    1.269059   -0.061871
     33          6           0        1.676725   -1.052977   -0.588379
     34          1           0       -0.318501   -1.732254   -0.819383
     35          6           0        2.602896   -0.018677   -0.329606
     36          1           0        2.054254   -2.027188   -0.886174
     37          7           0        0.191358    2.708814    0.268241
     38          7           0        2.718520    2.390871    0.189919
     39         16           0        1.595220    3.604804    0.465623
     40          6           0        4.049225   -0.284591   -0.346489
     41          6           0        5.018103    0.724479   -0.560069
     42          6           0        4.549252   -1.597039   -0.167131
     43          6           0        6.377080    0.428169   -0.609048
     44          1           0        4.684083    1.746732   -0.681995
     45          6           0        5.909439   -1.882609   -0.218177
     46          1           0        3.857296   -2.406875    0.043438
     47          6           0        6.860220   -0.877196   -0.442525
     48          1           0        7.085263    1.237501   -0.788208
     49          1           0        6.242550   -2.909877   -0.070878
     50          6           0        8.342203   -1.179245   -0.444084
     51          1           0        8.536452   -2.189765   -0.825380
     52          1           0        8.863371   -0.483519   -1.119508
     53          6           0        8.976352   -1.067776    0.951433
     54          1           0        8.755174   -0.066289    1.360799
     55          1           0        8.494330   -1.791229    1.620453
     56          7           0       10.413117   -1.388067    0.900808
     57          1           0       10.887227   -0.681331    0.337312
     58          1           0       10.810634   -1.301987    1.836108
 ---------------------------------------------------------------------
 Rotational constants (GHZ):           0.3519961           0.0394157           0.0361044
 Leave Link  202 at Thu Mar 14 10:11:11 2024, MaxMem= 32212254720 cpu:               0.0 elap:               0.0
 (Enter /home/<user>/g16/l301.exe)
 Standard basis: 6-31G(d) (6D, 7F)
 Ernie: Thresh=  0.10000D-02 Tol=  0.10000D-05 Strict=F.
 There are   549 symmetry adapted cartesian basis functions of A   symmetry.
 There are   549 symmetry adapted basis functions of A   symmetry.
   549 basis functions,  1048 primitive gaussians,   549 cartesian basis functions
   119 alpha electrons      118 beta electrons
       nuclear repulsion energy      3069.0998613706 Hartrees.
 IExCor=  402 DFT=T Ex+Corr=B3LYP ExCW=0 ScaHFX=  0.200000
 ScaDFX=  0.800000  0.720000  1.000000  0.810000 ScalE2=  1.000000  1.000000
 IRadAn=      5 IRanWt=     -1 IRanGd=            0 ICorTp=0 IEmpDi=  4
 NAtoms=   58 NActive=   58 NUniq=   58 SFac= 1.00D+00 NAtFMM=   60 NAOKFM=F Big=F
 Integral buffers will be    131072 words long.
 Raffenetti 2 integral format.
 Two-electron integral symmetry is turned on.
 Leave Link  301 at Thu Mar 14 10:11:11 2024, MaxMem= 32212254720 cpu:               0.8 elap:               0.0
 (Enter /home/<user>/g16/l302.exe)
 NPDir=0 NMtPBC=     1 NCelOv=     1 NCel=       1 NClECP=     1 NCelD=      1
         NCelK=      1 NCelE2=     1 NClLst=     1 CellRange=     0.0.
 One-electron integrals computed using PRISM.
 One-electron integral symmetry used in STVInt
 NBasis=   549 RedAO= T EigKep=  2.68D-04  NBF=   549
 NBsUse=   549 1.00D-06 EigRej= -1.00D+00 NBFU=   549
 Precomputing XC quadrature grid using
 IXCGrd= 4 IRadAn=           5 IRanWt=          -1 IRanGd=           0 AccXCQ= 0.00D+00.
 Generated NRdTot=       0 NPtTot=           0 NUsed=           0 NTot=          32
 NSgBfM=   512   512   512   512   512 MxSgAt=    58 MxSgA2=    58.
 Leave Link  302 at Thu Mar 14 10:11:11 2024, MaxMem= 32212254720 cpu:              12.6 elap:               0.4
 (Enter /home/<user>/g16/l303.exe)
 DipDrv:  MaxL=1.
 Leave Link  303 at Thu Mar 14 10:11:12 2024, MaxMem= 32212254720 cpu:               1.4 elap:               0.1
 (Enter /home/<user>/g16/l401.exe)
 Initial guess from the checkpoint file:  "FBTP_E0opt.chk"
 B after Tr=     0.000000   -0.000000    0.000000
         Rot=    1.000000   -0.000668    0.000012   -0.000052 Ang=  -0.08 deg.
 Guess basis will be translated and rotated to current coordinates.
 JPrj=2 DoOrth=T DoCkMO=T.
 Initial guess <Sx>= 0.0000 <Sy>= 0.0000 <Sz>= 0.5000 <S**2>= 0.7610 S= 0.5055
 Generating alternative initial guess.
 ExpMin= 1.17D-01 ExpMax= 2.19D+04 ExpMxC= 3.30D+03 IAcc=3 IRadAn=         5 AccDes= 0.00D+00
 Harris functional with IExCor=  402 and IRadAn=       5 diagonalized for initial guess.
 HarFok:  IExCor=  402 AccDes= 0.00D+00 IRadAn=         5 IDoV= 1 UseB2=F ITyADJ=14
 ICtDFT=  3500011 ScaDFX=  1.000000  1.000000  1.000000  1.000000
 FoFCou: FMM=F IPFlag=           0 FMFlag=      100000 FMFlg1=           0
         NFxFlg=           0 DoJE=T BraDBF=F KetDBF=T FulRan=T
         wScrn=  0.000000 ICntrl=       500 IOpCl=  0 I1Cent=   200000004 NGrid=           0
         NMat0=    1 NMatS0=      1 NMatT0=    0 NMatD0=    1 NMtDS0=    0 NMtDT0=    0
 Petite list used in FoFCou.
 Harris En= -1682.77812801826    
 Leave Link  401 at Thu Mar 14 10:11:13 2024, MaxMem= 32212254720 cpu:              47.4 elap:               1.6
 (Enter /home/<user>/g16/l502.exe)
 Integral symmetry usage will be decided dynamically.
 UHF open shell SCF:
 Using DIIS extrapolation, IDIIS=  1040.
 NGot= 32212254720 LenX= 32211628124 LenY= 32211326174
 Requested convergence on RMS density matrix=1.00D-08 within 128 cycles.
 Requested convergence on MAX density matrix=1.00D-06.
 Requested convergence on             energy=1.00D-06.
 No special actions if energy rises.
 Fock matrices will be formed incrementally for  20 cycles.
 Integral accuracy reduced to 1.0D-05 until final iterations.

 Cycle   1  Pass 0  IDiag  1:
 FoFJK:  IHMeth= 1 ICntrl=       0 DoSepK=F KAlg= 0 I1Cent=           0 FoldK=F
 IRaf= 550000000 NMat=       1 IRICut=       1 DoRegI=T DoRafI=F ISym2E= 0 IDoP0=0 IntGTp=1.
 FoFCou: FMM=F IPFlag=           0 FMFlag=      100000 FMFlg1=           0
         NFxFlg=           0 DoJE=F BraDBF=F KetDBF=F FulRan=T
         wScrn=  0.000000 ICntrl=         0 IOpCl=  1 I1Cent=           0 NGrid=           0
         NMat0=    1 NMatS0=      1 NMatT0=    0 NMatD0=    1 NMtDS0=    0 NMtDT0=    0
 Symmetry not used in FoFCou.
 E= -1682.64559159496    
 DIIS: error= 3.19D-04 at cycle   1 NSaved=   1.
 NSaved= 1 IEnMin= 1 EnMin= -1682.64559159496     IErMin= 1 ErrMin= 3.19D-04
 ErrMax= 3.19D-04  0.00D+00 EMaxC= 1.00D-01 BMatC= 5.14D-04 BMatP= 5.14D-04
 IDIUse=3 WtCom= 9.97D-01 WtEn= 3.19D-03
 Coeff-Com:  0.100D+01
 Coeff-En:   0.100D+01
 Coeff:      0.100D+01
 Gap=     1.870 Goal=   None    Shift=    0.000
 Gap=     1.932 Goal=   None    Shift=    0.000
 RMSDP=8.61D-05 MaxDP=2.57D-03              OVMax= 2.74D-03

 Cycle   2  Pass 0  IDiag  1:
 RMSU=  8.61D-05    CP:  1.00D+00
 E= -1682.64585053018     Delta-E=       -0.000258935223 Rises=F Damp=F
 DIIS: error= 6.15D-05 at cycle   2 NSaved=   2.
 NSaved= 2 IEnMin= 2 EnMin= -1682.64585053018     IErMin= 2 ErrMin= 6.15D-05
 ErrMax= 6.15D-05  0.00D+00 EMaxC= 1.00D-01 BMatC= 1.51D-05 BMatP= 5.14D-04
 IDIUse=1 WtCom= 1.00D+00 WtEn= 0.00D+00
 Coeff-Com: -0.460D-01 0.105D+01
 Coeff:     -0.460D-01 0.105D+01
 Gap=     0.063 Goal=   None    Shift=    0.000
 Gap=     0.109 Goal=   None    Shift=    0.000
 RMSDP=1.12D-05 MaxDP=1.09D-03 DE=-2.59D-04 OVMax= 2.58D-03

 Cycle   3  Pass 0  IDiag  1:
 RMSU=  1.11D-05    CP:  1.00D+00  1.01D+00
 E= -1682.64584664280     Delta-E=        0.000003887380 Rises=F Damp=F
 DIIS: error= 1.27D-04 at cycle   3 NSaved=   3.
 NSaved= 3 IEnMin= 2 EnMin= -1682.64585053018     IErMin= 2 ErrMin= 6.15D-05
 ErrMax= 1.27D-04  0.00D+00 EMaxC= 1.00D-01 BMatC= 4.19D-05 BMatP= 1.51D-05
 IDIUse=3 WtCom= 4.70D-01 WtEn= 5.30D-01
 Coeff-Com: -0.561D-01 0.688D+00 0.368D+00
 Coeff-En:   0.000D+00 0.650D+00 0.350D+00
 Coeff:     -0.264D-01 0.668D+00 0.359D+00
 Gap=     0.063 Goal=   None    Shift=    0.000
 Gap=     0.109 Goal=   None    Shift=    0.000
 RMSDP=7.86D-06 MaxDP=8.15D-04 DE= 3.89D-06 OVMax= 2.01D-03

 Initial convergence to 1.0D-05 achieved.  Increase integral accuracy.
 Cycle   4  Pass 1  IDiag  1:
 E= -1682.64590195408     Delta-E=       -0.000055311281 Rises=F Damp=F
 DIIS: error= 1.30D-04 at cycle   1 NSaved=   1.
 NSaved= 1 IEnMin= 1 EnMin= -1682.64590195408     IErMin= 1 ErrMin= 1.30D-04
 ErrMax= 1.30D-04  0.00D+00 EMaxC= 1.00D-01 BMatC= 1.30D-05 BMatP= 1.30D-05
 IDIUse=3 WtCom= 9.99D-01 WtEn= 1.30D-03
 Coeff-Com:  0.100D+01
 Coeff-En:   0.100D+01
 Coeff:      0.100D+01
 Gap=     0.063 Goal=   None    Shift=    0.000
 Gap=     0.109 Goal=   None    Shift=    0.000
 RMSDP=7.86D-06 MaxDP=8.15D-04 DE=-5.53D-05 OVMax= 1.82D-03

 Cycle   5  Pass 1  IDiag  1:
 RMSU=  7.46D-05    CP:  1.00D+00
 E= -1682.64590293217     Delta-E=       -0.000000978085 Rises=F Damp=F
 DIIS: error= 5.04D-05 at cycle   2 NSaved=   2.
 NSaved= 2 IEnMin= 2 EnMin= -1682.64590293217     IErMin= 2 ErrMin= 5.04D-05
 ErrMax= 5.04D-05  0.00D+00 EMaxC= 1.00D-01 BMatC= 6.44D-06 BMatP= 1.30D-05
 IDIUse=1 WtCom= 1.00D+00 WtEn= 0.00D+00
 Coeff-Com:  0.365D+00 0.635D+00
 Coeff:      0.365D+00 0.635D+00
 Gap=     0.063 Goal=   None    Shift=    0.000
 Gap=     0.109 Goal=   None    Shift=    0.000
 RMSDP=7.19D-06 MaxDP=7.00D-04 DE=-9.78D-07 OVMax= 2.27D-03

 Cycle   6  Pass 1  IDiag  1:
 RMSU=  7.18D-06    CP:  1.00D+00  9.94D-01
 E= -1682.64590219274     Delta-E=        0.000000739425 Rises=F Damp=F
 DIIS: error= 6.06D-05 at cycle   3 NSaved=   3.
 NSaved= 3 IEnMin= 2 EnMin= -1682.64590293217     IErMin= 2 ErrMin= 5.04D-05
 ErrMax= 6.06D-05  0.00D+00 EMaxC= 1.00D-01 BMatC= 9.21D-06 BMatP= 6.44D-06
 IDIUse=1 WtCom= 1.00D+00 WtEn= 0.00D+00
 Coeff-Com: -0.938D-03 0.545D+00 0.456D+00
 Coeff:     -0.938D-03 0.545D+00 0.456D+00
 Gap=     0.063 Goal=   None    Shift=    0.000
 Gap=     0.109 Goal=   None    Shift=    0.000
 RMSDP=3.91D-06 MaxDP=4.08D-04 DE= 7.39D-07 OVMax= 1.21D-03

 Cycle   7  Pass 1  IDiag  1:
 RMSU=  6.25D-07    CP:  1.00D+00  1.01D+00  4.76D-01
 E= -1682.64590475833     Delta-E=       -0.000002565594 Rises=F Damp=F
 DIIS: error= 5.01D-06 at cycle   4 NSaved=   4.
 NSaved= 4 IEnMin= 4 EnMin= -1682.64590475833     IErMin= 4 ErrMin= 5.01D-06
 ErrMax= 5.01D-06  0.00D+00 EMaxC= 1.00D-01 BMatC= 8.99D-08 BMatP= 6.44D-06
 IDIUse=1 WtCom= 1.00D+00 WtEn= 0.00D+00
 Coeff-Com: -0.321D-02 0.354D+00 0.300D+00 0.349D+00
 Coeff:     -0.321D-02 0.354D+00 0.300D+00 0.349D+00
 Gap=     0.063 Goal=   None    Shift=    0.000
 Gap=     0.109 Goal=   None    Shift=    0.000
 RMSDP=4.34D-07 MaxDP=4.02D-05 DE=-2.57D-06 OVMax= 1.06D-04

 Cycle   8  Pass 1  IDiag  1:
 RMSU=  2.57D-07    CP:  1.00D+00  1.01D+00  4.62D-01  4.62D-01
 E= -1682.64590478156     Delta-E=       -0.000000023227 Rises=F Damp=F
 DIIS: error= 1.58D-06 at cycle   5 NSaved=   5.
 NSaved= 5 IEnMin= 5 EnMin= -1682.64590478156     IErMin= 5 ErrMin= 1.58D-06
 ErrMax= 1.58D-06  0.00D+00 EMaxC= 1.00D-01 BMatC= 7.94D-09 BMatP= 8.99D-08
 IDIUse=1 WtCom= 1.00D+00 WtEn= 0.00D+00
 Coeff-Com: -0.203D-02 0.166D+00 0.143D+00 0.238D+00 0.455D+00
 Coeff:     -0.203D-02 0.166D+00 0.143D+00 0.238D+00 0.455D+00
 Gap=     0.063 Goal=   None    Shift=    0.000
 Gap=     0.109 Goal=   None    Shift=    0.000
 RMSDP=1.22D-07 MaxDP=1.34D-05 DE=-2.32D-08 OVMax= 2.46D-05

 Cycle   9  Pass 1  IDiag  1:
 RMSU=  1.05D-07    CP:  1.00D+00  1.01D+00  4.58D-01  5.13D-01  8.29D-01
 E= -1682.64590478361     Delta-E=       -0.000000002048 Rises=F Damp=F
 DIIS: error= 6.20D-07 at cycle   6 NSaved=   6.
 NSaved= 6 IEnMin= 6 EnMin= -1682.64590478361     IErMin= 6 ErrMin= 6.20D-07
 ErrMax= 6.20D-07  0.00D+00 EMaxC= 1.00D-01 BMatC= 1.15D-09 BMatP= 7.94D-09
 IDIUse=1 WtCom= 1.00D+00 WtEn= 0.00D+00
 Coeff-Com: -0.507D-03 0.233D-01 0.239D-01 0.769D-01 0.255D+00 0.621D+00
 Coeff:     -0.507D-03 0.233D-01 0.239D-01 0.769D-01 0.255D+00 0.621D+00
 Gap=     0.063 Goal=   None    Shift=    0.000
 Gap=     0.109 Goal=   None    Shift=    0.000
 RMSDP=6.66D-08 MaxDP=6.73D-06 DE=-2.05D-09 OVMax= 1.75D-05

 Cycle  10  Pass 1  IDiag  1:
 RMSU=  5.49D-08    CP:  1.00D+00  1.01D+00  4.58D-01  5.31D-01  9.66D-01
                    CP:  1.05D+00
 E= -1682.64590478410     Delta-E=       -0.000000000495 Rises=F Damp=F
 DIIS: error= 4.60D-07 at cycle   7 NSaved=   7.
 NSaved= 7 IEnMin= 7 EnMin= -1682.64590478410     IErMin= 7 ErrMin= 4.60D-07
 ErrMax= 4.60D-07  0.00D+00 EMaxC= 1.00D-01 BMatC= 4.14D-10 BMatP= 1.15D-09
 IDIUse=1 WtCom= 1.00D+00 WtEn= 0.00D+00
 Coeff-Com:  0.720D-03-0.707D-01-0.553D-01-0.627D-01-0.750D-01 0.357D+00
 Coeff-Com:  0.906D+00
 Coeff:      0.720D-03-0.707D-01-0.553D-01-0.627D-01-0.750D-01 0.357D+00
 Coeff:      0.906D+00
 Gap=     0.063 Goal=   None    Shift=    0.000
 Gap=     0.109 Goal=   None    Shift=    0.000
 RMSDP=7.16D-08 MaxDP=5.59D-06 DE=-4.95D-10 OVMax= 2.35D-05

 Cycle  11  Pass 1  IDiag  1:
 RMSU=  3.79D-08    CP:  1.00D+00  1.01D+00  4.58D-01  5.58D-01  1.11D+00
                    CP:  1.47D+00  1.21D+00
 E= -1682.64590478445     Delta-E=       -0.000000000345 Rises=F Damp=F
 DIIS: error= 3.36D-07 at cycle   8 NSaved=   8.
 NSaved= 8 IEnMin= 8 EnMin= -1682.64590478445     IErMin= 8 ErrMin= 3.36D-07
 ErrMax= 3.36D-07  0.00D+00 EMaxC= 1.00D-01 BMatC= 1.70D-10 BMatP= 4.14D-10
 IDIUse=1 WtCom= 1.00D+00 WtEn= 0.00D+00
 Coeff-Com:  0.681D-03-0.589D-01-0.474D-01-0.682D-01-0.133D+00 0.641D-01
 Coeff-Com:  0.657D+00 0.586D+00
 Coeff:      0.681D-03-0.589D-01-0.474D-01-0.682D-01-0.133D+00 0.641D-01
 Coeff:      0.657D+00 0.586D+00
 Gap=     0.063 Goal=   None    Shift=    0.000
 Gap=     0.109 Goal=   None    Shift=    0.000
 RMSDP=3.52D-08 MaxDP=2.44D-06 DE=-3.45D-10 OVMax= 1.04D-05

 Cycle  12  Pass 1  IDiag  1:
 RMSU=  1.90D-08    CP:  1.00D+00  1.01D+00  4.57D-01  5.69D-01  1.17D+00
                    CP:  1.61D+00  1.52D+00  1.02D+00
 E= -1682.64590478461     Delta-E=       -0.000000000163 Rises=F Damp=F
 DIIS: error= 1.14D-07 at cycle   9 NSaved=   9.
 NSaved= 9 IEnMin= 9 EnMin= -1682.64590478461     IErMin= 9 ErrMin= 1.14D-07
 ErrMax= 1.14D-07  0.00D+00 EMaxC= 1.00D-01 BMatC= 2.25D-11 BMatP= 1.70D-10
 IDIUse=1 WtCom= 1.00D+00 WtEn= 0.00D+00
 Coeff-Com:  0.174D-03-0.130D-01-0.107D-01-0.195D-01-0.483D-01-0.469D-01
 Coeff-Com:  0.124D+00 0.290D+00 0.725D+00
 Coeff:      0.174D-03-0.130D-01-0.107D-01-0.195D-01-0.483D-01-0.469D-01
 Coeff:      0.124D+00 0.290D+00 0.725D+00
 Gap=     0.063 Goal=   None    Shift=    0.000
 Gap=     0.109 Goal=   None    Shift=    0.000
 RMSDP=1.39D-08 MaxDP=9.16D-07 DE=-1.63D-10 OVMax= 3.37D-06

 Cycle  13  Pass 1  IDiag  1:
 RMSU=  9.05D-09    CP:  1.00D+00  1.01D+00  4.57D-01  5.71D-01  1.19D+00
                    CP:  1.67D+00  1.60D+00  1.17D+00  9.55D-01
 E= -1682.64590478464     Delta-E=       -0.000000000029 Rises=F Damp=F
 DIIS: error= 7.43D-08 at cycle  10 NSaved=  10.
 NSaved=10 IEnMin=10 EnMin= -1682.64590478464     IErMin=10 ErrMin= 7.43D-08
 ErrMax= 7.43D-08  0.00D+00 EMaxC= 1.00D-01 BMatC= 1.23D-11 BMatP= 2.25D-11
 IDIUse=1 WtCom= 1.00D+00 WtEn= 0.00D+00
 Coeff-Com: -0.111D-03 0.110D-01 0.856D-02 0.877D-02 0.103D-01-0.560D-01
 Coeff-Com: -0.134D+00 0.109D-01 0.507D+00 0.634D+00
 Coeff:     -0.111D-03 0.110D-01 0.856D-02 0.877D-02 0.103D-01-0.560D-01
 Coeff:     -0.134D+00 0.109D-01 0.507D+00 0.634D+00
 Gap=     0.063 Goal=   None    Shift=    0.000
 Gap=     0.109 Goal=   None    Shift=    0.000
 RMSDP=8.24D-09 MaxDP=6.17D-07 DE=-2.91D-11 OVMax= 1.44D-06

 SCF Done:  E(UB3LYP) =  -1682.64590478     A.U. after   13 cycles
            NFock= 13  Conv=0.82D-08     -V/T= 2.0082
 <Sx>= 0.0000 <Sy>= 0.0000 <Sz>= 0.5000 <S**2>= 0.7610 S= 0.5055
 <L.S>= 0.000000000000E+00
 KE= 1.669028624443D+03 PE=-1.008649944731D+04 EE= 3.665725056711D+03
 Annihilation of the first spin contaminant:
 S**2 before annihilation     0.7610,   after     0.7501
 Leave Link  502 at Thu Mar 14 10:11:47 2024, MaxMem= 32212254720 cpu:            1012.0 elap:              33.7
 (Enter /home/<user>/g16/l701.exe)
 ... and contract with generalized density number  0.
 Compute integral first derivatives.
 Leave Link  701 at Thu Mar 14 10:11:47 2024, MaxMem= 32212254720 cpu:               5.1 elap:               0.2
 (Enter /home/<user>/g16/l702.exe)
 L702 exits ... SP integral derivatives will be done elsewhere.
 Leave Link  702 at Thu Mar 14 10:11:47 2024, MaxMem= 32212254720 cpu:               0.7 elap:               0.0
 (Enter /home/<user>/g16/l703.exe)
 Integral derivatives from FoFJK, PRISM(SPDF).
 Compute integral first derivatives, UseDBF=F ICtDFT=           0.
 Calling FoFJK, ICntrl=      2127 FMM=F ISym2X=0 I1Cent= 0 IOpClX= 1 NMat=1 NMatS=1 NMatT=0.
 FoFJK:  IHMeth= 1 ICntrl=    2127 DoSepK=F KAlg= 0 I1Cent=           0 FoldK=F
 IRaf=         0 NMat=       1 IRICut=       1 DoRegI=T DoRafI=F ISym2E= 0 IDoP0=0 IntGTp=1.
 FoFCou: FMM=F IPFlag=           0 FMFlag=      100000 FMFlg1=         800
         NFxFlg=           0 DoJE=F BraDBF=F KetDBF=F FulRan=T
         wScrn=  0.000000 ICntrl=      2127 IOpCl=  1 I1Cent=           0 NGrid=           0
         NMat0=    1 NMatS0=      1 NMatT0=    0 NMatD0=    1 NMtDS0=    0 NMtDT0=    0
 Symmetry not used in FoFCou.
 Leave Link  703 at Thu Mar 14 10:11:54 2024, MaxMem= 32212254720 cpu:             198.1 elap:               6.6
 (Enter /home/<user>/g16/l716.exe)
 Dipole        =-8.45586242D-01-1.34282902D+00 1.99934962D-01
 ***** Axes restored to original set *****
 -------------------------------------------------------------------
 Center     Atomic                   Forces (Hartrees/Bohr)
 Number     Number              X              Y              Z
 -------------------------------------------------------------------
      1        6          -0.000069401    0.000031617   -0.000028979
      2        6           0.000074734    0.000104030   -0.000042194
      3        6          -0.000095376   -0.000065623    0.000044559
      4        6          -0.000008760   -0.000013797   -0.000008191
      5        6          -0.000034848    0.000005519    0.000046941
      6        6           0.000004917    0.000025319   -0.000015769
      7        1          -0.000076538   -0.000051631    0.000005440
      8        1           0.000009253    0.000031831   -0.000030358
      9        1          -0.000003516   -0.000001769   -0.000009799
     10        6          -0.000006644    0.000025120    0.000018828
     11        6          -0.000028712   -0.000001778    0.000004410
     12        6           0.000028689    0.000028822   -0.000007223
     13        6          -0.000017830   -0.000015166    0.000000594
     14        6           0.000048124    0.000010787   -0.000004985
     15        6          -0.000062588    0.000030598    0.000003398
     16        6           0.000081580   -0.000060781   -0.000014138
     17        1          -0.000000048   -0.000008847    0.000001067
     18        1          -0.000003383   -0.000000453    0.000001800
     19        1          -0.000010676    0.000001404    0.000000582
     20        1           0.000009409   -0.000001605    0.000002177
     21        6           0.000004211    0.000009735   -0.000008184
     22        1          -0.000008761   -0.000008102    0.000004376
     23        1           0.000006096    0.000001262    0.000001889
     24        1           0.000003703    0.000000106    0.000005112
     25        6           0.000004742    0.000005764   -0.000009417
     26        1           0.000005058   -0.000001940   -0.000004016
     27        1          -0.000006220   -0.000008237   -0.000000705
     28        1           0.000002007   -0.000001727   -0.000005045
     29        6           0.000117917   -0.000277781   -0.000003190
     30        6          -0.000138006   -0.000300944   -0.000019690
     31        6           0.000065037    0.000034194    0.000002520
     32        6           0.000080486   -0.000263241    0.000054433
     33        6          -0.000121742    0.000063835    0.000008647
     34        1           0.000055600   -0.000042093   -0.000008086
     35        6          -0.000161444   -0.000191035    0.000037398
     36        1          -0.000114077    0.000006425   -0.000035075
     37        7           0.000706496    0.000363003    0.000020279
     38        7          -0.000494650    0.000427495   -0.000015604
     39       16           0.000035854    0.000018164    0.000029423
     40        6          -0.000125804    0.000124807   -0.000136768
     41        6           0.000039754    0.000006919    0.000053010
     42        6           0.000170053   -0.000112455    0.000060148
     43        6          -0.000000682    0.000005887   -0.000002427
     44        1           0.000007640   -0.000002436    0.000002034
     45        6          -0.000033401    0.000003217    0.000013938
     46        1           0.000055272    0.000044838    0.000000348
     47        6          -0.000002148    0.000021309   -0.000033812
     48        1           0.000011652    0.000009202   -0.000004639
     49        1           0.000023854   -0.000010871    0.000008483
     50        6          -0.000031602    0.000016916    0.000038261
     51        1           0.000000552   -0.000021089   -0.000001480
     52        1           0.000002498    0.000025965   -0.000012630
     53        6           0.000069024   -0.000020209   -0.000014978
     54        1          -0.000004144    0.000007515    0.000026276
     55        1          -0.000021100   -0.000014464   -0.000021597
     56        7          -0.000017204    0.000000856    0.000058329
     57        1          -0.000018019   -0.000023445   -0.000029701
     58        1          -0.000006889    0.000029058   -0.000026018
 -------------------------------------------------------------------
 Cartesian Forces:  Max     0.000706496 RMS     0.000097518
 Leave Link  716 at Thu Mar 14 10:11:54 2024, MaxMem= 32212254720 cpu:               0.7 elap:               0.0
 (Enter /home/<user>/g16/l103.exe)

 GradGradGradGradGradGradGradGradGradGradGradGradGradGradGradGradGradGrad
 Berny optimization.
 Using GEDIIS/GDIIS optimizer.
 FormGI is forming the generalized inverse of G from B-inverse, IUseBI=4.
 GSVD:  received Info=                   1 from GESDD.
 Internal  Forces:  Max     0.000468515 RMS     0.000075930
 Search for a local minimum.
 Step number   6 out of a maximum of  346
 All quantities printed in internal units (Hartrees-Bohrs-Radians)
 RMS Force = .75930D-04 SwitMx=.10000D-02 MixMth= 2
 Mixed Optimization -- En-DIIS/RFO-DIIS
 Swapping is turned off.
 Update second derivatives using D2CorX and points    2    3    4    5    6
 DE= -1.34D-05 DEPred=-1.41D-05 R= 9.50D-01
 TightC=F SS=  1.41D+00  RLast= 3.27D-02 DXNew= 1.4270D+00 9.8138D-02
 Trust test= 9.50D-01 RLast= 3.27D-02 DXMaxT set to 8.49D-01
 ITU=  1  1  1  1  1  0
     Eigenvalues ---    0.00230   0.00230   0.00251   0.00546   0.00613
     Eigenvalues ---    0.00755   0.00923   0.01035   0.01259   0.01460
     Eigenvalues ---    0.01465   0.01604   0.01614   0.01637   0.01646
     Eigenvalues ---    0.01685   0.01708   0.01728   0.01769   0.01817
     Eigenvalues ---    0.01878   0.01957   0.02013   0.02034   0.02039
     Eigenvalues ---    0.02071   0.02084   0.02088   0.02094   0.02096
     Eigenvalues ---    0.02112   0.02117   0.02119   0.02122   0.02133
     Eigenvalues ---    0.02134   0.02141   0.02145   0.02147   0.02156
     Eigenvalues ---    0.02161   0.02162   0.02220   0.02307   0.04013
     Eigenvalues ---    0.04224   0.04427   0.04623   0.05427   0.05436
     Eigenvalues ---    0.05440   0.05493   0.05496   0.05531   0.05941
     Eigenvalues ---    0.08011   0.09070   0.09324   0.11623   0.12671
     Eigenvalues ---    0.12852   0.13784   0.15759   0.15974   0.15995
     Eigenvalues ---    0.15999   0.16000   0.16000   0.16000   0.16000
     Eigenvalues ---    0.16000   0.16000   0.16000   0.16000   0.16000
     Eigenvalues ---    0.16000   0.16000   0.16000   0.16003   0.16012
     Eigenvalues ---    0.16047   0.16134   0.18953   0.21154   0.21816
     Eigenvalues ---    0.21971   0.22001   0.22081   0.22446   0.22457
     Eigenvalues ---    0.22672   0.22902   0.23322   0.23976   0.24417
     Eigenvalues ---    0.24537   0.24971   0.24983   0.24988   0.24994
     Eigenvalues ---    0.24998   0.25156   0.25472   0.28053   0.28078
     Eigenvalues ---    0.28212   0.28592   0.28693   0.29106   0.31212
     Eigenvalues ---    0.32855   0.33134   0.33790   0.34027   0.34090
     Eigenvalues ---    0.34100   0.34104   0.34117   0.34135   0.34277
     Eigenvalues ---    0.34290   0.34556   0.34902   0.35035   0.35040
     Eigenvalues ---    0.35069   0.35088   0.35151   0.35155   0.35161
     Eigenvalues ---    0.35189   0.35191   0.35255   0.35262   0.35452
     Eigenvalues ---    0.35559   0.35725   0.36361   0.37344   0.38009
     Eigenvalues ---    0.39047   0.39548   0.40607   0.41231   0.41585
     Eigenvalues ---    0.41680   0.42060   0.42284   0.42708   0.43401
     Eigenvalues ---    0.44360   0.44506   0.44538   0.44664   0.44977
     Eigenvalues ---    0.45012   0.45826   0.45896   0.46074   0.46180
     Eigenvalues ---    0.46409   0.46934   0.47200   0.47305   0.48291
     Eigenvalues ---    0.54553   0.56138   0.62349
 En-DIIS/RFO-DIIS/Sim-DIIS IScMMF=       -3 using points:     6    5    4    3    2
 RFO step:  Lambda=-6.68595000D-06.
 NNeg= 0 NGDIIS= 5 SimSw=  2.50D-01 Rises=F DC= -1.34D-05 SmlDif=  1.00D-05
 NRisDI= 0 DoIntr=F SqrtH=F CThrHd= 10.0 CDAdj=  3.0
 RMS Error=  0.7157761597D-03 NUsed= 5 OKEnD=T EnDIS=F
 InvSVX:  RCond= 8.85D-06 Info=           0 Equed=N FErr=  4.99D-14 BErr=  9.07D-17
 DidBck=F Rises=F RFO-DIIS coefs:    1.04528    0.13589   -0.11097   -0.11300    0.04280
 Iteration  1 RMS(Cart)=  0.00226322 RMS(Int)=  0.00000176
 Iteration  2 RMS(Cart)=  0.00000316 RMS(Int)=  0.00000142
 Iteration  3 RMS(Cart)=  0.00000000 RMS(Int)=  0.00000142
 ITry= 1 IFail=0 DXMaxC= 1.05D-02 DCOld= 1.00D+10 DXMaxT= 8.49D-01 DXLimC= 3.00D+00 Rises=F
 Variable       Old X    -DE/DX   Delta X   Delta X   Delta X     New X
                                 (Linear)    (Quad)   (Total)
    R1        2.68828   0.00009  -0.00034   0.00044   0.00010   2.68837
    R2        2.62615  -0.00000   0.00021  -0.00011   0.00010   2.62625
    R3        2.04461  -0.00008   0.00013  -0.00033  -0.00020   2.04441
    R4        2.69129   0.00009  -0.00031   0.00045   0.00014   2.69143
    R5        2.76721   0.00015  -0.00025   0.00055   0.00030   2.76751
    R6        2.61263  -0.00000   0.00004  -0.00001   0.00003   2.61266
    R7        2.05251  -0.00003   0.00006  -0.00014  -0.00008   2.05242
    R8        2.66622  -0.00002   0.00010  -0.00011  -0.00000   2.66622
    R9        2.89443  -0.00001   0.00009  -0.00008   0.00001   2.89443
   R10        2.64577  -0.00001  -0.00015   0.00007  -0.00007   2.64570
   R11        2.75677  -0.00004   0.00034  -0.00035  -0.00001   2.75676
   R12        2.05764   0.00000  -0.00001   0.00002   0.00001   2.05765
   R13        2.89179  -0.00000  -0.00003   0.00001  -0.00002   2.89177
   R14        2.91863   0.00000  -0.00007   0.00008   0.00000   2.91864
   R15        2.91838   0.00002  -0.00006   0.00010   0.00004   2.91842
   R16        2.62244  -0.00002   0.00018  -0.00017   0.00001   2.62245
   R17        2.67467  -0.00002  -0.00013   0.00003  -0.00010   2.67457
   R18        2.65291   0.00000  -0.00006   0.00005  -0.00000   2.65291
   R19        2.05748   0.00001  -0.00004   0.00005   0.00001   2.05749
   R20        2.64225   0.00001   0.00002   0.00001   0.00003   2.64228
   R21        2.05505   0.00000   0.00002   0.00001   0.00003   2.05508
   R22        2.64111  -0.00003   0.00008  -0.00009  -0.00001   2.64110
   R23        2.05633   0.00001  -0.00005   0.00006   0.00001   2.05635
   R24        2.64617   0.00004  -0.00011   0.00015   0.00005   2.64622
   R25        2.05516  -0.00000  -0.00001   0.00001  -0.00001   2.05516
   R26        2.07425   0.00001  -0.00002   0.00006   0.00004   2.07429
   R27        2.07194   0.00000  -0.00000   0.00002   0.00002   2.07196
   R28        2.06880   0.00000  -0.00003   0.00003   0.00000   2.06880
   R29        2.07204   0.00001  -0.00001   0.00002   0.00001   2.07205
   R30        2.07423   0.00001  -0.00002   0.00005   0.00003   2.07425
   R31        2.06897   0.00000  -0.00003   0.00003   0.00000   2.06897
   R32        2.72162   0.00018   0.00054   0.00013   0.00067   2.72229
   R33        2.67444  -0.00000  -0.00078   0.00050  -0.00029   2.67415
   R34        2.79061  -0.00019  -0.00030   0.00022  -0.00008   2.79053
   R35        2.53138   0.00033  -0.00036   0.00051   0.00015   2.53153
   R36        2.62275  -0.00012   0.00111  -0.00120  -0.00009   2.62266
   R37        2.05194   0.00000   0.00011  -0.00008   0.00003   2.05197
   R38        2.71294  -0.00002   0.00066  -0.00034   0.00032   2.71326
   R39        2.53489   0.00025  -0.00037   0.00039   0.00002   2.53491
   R40        2.66882   0.00004  -0.00062   0.00040  -0.00022   2.66860
   R41        2.05303  -0.00004   0.00003  -0.00008  -0.00004   2.05298
   R42        2.77916   0.00010  -0.00030   0.00038   0.00008   2.77924
   R43        3.16922  -0.00025  -0.00111  -0.00004  -0.00115   3.16807
   R44        3.16857  -0.00031  -0.00112  -0.00015  -0.00127   3.16730
   R45        2.67419   0.00005  -0.00026   0.00033   0.00007   2.67426
   R46        2.67563   0.00017  -0.00017   0.00045   0.00028   2.67591
   R47        2.63006  -0.00002   0.00014  -0.00010   0.00004   2.63010
   R48        2.04530  -0.00001   0.00009  -0.00013  -0.00005   2.04526
   R49        2.62819  -0.00002   0.00002  -0.00003  -0.00000   2.62819
   R50        2.05188  -0.00007  -0.00003  -0.00012  -0.00014   2.05173
   R51        2.64908  -0.00003  -0.00007  -0.00004  -0.00011   2.64897
   R52        2.06027   0.00002  -0.00005   0.00009   0.00004   2.06031
   R53        2.64910  -0.00001   0.00014  -0.00012   0.00002   2.64913
   R54        2.05966   0.00002  -0.00006   0.00012   0.00005   2.05972
   R55        2.85812  -0.00003   0.00012  -0.00022  -0.00010   2.85802
   R56        2.07377   0.00002  -0.00007   0.00012   0.00005   2.07382
   R57        2.08029   0.00002  -0.00007   0.00013   0.00006   2.08034
   R58        2.90430  -0.00001   0.00008  -0.00010  -0.00002   2.90429
   R59        2.08682   0.00002  -0.00001   0.00005   0.00004   2.08686
   R60        2.07295   0.00000   0.00001   0.00001   0.00001   2.07296
   R61        2.78338  -0.00004   0.00002  -0.00021  -0.00019   2.78319
   R62        1.92880  -0.00000   0.00001  -0.00002  -0.00001   1.92879
   R63        1.92735  -0.00002   0.00004  -0.00010  -0.00005   1.92729
    A1        2.13228   0.00004  -0.00020   0.00036   0.00016   2.13244
    A2        2.06142   0.00002   0.00026  -0.00014   0.00012   2.06155
    A3        2.08946  -0.00006  -0.00006  -0.00022  -0.00028   2.08918
    A4        2.03562  -0.00010   0.00045  -0.00070  -0.00025   2.03537
    A5        2.14247   0.00018  -0.00026   0.00070   0.00044   2.14291
    A6        2.10502  -0.00008  -0.00019  -0.00000  -0.00019   2.10484
    A7        2.11420   0.00005  -0.00027   0.00039   0.00011   2.11431
    A8        2.08288  -0.00005   0.00069  -0.00065   0.00004   2.08291
    A9        2.08551   0.00000  -0.00041   0.00026  -0.00015   2.08537
   A10        2.11343   0.00000   0.00005  -0.00000   0.00005   2.11347
   A11        2.23982  -0.00000  -0.00008   0.00004  -0.00004   2.23978
   A12        1.92988  -0.00000   0.00004  -0.00005  -0.00001   1.92987
   A13        2.07595   0.00000   0.00002  -0.00007  -0.00005   2.07590
   A14        1.90002  -0.00000  -0.00008   0.00005  -0.00003   1.89999
   A15        2.30712  -0.00000   0.00006   0.00002   0.00008   2.30721
   A16        2.09466   0.00001  -0.00004   0.00003  -0.00001   2.09465
   A17        2.08347  -0.00000  -0.00020   0.00012  -0.00007   2.08340
   A18        2.10506  -0.00001   0.00023  -0.00015   0.00008   2.10513
   A19        1.76892   0.00000  -0.00006   0.00005  -0.00001   1.76892
   A20        1.94550  -0.00000   0.00009  -0.00008   0.00001   1.94551
   A21        1.94450  -0.00001   0.00010  -0.00017  -0.00006   1.94443
   A22        1.94171   0.00000  -0.00006   0.00010   0.00004   1.94176
   A23        1.94276  -0.00000  -0.00003  -0.00001  -0.00004   1.94272
   A24        1.91691   0.00001  -0.00006   0.00010   0.00005   1.91696
   A25        2.25040   0.00001  -0.00005   0.00008   0.00004   2.25043
   A26        1.92887  -0.00002   0.00017  -0.00016   0.00001   1.92887
   A27        2.10392   0.00000  -0.00012   0.00008  -0.00004   2.10388
   A28        2.08574   0.00001  -0.00008   0.00009   0.00001   2.08575
   A29        2.10558  -0.00001   0.00009  -0.00009   0.00001   2.10558
   A30        2.09187  -0.00000  -0.00002  -0.00000  -0.00002   2.09185
   A31        2.09503  -0.00001   0.00016  -0.00015   0.00001   2.09504
   A32        2.09338   0.00000  -0.00006   0.00007   0.00000   2.09339
   A33        2.09477   0.00000  -0.00009   0.00008  -0.00001   2.09475
   A34        2.10900   0.00000  -0.00011   0.00010  -0.00002   2.10899
   A35        2.08809  -0.00001   0.00004  -0.00008  -0.00003   2.08806
   A36        2.08609   0.00000   0.00007  -0.00002   0.00005   2.08614
   A37        2.08116  -0.00001  -0.00007   0.00002  -0.00004   2.08111
   A38        2.09858   0.00001  -0.00003   0.00009   0.00006   2.09863
   A39        2.10345  -0.00001   0.00010  -0.00012  -0.00002   2.10344
   A40        1.89707   0.00002  -0.00007   0.00011   0.00003   1.89711
   A41        2.29460  -0.00002  -0.00015   0.00004  -0.00011   2.29449
   A42        2.09152  -0.00000   0.00022  -0.00015   0.00008   2.09159
   A43        1.93726   0.00000  -0.00008   0.00009   0.00001   1.93727
   A44        1.93021  -0.00000   0.00007  -0.00005   0.00002   1.93022
   A45        1.93484   0.00000   0.00000   0.00004   0.00004   1.93488
   A46        1.88519   0.00000  -0.00008   0.00005  -0.00003   1.88516
   A47        1.88944  -0.00000  -0.00000  -0.00001  -0.00001   1.88943
   A48        1.88512  -0.00000   0.00010  -0.00013  -0.00003   1.88509
   A49        1.92948   0.00000   0.00004  -0.00003   0.00002   1.92949
   A50        1.93779   0.00000  -0.00008   0.00007  -0.00001   1.93778
   A51        1.93511   0.00000  -0.00001   0.00004   0.00003   1.93514
   A52        1.88532  -0.00000  -0.00005   0.00004  -0.00002   1.88530
   A53        1.88516  -0.00000   0.00009  -0.00011  -0.00002   1.88514
   A54        1.88920  -0.00000   0.00001  -0.00001  -0.00000   1.88919
   A55        2.16684   0.00006   0.00014  -0.00004   0.00010   2.16694
   A56        2.10702  -0.00002   0.00044  -0.00016   0.00027   2.10730
   A57        2.00932  -0.00005  -0.00057   0.00020  -0.00037   2.00895
   A58        2.11131  -0.00002   0.00026  -0.00027  -0.00001   2.11130
   A59        2.19057   0.00037   0.00032   0.00062   0.00094   2.19151
   A60        1.98112  -0.00035  -0.00057  -0.00035  -0.00092   1.98019
   A61        2.15960   0.00003   0.00033  -0.00001   0.00032   2.15992
   A62        2.07177   0.00006   0.00048   0.00015   0.00063   2.07240
   A63        2.05025  -0.00009  -0.00076  -0.00021  -0.00097   2.04929
   A64        2.11226   0.00005   0.00034  -0.00015   0.00018   2.11244
   A65        1.98284  -0.00017  -0.00062   0.00018  -0.00044   1.98240
   A66        2.18791   0.00012   0.00030  -0.00002   0.00028   2.18819
   A67        2.15920   0.00000   0.00029  -0.00007   0.00022   2.15941
   A68        2.05231  -0.00011  -0.00085  -0.00020  -0.00106   2.05126
   A69        2.07038   0.00011   0.00059   0.00023   0.00081   2.07119
   A70        2.01335  -0.00002  -0.00068   0.00035  -0.00033   2.01302
   A71        2.16336  -0.00039   0.00003  -0.00109  -0.00106   2.16230
   A72        2.10647   0.00041   0.00065   0.00074   0.00139   2.10786
   A73        1.86846   0.00047   0.00098   0.00013   0.00111   1.86957
   A74        1.86630   0.00041   0.00101  -0.00010   0.00091   1.86721
   A75        1.72607  -0.00036  -0.00080   0.00015  -0.00066   1.72541
   A76        2.14854  -0.00019  -0.00031  -0.00016  -0.00047   2.14807
   A77        2.11001   0.00029   0.00000   0.00076   0.00076   2.11077
   A78        2.02450  -0.00010   0.00032  -0.00058  -0.00027   2.02424
   A79        2.12002   0.00006  -0.00013   0.00032   0.00020   2.12022
   A80        2.07053  -0.00003   0.00016  -0.00021  -0.00005   2.07048
   A81        2.09262  -0.00004  -0.00003  -0.00012  -0.00015   2.09247
   A82        2.13066   0.00002  -0.00026   0.00031   0.00005   2.13071
   A83        2.08388   0.00000   0.00062  -0.00044   0.00019   2.08406
   A84        2.06830  -0.00003  -0.00037   0.00012  -0.00025   2.06805
   A85        2.13010  -0.00000   0.00004  -0.00007  -0.00003   2.13007
   A86        2.07373   0.00000  -0.00016   0.00012  -0.00003   2.07369
   A87        2.07934  -0.00000   0.00012  -0.00005   0.00007   2.07941
   A88        2.11990   0.00001   0.00015  -0.00010   0.00005   2.11995
   A89        2.07999   0.00002  -0.00019   0.00023   0.00004   2.08003
   A90        2.08325  -0.00002   0.00004  -0.00013  -0.00009   2.08316
   A91        2.04105   0.00002  -0.00012   0.00010  -0.00002   2.04103
   A92        2.12181   0.00000   0.00014  -0.00005   0.00009   2.12189
   A93        2.11941  -0.00002  -0.00001  -0.00007  -0.00008   2.11933
   A94        1.93660  -0.00001  -0.00008   0.00002  -0.00006   1.93654
   A95        1.91591  -0.00001   0.00001  -0.00015  -0.00013   1.91578
   A96        1.97022   0.00002   0.00020  -0.00009   0.00012   1.97034
   A97        1.85978   0.00001   0.00005   0.00007   0.00012   1.85990
   A98        1.88519  -0.00001  -0.00014   0.00008  -0.00006   1.88514
   A99        1.89223  -0.00000  -0.00006   0.00007   0.00001   1.89225
   A100       1.89625   0.00000  -0.00003   0.00007   0.00003   1.89628
   A101       1.90143  -0.00001  -0.00011   0.00003  -0.00009   1.90134
   A102       1.93426  -0.00001  -0.00003  -0.00011  -0.00014   1.93412
   A103       1.85877  -0.00000   0.00001   0.00002   0.00003   1.85880
   A104       1.98813  -0.00000   0.00013  -0.00013  -0.00000   1.98813
   A105       1.88198   0.00002   0.00003   0.00014   0.00017   1.88215
   A106       1.89812  -0.00002   0.00010  -0.00022  -0.00012   1.89800
   A107       1.90744  -0.00001   0.00052  -0.00054  -0.00001   1.90743
   A108       1.84086   0.00001   0.00002   0.00004   0.00007   1.84093
    D1       -0.02231   0.00001   0.00031   0.00027   0.00058  -0.02173
    D2        3.10635   0.00000   0.00030   0.00024   0.00053   3.10688
    D3        3.11250   0.00001   0.00090  -0.00019   0.00071   3.11321
    D4       -0.04203   0.00001   0.00089  -0.00023   0.00066  -0.04137
    D5        0.00786   0.00000  -0.00045   0.00052   0.00007   0.00792
    D6       -3.13270   0.00000  -0.00051   0.00040  -0.00011  -3.13281
    D7       -3.12685   0.00000  -0.00105   0.00099  -0.00006  -3.12691
    D8        0.01578   0.00000  -0.00111   0.00088  -0.00023   0.01555
    D9        0.02189  -0.00001  -0.00008  -0.00063  -0.00071   0.02118
   D10       -3.08242  -0.00001  -0.00040  -0.00036  -0.00076  -3.08318
   D11       -3.10706  -0.00001  -0.00006  -0.00060  -0.00066  -3.10773
   D12        0.07181  -0.00001  -0.00038  -0.00033  -0.00072   0.07110
   D13        0.34904   0.00003  -0.00015   0.00132   0.00117   0.35022
   D14       -2.79061   0.00003  -0.00038   0.00148   0.00110  -2.78950
   D15       -2.80598   0.00002  -0.00016   0.00128   0.00112  -2.80486
   D16        0.33756   0.00003  -0.00039   0.00144   0.00105   0.33861
   D17       -0.00735   0.00000  -0.00000   0.00020   0.00019  -0.00716
   D18       -3.13541   0.00001  -0.00040   0.00064   0.00023  -3.13518
   D19        3.09690   0.00001   0.00034  -0.00009   0.00025   3.09715
   D20       -0.03116   0.00001  -0.00005   0.00035   0.00029  -0.03087
   D21       -0.00801   0.00001  -0.00012   0.00060   0.00048  -0.00754
   D22       -3.13632  -0.00000  -0.00007  -0.00004  -0.00011  -3.13643
   D23        3.12224   0.00001   0.00021   0.00023   0.00044   3.12268
   D24       -0.00607  -0.00000   0.00026  -0.00040  -0.00014  -0.00621
   D25        3.13584   0.00000   0.00008  -0.00002   0.00006   3.13589
   D26        1.06869  -0.00000   0.00013  -0.00013   0.00001   1.06869
   D27       -1.07943  -0.00000   0.00006  -0.00008  -0.00002  -1.07945
   D28        0.00662   0.00000  -0.00028   0.00038   0.00010   0.00672
   D29       -2.06053   0.00000  -0.00023   0.00027   0.00004  -2.06048
   D30        2.07454  -0.00000  -0.00030   0.00032   0.00002   2.07456
   D31        0.00775  -0.00001   0.00034  -0.00094  -0.00060   0.00715
   D32       -3.13489  -0.00001   0.00040  -0.00083  -0.00043  -3.13531
   D33        3.13238   0.00000   0.00028  -0.00014   0.00014   3.13252
   D34       -0.01026  -0.00000   0.00033  -0.00002   0.00032  -0.00995
   D35        0.00274   0.00000  -0.00012   0.00025   0.00013   0.00287
   D36       -3.13881   0.00000  -0.00002   0.00005   0.00003  -3.13878
   D37       -3.12316  -0.00001  -0.00006  -0.00050  -0.00056  -3.12372
   D38        0.01848  -0.00001   0.00004  -0.00070  -0.00066   0.01782
   D39        3.13797  -0.00000   0.00017  -0.00025  -0.00008   3.13789
   D40       -0.00491  -0.00000   0.00021  -0.00022  -0.00001  -0.00493
   D41       -1.07534  -0.00000   0.00022  -0.00027  -0.00005  -1.07539
   D42        2.06496  -0.00000   0.00026  -0.00025   0.00001   2.06497
   D43        1.06880   0.00000   0.00009  -0.00008   0.00001   1.06881
   D44       -2.07408   0.00001   0.00013  -0.00005   0.00008  -2.07401
   D45        3.08321   0.00000  -0.00039   0.00045   0.00006   3.08328
   D46       -1.10783   0.00000  -0.00050   0.00055   0.00005  -1.10778
   D47        0.98264   0.00000  -0.00033   0.00038   0.00005   0.98269
   D48        1.12273   0.00000  -0.00035   0.00039   0.00004   1.12277
   D49       -3.06831   0.00000  -0.00046   0.00048   0.00002  -3.06829
   D50       -0.97784  -0.00000  -0.00029   0.00031   0.00002  -0.97781
   D51       -1.03619  -0.00000  -0.00023   0.00026   0.00003  -1.03616
   D52        1.05595  -0.00000  -0.00034   0.00035   0.00001   1.05596
   D53       -3.13676  -0.00000  -0.00017   0.00019   0.00001  -3.13675
   D54        1.10732  -0.00000   0.00061  -0.00075  -0.00015   1.10717
   D55       -3.08370  -0.00000   0.00052  -0.00068  -0.00016  -3.08386
   D56       -0.98291   0.00000   0.00047  -0.00062  -0.00015  -0.98306
   D57        3.06782  -0.00000   0.00058  -0.00080  -0.00021   3.06761
   D58       -1.12319  -0.00000   0.00050  -0.00072  -0.00023  -1.12342
   D59        0.97760  -0.00000   0.00045  -0.00067  -0.00022   0.97738
   D60       -1.05705   0.00000   0.00045  -0.00061  -0.00015  -1.05720
   D61        1.03512   0.00000   0.00037  -0.00053  -0.00017   1.03495
   D62        3.13591   0.00000   0.00032  -0.00048  -0.00016   3.13575
   D63        3.14062   0.00000   0.00008  -0.00005   0.00004   3.14065
   D64       -0.00073   0.00000   0.00004  -0.00002   0.00003  -0.00070
   D65        0.00043  -0.00000   0.00004  -0.00008  -0.00003   0.00039
   D66       -3.14091  -0.00000  -0.00000  -0.00004  -0.00004  -3.14096
   D67        0.00166  -0.00000  -0.00007   0.00000  -0.00007   0.00159
   D68       -3.13997   0.00000  -0.00016   0.00018   0.00002  -3.13995
   D69       -3.14110  -0.00000  -0.00003   0.00002  -0.00001  -3.14111
   D70        0.00045   0.00000  -0.00012   0.00020   0.00008   0.00053
   D71       -0.00074  -0.00000   0.00003  -0.00004  -0.00001  -0.00075
   D72        3.14107   0.00000  -0.00002   0.00007   0.00005   3.14111
   D73        3.14060  -0.00000   0.00008  -0.00008  -0.00000   3.14060
   D74       -0.00077   0.00000   0.00002   0.00003   0.00006  -0.00072
   D75        0.00018   0.00000  -0.00003   0.00004   0.00001   0.00019
   D76       -3.14119   0.00000  -0.00006   0.00010   0.00004  -3.14116
   D77        3.14155  -0.00000   0.00002  -0.00007  -0.00005   3.14151
   D78        0.00018  -0.00000  -0.00001  -0.00001  -0.00002   0.00016
   D79        0.00070   0.00000  -0.00005   0.00008   0.00003   0.00073
   D80       -3.14098   0.00000  -0.00008   0.00009   0.00001  -3.14098
   D81       -3.14111   0.00000  -0.00002   0.00002   0.00001  -3.14110
   D82        0.00039   0.00000  -0.00005   0.00003  -0.00002   0.00037
   D83        3.14053   0.00000   0.00001   0.00002   0.00003   3.14057
   D84       -0.00101  -0.00000   0.00012  -0.00020  -0.00007  -0.00108
   D85       -0.00097   0.00000   0.00005   0.00001   0.00006  -0.00091
   D86        3.14068  -0.00000   0.00016  -0.00021  -0.00005   3.14063
   D87        3.10588   0.00002  -0.00058   0.00068   0.00009   3.10597
   D88       -0.01324   0.00001  -0.00120   0.00114  -0.00007  -0.01331
   D89       -0.03756   0.00001  -0.00037   0.00053   0.00015  -0.03740
   D90        3.12651   0.00000  -0.00099   0.00099  -0.00001   3.12651
   D91       -3.10479  -0.00002   0.00065  -0.00093  -0.00029  -3.10508
   D92        0.09848   0.00000  -0.00032   0.00033   0.00000   0.09848
   D93        0.03858  -0.00001   0.00044  -0.00078  -0.00035   0.03823
   D94       -3.04134   0.00001  -0.00054   0.00047  -0.00006  -3.04140
   D95       -0.00030   0.00000  -0.00004   0.00017   0.00012  -0.00018
   D96       -3.12284  -0.00003  -0.00075   0.00000  -0.00075  -3.12359
   D97        3.12134   0.00002   0.00051  -0.00023   0.00028   3.12162
   D98       -0.00120  -0.00002  -0.00019  -0.00040  -0.00059  -0.00178
   D99        3.12262   0.00000   0.00065  -0.00056   0.00008   3.12270
   D100       0.00204  -0.00000   0.00005  -0.00013  -0.00007   0.00197
   D101       0.00059   0.00001  -0.00006   0.00034   0.00028   0.00087
   D102      -3.08547   0.00003  -0.00067   0.00146   0.00080  -3.08468
   D103       3.08121  -0.00001   0.00095  -0.00089   0.00005   3.08126
   D104      -0.00485   0.00001   0.00033   0.00023   0.00056  -0.00429
   D105       0.03836  -0.00001   0.00041  -0.00062  -0.00021   0.03816
   D106      -3.10595  -0.00004   0.00033  -0.00122  -0.00088  -3.10684
   D107      -3.12464   0.00002   0.00120  -0.00043   0.00077  -3.12388
   D108       0.01422  -0.00000   0.00111  -0.00103   0.00009   0.01431
   D109      -0.00031   0.00003   0.00023   0.00070   0.00092   0.00062
   D110      -3.12188  -0.00001  -0.00052   0.00053   0.00001  -3.12187
   D111      -0.03967   0.00000  -0.00038   0.00039   0.00001  -0.03966
   D112       3.10455   0.00003  -0.00030   0.00097   0.00067   3.10522
   D113       3.04585  -0.00003   0.00020  -0.00076  -0.00057   3.04529
   D114      -0.09311   0.00000   0.00027  -0.00018   0.00010  -0.09301
   D115      -0.39242   0.00002   0.00039   0.00112   0.00151  -0.39090
   D116       2.76762  -0.00002   0.00002  -0.00028  -0.00027   2.76735
   D117       2.74631  -0.00001   0.00031   0.00049   0.00080   2.74711
   D118      -0.37684  -0.00005  -0.00006  -0.00092  -0.00098  -0.37782
   D119      -0.00199   0.00002   0.00007   0.00047   0.00054  -0.00145
   D120       0.00132  -0.00003  -0.00018  -0.00069  -0.00087   0.00046
   D121      -3.10754  -0.00003  -0.00036  -0.00077  -0.00113  -3.10867
   D122       0.03928  -0.00003  -0.00095  -0.00034  -0.00129   0.03799
   D123       0.01644   0.00002  -0.00000   0.00058   0.00058   0.01702
   D124      -3.11992   0.00002  -0.00059   0.00101   0.00042  -3.11950
   D125       3.10759   0.00002   0.00022   0.00093   0.00115   3.10874
   D126      -0.06302   0.00001   0.00019   0.00075   0.00094  -0.06209
   D127      -0.01681  -0.00002  -0.00012  -0.00038  -0.00050  -0.01732
   D128       3.09576  -0.00003  -0.00015  -0.00057  -0.00072   3.09504
   D129      -0.00685  -0.00001   0.00011  -0.00038  -0.00026  -0.00711
   D130       3.12863  -0.00001   0.00016  -0.00018  -0.00002   3.12861
   D131       3.12944  -0.00001   0.00071  -0.00081  -0.00010   3.12934
   D132      -0.01826  -0.00000   0.00076  -0.00061   0.00014  -0.01812
   D133       0.00746   0.00000   0.00014  -0.00004   0.00010   0.00756
   D134       3.13878  -0.00000   0.00029  -0.00029  -0.00000   3.13878
   D135      -3.10537   0.00001   0.00015   0.00016   0.00031  -3.10506
   D136       0.02596   0.00001   0.00030  -0.00009   0.00021   0.02616
   D137      -0.00331  -0.00000  -0.00010  -0.00007  -0.00016  -0.00348
   D138      -3.09943   0.00000  -0.00033   0.00038   0.00005  -3.09937
   D139      -3.13878  -0.00001  -0.00014  -0.00027  -0.00041  -3.13919
   D140       0.04830  -0.00000  -0.00037   0.00018  -0.00019   0.04810
   D141       0.00303   0.00001  -0.00003   0.00027   0.00024   0.00327
   D142       3.09921   0.00000   0.00021  -0.00018   0.00003   3.09924
   D143      -3.12828   0.00001  -0.00018   0.00052   0.00035  -3.12793
   D144      -0.03210   0.00001   0.00006   0.00007   0.00013  -0.03196
   D145      -2.62025  -0.00000   0.00013   0.00041   0.00054  -2.61972
   D146      -0.56921  -0.00000   0.00015   0.00041   0.00057  -0.56864
   D147       1.54395   0.00000   0.00023   0.00034   0.00057   1.54452
   D148       0.56886   0.00001  -0.00011   0.00087   0.00076   0.56962
   D149       2.61990   0.00001  -0.00009   0.00088   0.00079   2.62070
   D150      -1.55012   0.00001  -0.00001   0.00081   0.00080  -1.54932
   D151      -0.95797   0.00000  -0.00069   0.00035  -0.00034  -0.95831
   D152       1.06035  -0.00000  -0.00075   0.00042  -0.00033   1.06002
   D153       3.12826   0.00000  -0.00081   0.00055  -0.00026   3.12801
   D154      -3.10580   0.00000  -0.00062   0.00032  -0.00030  -3.10610
   D155      -1.08748  -0.00000  -0.00068   0.00039  -0.00029  -1.08777
   D156       0.98044   0.00000  -0.00074   0.00052  -0.00022   0.98021
   D157       1.16859  -0.00000  -0.00058   0.00016  -0.00042   1.16817
   D158      -3.09627  -0.00001  -0.00064   0.00023  -0.00041  -3.09669
   D159      -1.02836   0.00000  -0.00070   0.00036  -0.00034  -1.02870
   D160       1.13487  -0.00002  -0.00199  -0.00177  -0.00375   1.13111
   D161       3.13618  -0.00002  -0.00162  -0.00212  -0.00375   3.13243
   D162      -1.00975  -0.00002  -0.00201  -0.00167  -0.00369  -1.01344
   D163       0.99156  -0.00002  -0.00165  -0.00203  -0.00368   0.98788
   D164      -3.06865  -0.00003  -0.00213  -0.00171  -0.00384  -3.07249
   D165      -1.06734  -0.00003  -0.00176  -0.00207  -0.00383  -1.07117
         Item               Value     Threshold  Converged?
 Maximum Force            0.000469     0.000450     NO 
 RMS     Force            0.000076     0.000300     YES
 Maximum Displacement     0.010545     0.001800     NO 
 RMS     Displacement     0.002263     0.001200     NO 
 Predicted change in Energy=-3.285673D-06
 Lowest energy point so far.  Saving SCF results.
 GradGradGradGradGradGradGradGradGradGradGradGradGradGradGradGradGradGrad

 Leave Link  103 at Thu Mar 14 10:11:54 2024, MaxMem= 32212254720 cpu:               2.6 elap:               0.1
 (Enter /home/<user>/g16/l202.exe)
 Stoichiometry    C29H25N3S(1-,2)
 Framework group  C1[X(C29H25N3S)]
 Deg. of freedom   168
 Full point group                 C1      NOp   1
 RotChk:  IX=0 Diff= 4.34D-04
 Largest Abelian subgroup         C1      NOp   1
 Largest concise Abelian subgroup C1      NOp   1
                         Standard orientation:                         
 ---------------------------------------------------------------------
 Center     Atomic      Atomic             Coordinates (Angstroms)
 Number     Number       Type             X           Y           Z
 ---------------------------------------------------------------------
      1          6           0       -2.488060    1.676376   -0.287037
      2          6           0       -1.790902    0.441577   -0.172556
      3          6           0       -2.586684   -0.726832    0.000702
      4          6           0       -3.967052   -0.654115    0.028447
      5          6           0       -4.634427    0.581741   -0.105426
      6          6           0       -3.875676    1.748239   -0.259364
      7          1           0       -1.906382    2.582432   -0.392516
      8          1           0       -2.098875   -1.686012    0.147738
      9          1           0       -4.362337    2.717171   -0.359122
     10          6           0       -4.974800   -1.792972    0.211352
     11          6           0       -6.301841   -1.033237    0.152524
     12          6           0       -7.594773   -1.526889    0.254835
     13          6           0       -8.681291   -0.641604    0.173773
     14          6           0       -8.457292    0.726572   -0.007828
     15          6           0       -7.158513    1.232348   -0.111175
     16          6           0       -6.073035    0.351260   -0.031753
     17          1           0       -7.772597   -2.591569    0.397200
     18          1           0       -9.697484   -1.020809    0.252601
     19          1           0       -9.304260    1.406994   -0.069366
     20          1           0       -6.995389    2.298359   -0.251746
     21          6           0       -4.792085   -2.496010    1.574348
     22          1           0       -5.555063   -3.271111    1.722521
     23          1           0       -3.807171   -2.974249    1.632645
     24          1           0       -4.868722   -1.777648    2.396898
     25          6           0       -4.869405   -2.827708   -0.930253
     26          1           0       -3.885323   -3.311222   -0.921877
     27          1           0       -5.632726   -3.609429   -0.824965
     28          1           0       -5.002505   -2.347817   -1.905287
     29          6           0       -0.331214    0.345719   -0.242487
     30          6           0        0.563695    1.451955   -0.017459
     31          6           0        0.299084   -0.883810   -0.548246
     32          6           0        2.027944    1.265978   -0.061966
     33          6           0        1.675670   -1.055328   -0.589744
     34          1           0       -0.319107   -1.733730   -0.821309
     35          6           0        2.602692   -0.022084   -0.330437
     36          1           0        2.051465   -2.029837   -0.888674
     37          7           0        0.194073    2.707430    0.268486
     38          7           0        2.719283    2.387635    0.189695
     39         16           0        1.597914    3.602174    0.466499
     40          6           0        4.049216   -0.287138   -0.347891
     41          6           0        5.017037    0.723342   -0.559836
     42          6           0        4.551161   -1.599054   -0.168806
     43          6           0        6.376479    0.428990   -0.608263
     44          1           0        4.681807    1.745252   -0.681103
     45          6           0        5.911787   -1.882638   -0.219200
     46          1           0        3.860527   -2.410057    0.041215
     47          6           0        6.861311   -0.875778   -0.442448
     48          1           0        7.083619    1.239536   -0.786186
     49          1           0        6.246347   -2.909502   -0.072153
     50          6           0        8.343636   -1.175879   -0.443292
     51          1           0        8.539431   -2.185685   -0.825769
     52          1           0        8.864288   -0.478497   -1.117454
     53          6           0        8.976750   -1.065480    0.952768
     54          1           0        8.754333   -0.064695    1.363238
     55          1           0        8.494944   -1.790253    1.620524
     56          7           0       10.413770   -1.384209    0.902488
     57          1           0       10.886783   -0.678219    0.337147
     58          1           0       10.811436   -1.295439    1.837441
 ---------------------------------------------------------------------
 Rotational constants (GHZ):           0.3523133           0.0394044           0.0360995
 Leave Link  202 at Thu Mar 14 10:11:54 2024, MaxMem= 32212254720 cpu:               0.0 elap:               0.0
 (Enter /home/<user>/g16/l301.exe)
 Standard basis: 6-31G(d) (6D, 7F)
 Ernie: Thresh=  0.10000D-02 Tol=  0.10000D-05 Strict=F.
 There are   549 symmetry adapted cartesian basis functions of A   symmetry.
 There are   549 symmetry adapted basis functions of A   symmetry.
   549 basis functions,  1048 primitive gaussians,   549 cartesian basis functions
   119 alpha electrons      118 beta electrons
       nuclear repulsion energy      3069.0331952761 Hartrees.
 IExCor=  402 DFT=T Ex+Corr=B3LYP ExCW=0 ScaHFX=  0.200000
 ScaDFX=  0.800000  0.720000  1.000000  0.810000 ScalE2=  1.000000  1.000000
 IRadAn=      5 IRanWt=     -1 IRanGd=            0 ICorTp=0 IEmpDi=  4
 NAtoms=   58 NActive=   58 NUniq=   58 SFac= 1.00D+00 NAtFMM=   60 NAOKFM=F Big=F
 Integral buffers will be    131072 words long.
 Raffenetti 2 integral format.
 Two-electron integral symmetry is turned on.
 Leave Link  301 at Thu Mar 14 10:11:54 2024, MaxMem= 32212254720 cpu:               0.8 elap:               0.0
 (Enter /home/<user>/g16/l302.exe)
 NPDir=0 NMtPBC=     1 NCelOv=     1 NCel=       1 NClECP=     1 NCelD=      1
         NCelK=      1 NCelE2=     1 NClLst=     1 CellRange=     0.0.
 One-electron integrals computed using PRISM.
 One-electron integral symmetry used in STVInt
 NBasis=   549 RedAO= T EigKep=  2.68D-04  NBF=   549
 NBsUse=   549 1.00D-06 EigRej= -1.00D+00 NBFU=   549
 Precomputing XC quadrature grid using
 IXCGrd= 4 IRadAn=           5 IRanWt=          -1 IRanGd=           0 AccXCQ= 0.00D+00.
 Generated NRdTot=       0 NPtTot=           0 NUsed=           0 NTot=          32
 NSgBfM=   512   512   512   512   512 MxSgAt=    58 MxSgA2=    58.
 Leave Link  302 at Thu Mar 14 10:11:55 2024, MaxMem= 32212254720 cpu:              12.5 elap:               0.4
 (Enter /home/<user>/g16/l303.exe)
 DipDrv:  MaxL=1.
 Leave Link  303 at Thu Mar 14 10:11:55 2024, MaxMem= 32212254720 cpu:               1.4 elap:               0.1
 (Enter /home/<user>/g16/l401.exe)
 Initial guess from the checkpoint file:  "FBTP_E0opt.chk"
 B after Tr=    -0.000000   -0.000000   -0.000000
         Rot=    1.000000    0.000089   -0.000005    0.000034 Ang=   0.01 deg.
 Guess basis will be translated and rotated to current coordinates.
 JPrj=2 DoOrth=T DoCkMO=T.
 Initial guess <Sx>= 0.0000 <Sy>= 0.0000 <Sz>= 0.5000 <S**2>= 0.7610 S= 0.5055
 Leave Link  401 at Thu Mar 14 10:11:55 2024, MaxMem= 32212254720 cpu:              17.1 elap:               0.6
 (Enter /home/<user>/g16/l502.exe)
 Integral symmetry usage will be decided dynamically.
 UHF open shell SCF:
 Using DIIS extrapolation, IDIIS=  1040.
 NGot= 32212254720 LenX= 32211628124 LenY= 32211326174
 Requested convergence on RMS density matrix=1.00D-08 within 128 cycles.
 Requested convergence on MAX density matrix=1.00D-06.
 Requested convergence on             energy=1.00D-06.
 No special actions if energy rises.
 Fock matrices will be formed incrementally for  20 cycles.

 Cycle   1  Pass 1  IDiag  1:
 FoFJK:  IHMeth= 1 ICntrl=       0 DoSepK=F KAlg= 0 I1Cent=           0 FoldK=F
 IRaf= 550000000 NMat=       1 IRICut=       1 DoRegI=T DoRafI=F ISym2E= 0 IDoP0=0 IntGTp=1.
 FoFCou: FMM=F IPFlag=           0 FMFlag=      100000 FMFlg1=           0
         NFxFlg=           0 DoJE=F BraDBF=F KetDBF=F FulRan=T
         wScrn=  0.000000 ICntrl=         0 IOpCl=  1 I1Cent=           0 NGrid=           0
         NMat0=    1 NMatS0=      1 NMatT0=    0 NMatD0=    1 NMtDS0=    0 NMtDT0=    0
 Symmetry not used in FoFCou.
 E= -1682.64589257901    
 DIIS: error= 8.01D-05 at cycle   1 NSaved=   1.
 NSaved= 1 IEnMin= 1 EnMin= -1682.64589257901     IErMin= 1 ErrMin= 8.01D-05
 ErrMax= 8.01D-05  0.00D+00 EMaxC= 1.00D-01 BMatC= 3.15D-05 BMatP= 3.15D-05
 IDIUse=1 WtCom= 1.00D+00 WtEn= 0.00D+00
 Coeff-Com:  0.100D+01
 Coeff:      0.100D+01
 Gap=     1.871 Goal=   None    Shift=    0.000
 Gap=     1.932 Goal=   None    Shift=    0.000
 RMSDP=1.08D-05 MaxDP=5.14D-04              OVMax= 7.14D-04

 Cycle   2  Pass 1  IDiag  1:
 RMSU=  1.08D-05    CP:  1.00D+00
 E= -1682.64590729107     Delta-E=       -0.000014712065 Rises=F Damp=F
 DIIS: error= 1.28D-05 at cycle   2 NSaved=   2.
 NSaved= 2 IEnMin= 2 EnMin= -1682.64590729107     IErMin= 2 ErrMin= 1.28D-05
 ErrMax= 1.28D-05  0.00D+00 EMaxC= 1.00D-01 BMatC= 9.11D-07 BMatP= 3.15D-05
 IDIUse=1 WtCom= 1.00D+00 WtEn= 0.00D+00
 Coeff-Com: -0.373D-01 0.104D+01
 Coeff:     -0.373D-01 0.104D+01
 Gap=     0.063 Goal=   None    Shift=    0.000
 Gap=     0.109 Goal=   None    Shift=    0.000
 RMSDP=2.88D-06 MaxDP=2.09D-04 DE=-1.47D-05 OVMax= 3.60D-04

 Cycle   3  Pass 1  IDiag  1:
 RMSU=  2.88D-06    CP:  1.00D+00  1.02D+00
 E= -1682.64590692992     Delta-E=        0.000000361149 Rises=F Damp=F
 DIIS: error= 2.28D-05 at cycle   3 NSaved=   3.
 NSaved= 3 IEnMin= 2 EnMin= -1682.64590729107     IErMin= 2 ErrMin= 1.28D-05
 ErrMax= 2.28D-05  0.00D+00 EMaxC= 1.00D-01 BMatC= 2.71D-06 BMatP= 9.11D-07
 IDIUse=1 WtCom= 1.00D+00 WtEn= 0.00D+00
 Coeff-Com: -0.492D-01 0.688D+00 0.361D+00
 Coeff:     -0.492D-01 0.688D+00 0.361D+00
 Gap=     0.063 Goal=   None    Shift=    0.000
 Gap=     0.109 Goal=   None    Shift=    0.000
 RMSDP=1.99D-06 MaxDP=1.72D-04 DE= 3.61D-07 OVMax= 3.15D-04

 Cycle   4  Pass 1  IDiag  1:
 RMSU=  8.45D-07    CP:  1.00D+00  1.06D+00  3.94D-01
 E= -1682.64590758077     Delta-E=       -0.000000650849 Rises=F Damp=F
 DIIS: error= 6.69D-06 at cycle   4 NSaved=   4.
 NSaved= 4 IEnMin= 4 EnMin= -1682.64590758077     IErMin= 4 ErrMin= 6.69D-06
 ErrMax= 6.69D-06  0.00D+00 EMaxC= 1.00D-01 BMatC= 1.32D-07 BMatP= 9.11D-07
 IDIUse=1 WtCom= 1.00D+00 WtEn= 0.00D+00
 Coeff-Com: -0.284D-01 0.367D+00 0.231D+00 0.430D+00
 Coeff:     -0.284D-01 0.367D+00 0.231D+00 0.430D+00
 Gap=     0.063 Goal=   None    Shift=    0.000
 Gap=     0.109 Goal=   None    Shift=    0.000
 RMSDP=5.50D-07 MaxDP=4.93D-05 DE=-6.51D-07 OVMax= 1.01D-04

 Cycle   5  Pass 1  IDiag  1:
 RMSU=  4.17D-07    CP:  1.00D+00  1.06D+00  4.42D-01  6.07D-01
 E= -1682.64590760832     Delta-E=       -0.000000027543 Rises=F Damp=F
 DIIS: error= 2.45D-06 at cycle   5 NSaved=   5.
 NSaved= 5 IEnMin= 5 EnMin= -1682.64590760832     IErMin= 5 ErrMin= 2.45D-06
 ErrMax= 2.45D-06  0.00D+00 EMaxC= 1.00D-01 BMatC= 2.54D-08 BMatP= 1.32D-07
 IDIUse=1 WtCom= 1.00D+00 WtEn= 0.00D+00
 Coeff-Com: -0.734D-02 0.829D-01 0.712D-01 0.310D+00 0.543D+00
 Coeff:     -0.734D-02 0.829D-01 0.712D-01 0.310D+00 0.543D+00
 Gap=     0.063 Goal=   None    Shift=    0.000
 Gap=     0.109 Goal=   None    Shift=    0.000
 RMSDP=2.20D-07 MaxDP=1.80D-05 DE=-2.75D-08 OVMax= 3.77D-05

 Cycle   6  Pass 1  IDiag  1:
 RMSU=  1.58D-07    CP:  1.00D+00  1.06D+00  4.44D-01  7.20D-01  7.17D-01
 E= -1682.64590761477     Delta-E=       -0.000000006457 Rises=F Damp=F
 DIIS: error= 8.04D-07 at cycle   6 NSaved=   6.
 NSaved= 6 IEnMin= 6 EnMin= -1682.64590761477     IErMin= 6 ErrMin= 8.04D-07
 ErrMax= 8.04D-07  0.00D+00 EMaxC= 1.00D-01 BMatC= 2.12D-09 BMatP= 2.54D-08
 IDIUse=1 WtCom= 1.00D+00 WtEn= 0.00D+00
 Coeff-Com: -0.648D-03 0.674D-03 0.115D-01 0.117D+00 0.299D+00 0.573D+00
 Coeff:     -0.648D-03 0.674D-03 0.115D-01 0.117D+00 0.299D+00 0.573D+00
 Gap=     0.063 Goal=   None    Shift=    0.000
 Gap=     0.109 Goal=   None    Shift=    0.000
 RMSDP=8.15D-08 MaxDP=8.09D-06 DE=-6.46D-09 OVMax= 1.80D-05

 Cycle   7  Pass 1  IDiag  1:
 RMSU=  6.66D-08    CP:  1.00D+00  1.06D+00  4.47D-01  7.41D-01  7.95D-01
                    CP:  8.29D-01
 E= -1682.64590761534     Delta-E=       -0.000000000567 Rises=F Damp=F
 DIIS: error= 4.74D-07 at cycle   7 NSaved=   7.
 NSaved= 7 IEnMin= 7 EnMin= -1682.64590761534     IErMin= 7 ErrMin= 4.74D-07
 ErrMax= 4.74D-07  0.00D+00 EMaxC= 1.00D-01 BMatC= 4.80D-10 BMatP= 2.12D-09
 IDIUse=1 WtCom= 1.00D+00 WtEn= 0.00D+00
 Coeff-Com:  0.114D-02-0.171D-01-0.731D-02 0.947D-02 0.762D-01 0.346D+00
 Coeff-Com:  0.591D+00
 Coeff:      0.114D-02-0.171D-01-0.731D-02 0.947D-02 0.762D-01 0.346D+00
 Coeff:      0.591D+00
 Gap=     0.063 Goal=   None    Shift=    0.000
 Gap=     0.109 Goal=   None    Shift=    0.000
 RMSDP=4.30D-08 MaxDP=3.56D-06 DE=-5.67D-10 OVMax= 1.15D-05

 Cycle   8  Pass 1  IDiag  1:
 RMSU=  3.54D-08    CP:  1.00D+00  1.06D+00  4.48D-01  7.50D-01  8.17D-01
                    CP:  9.55D-01  9.21D-01
 E= -1682.64590761558     Delta-E=       -0.000000000241 Rises=F Damp=F
 DIIS: error= 2.55D-07 at cycle   8 NSaved=   8.
 NSaved= 8 IEnMin= 8 EnMin= -1682.64590761558     IErMin= 8 ErrMin= 2.55D-07
 ErrMax= 2.55D-07  0.00D+00 EMaxC= 1.00D-01 BMatC= 7.50D-11 BMatP= 4.80D-10
 IDIUse=1 WtCom= 1.00D+00 WtEn= 0.00D+00
 Coeff-Com:  0.617D-03-0.750D-02-0.532D-02-0.197D-01-0.242D-01 0.290D-01
 Coeff-Com:  0.254D+00 0.773D+00
 Coeff:      0.617D-03-0.750D-02-0.532D-02-0.197D-01-0.242D-01 0.290D-01
 Coeff:      0.254D+00 0.773D+00
 Gap=     0.063 Goal=   None    Shift=    0.000
 Gap=     0.109 Goal=   None    Shift=    0.000
 RMSDP=3.04D-08 MaxDP=3.04D-06 DE=-2.41D-10 OVMax= 1.21D-05

 Cycle   9  Pass 1  IDiag  1:
 RMSU=  1.77D-08    CP:  1.00D+00  1.06D+00  4.49D-01  7.57D-01  8.37D-01
                    CP:  1.04D+00  1.20D+00  1.08D+00
 E= -1682.64590761570     Delta-E=       -0.000000000117 Rises=F Damp=F
 DIIS: error= 2.16D-07 at cycle   9 NSaved=   9.
 NSaved= 9 IEnMin= 9 EnMin= -1682.64590761570     IErMin= 9 ErrMin= 2.16D-07
 ErrMax= 2.16D-07  0.00D+00 EMaxC= 1.00D-01 BMatC= 5.36D-11 BMatP= 7.50D-11
 IDIUse=1 WtCom= 1.00D+00 WtEn= 0.00D+00
 Coeff-Com:  0.199D-04 0.114D-02-0.105D-02-0.187D-01-0.467D-01-0.116D+00
 Coeff-Com: -0.483D-01 0.592D+00 0.637D+00
 Coeff:      0.199D-04 0.114D-02-0.105D-02-0.187D-01-0.467D-01-0.116D+00
 Coeff:     -0.483D-01 0.592D+00 0.637D+00
 Gap=     0.063 Goal=   None    Shift=    0.000
 Gap=     0.109 Goal=   None    Shift=    0.000
 RMSDP=2.02D-08 MaxDP=2.18D-06 DE=-1.17D-10 OVMax= 6.55D-06

 Cycle  10  Pass 1  IDiag  1:
 RMSU=  9.09D-09    CP:  1.00D+00  1.06D+00  4.49D-01  7.60D-01  8.51D-01
                    CP:  1.09D+00  1.32D+00  1.38D+00  7.61D-01
 E= -1682.64590761571     Delta-E=       -0.000000000013 Rises=F Damp=F
 DIIS: error= 8.12D-08 at cycle  10 NSaved=  10.
 NSaved=10 IEnMin=10 EnMin= -1682.64590761571     IErMin=10 ErrMin= 8.12D-08
 ErrMax= 8.12D-08  0.00D+00 EMaxC= 1.00D-01 BMatC= 1.06D-11 BMatP= 5.36D-11
 IDIUse=1 WtCom= 1.00D+00 WtEn= 0.00D+00
 Coeff-Com: -0.179D-03 0.302D-02 0.982D-03-0.589D-02-0.213D-01-0.814D-01
 Coeff-Com: -0.114D+00 0.127D+00 0.386D+00 0.706D+00
 Coeff:     -0.179D-03 0.302D-02 0.982D-03-0.589D-02-0.213D-01-0.814D-01
 Coeff:     -0.114D+00 0.127D+00 0.386D+00 0.706D+00
 Gap=     0.063 Goal=   None    Shift=    0.000
 Gap=     0.109 Goal=   None    Shift=    0.000
 RMSDP=1.02D-08 MaxDP=9.53D-07 DE=-1.27D-11 OVMax= 3.13D-06

 Cycle  11  Pass 1  IDiag  1:
 RMSU=  4.74D-09    CP:  1.00D+00  1.06D+00  4.50D-01  7.62D-01  8.56D-01
                    CP:  1.11D+00  1.39D+00  1.52D+00  9.80D-01  9.38D-01
 E= -1682.64590761564     Delta-E=        0.000000000073 Rises=F Damp=F
 DIIS: error= 3.48D-08 at cycle  11 NSaved=  11.
 NSaved=11 IEnMin=10 EnMin= -1682.64590761571     IErMin=11 ErrMin= 3.48D-08
 ErrMax= 3.48D-08  0.00D+00 EMaxC= 1.00D-01 BMatC= 3.17D-12 BMatP= 1.06D-11
 IDIUse=1 WtCom= 1.00D+00 WtEn= 0.00D+00
 Coeff-Com: -0.102D-03 0.145D-02 0.809D-03 0.742D-03-0.195D-02-0.216D-01
 Coeff-Com: -0.547D-01-0.472D-01 0.103D+00 0.438D+00 0.582D+00
 Coeff:     -0.102D-03 0.145D-02 0.809D-03 0.742D-03-0.195D-02-0.216D-01
 Coeff:     -0.547D-01-0.472D-01 0.103D+00 0.438D+00 0.582D+00
 Gap=     0.063 Goal=   None    Shift=    0.000
 Gap=     0.109 Goal=   None    Shift=    0.000
 RMSDP=3.57D-09 MaxDP=2.83D-07 DE= 7.28D-11 OVMax= 1.03D-06

 SCF Done:  E(UB3LYP) =  -1682.64590762     A.U. after   11 cycles
            NFock= 11  Conv=0.36D-08     -V/T= 2.0082
 <Sx>= 0.0000 <Sy>= 0.0000 <Sz>= 0.5000 <S**2>= 0.7610 S= 0.5055
 <L.S>= 0.000000000000E+00
 KE= 1.669027761416D+03 PE=-1.008636453886D+04 EE= 3.665657674553D+03
 Annihilation of the first spin contaminant:
 S**2 before annihilation     0.7610,   after     0.7501
 Leave Link  502 at Thu Mar 14 10:12:27 2024, MaxMem= 32212254720 cpu:             954.6 elap:              31.8
 (Enter /home/<user>/g16/l701.exe)
 ... and contract with generalized density number  0.
 Compute integral first derivatives.
 Leave Link  701 at Thu Mar 14 10:12:27 2024, MaxMem= 32212254720 cpu:               5.1 elap:               0.2
 (Enter /home/<user>/g16/l702.exe)
 L702 exits ... SP integral derivatives will be done elsewhere.
 Leave Link  702 at Thu Mar 14 10:12:27 2024, MaxMem= 32212254720 cpu:               0.7 elap:               0.0
 (Enter /home/<user>/g16/l703.exe)
 Integral derivatives from FoFJK, PRISM(SPDF).
 Compute integral first derivatives, UseDBF=F ICtDFT=           0.
 Calling FoFJK, ICntrl=      2127 FMM=F ISym2X=0 I1Cent= 0 IOpClX= 1 NMat=1 NMatS=1 NMatT=0.
 FoFJK:  IHMeth= 1 ICntrl=    2127 DoSepK=F KAlg= 0 I1Cent=           0 FoldK=F
 IRaf=         0 NMat=       1 IRICut=       1 DoRegI=T DoRafI=F ISym2E= 0 IDoP0=0 IntGTp=1.
 FoFCou: FMM=F IPFlag=           0 FMFlag=      100000 FMFlg1=         800
         NFxFlg=           0 DoJE=F BraDBF=F KetDBF=F FulRan=T
         wScrn=  0.000000 ICntrl=      2127 IOpCl=  1 I1Cent=           0 NGrid=           0
         NMat0=    1 NMatS0=      1 NMatT0=    0 NMatD0=    1 NMtDS0=    0 NMtDT0=    0
 Symmetry not used in FoFCou.
 Leave Link  703 at Thu Mar 14 10:12:34 2024, MaxMem= 32212254720 cpu:             201.2 elap:               6.7
 (Enter /home/<user>/g16/l716.exe)
 Dipole        =-8.47804233D-01-1.33702098D+00 1.99585347D-01
 ***** Axes restored to original set *****
 -------------------------------------------------------------------
 Center     Atomic                   Forces (Hartrees/Bohr)
 Number     Number              X              Y              Z
 -------------------------------------------------------------------
      1        6          -0.000040029   -0.000022603   -0.000002676
      2        6           0.000082563    0.000049302   -0.000032787
      3        6          -0.000095017   -0.000029891    0.000031873
      4        6           0.000017788   -0.000008176    0.000001802
      5        6          -0.000046437   -0.000038276    0.000009682
      6        6           0.000070986    0.000052421    0.000001143
      7        1           0.000013756    0.000026520    0.000010829
      8        1           0.000046034    0.000011521   -0.000012778
      9        1          -0.000002784   -0.000008586   -0.000011146
     10        6           0.000001319    0.000018972    0.000003005
     11        6          -0.000046464   -0.000025425    0.000010302
     12        6           0.000026613    0.000019503   -0.000003575
     13        6          -0.000024624   -0.000010531    0.000002546
     14        6           0.000044614    0.000006941   -0.000002848
     15        6          -0.000062223    0.000009570    0.000003721
     16        6           0.000090689    0.000005752   -0.000012888
     17        1           0.000001639   -0.000005649    0.000001205
     18        1           0.000005505    0.000001315   -0.000001042
     19        1          -0.000005305    0.000001669    0.000000008
     20        1           0.000006782   -0.000000477    0.000002199
     21        6           0.000000912   -0.000006702   -0.000005725
     22        1          -0.000002796    0.000000672    0.000000753
     23        1           0.000001769    0.000004273   -0.000001628
     24        1           0.000002514    0.000002519    0.000000582
     25        6           0.000002150   -0.000006217    0.000001859
     26        1           0.000001413    0.000000223   -0.000001462
     27        1          -0.000000790   -0.000001778   -0.000003360
     28        1           0.000001357    0.000001824   -0.000002375
     29        6           0.000079685    0.000068305    0.000027074
     30        6          -0.000069057   -0.000193352   -0.000004037
     31        6           0.000041701   -0.000072014   -0.000014077
     32        6           0.000025823   -0.000228870   -0.000029955
     33        6          -0.000036745   -0.000034698    0.000000262
     34        1          -0.000032768    0.000010977    0.000004167
     35        6          -0.000060141    0.000044182    0.000000854
     36        1           0.000043618   -0.000011440    0.000011192
     37        7           0.000071533    0.000188573    0.000020552
     38        7          -0.000128138    0.000240045    0.000054700
     39       16          -0.000039791   -0.000066529   -0.000021713
     40        6          -0.000061188    0.000046910    0.000012433
     41        6           0.000078391   -0.000010475   -0.000030350
     42        6           0.000078792   -0.000023259   -0.000004507
     43        6          -0.000027494    0.000016144   -0.000004306
     44        1           0.000022970   -0.000016737    0.000004377
     45        6          -0.000029062   -0.000003937    0.000001545
     46        1          -0.000050897    0.000004619   -0.000014505
     47        6          -0.000014759   -0.000004848   -0.000001837
     48        1           0.000002059   -0.000004696   -0.000007551
     49        1           0.000006957    0.000002077    0.000001836
     50        6          -0.000017345    0.000012027    0.000025336
     51        1           0.000005588   -0.000006068   -0.000006643
     52        1           0.000006339    0.000008434   -0.000003032
     53        6           0.000014485    0.000001168   -0.000030050
     54        1          -0.000008922    0.000000263    0.000014224
     55        1          -0.000011799   -0.000008836   -0.000010449
     56        7           0.000011421   -0.000018731    0.000040083
     57        1          -0.000006424   -0.000007279   -0.000018068
     58        1           0.000013232    0.000019359   -0.000004774
 -------------------------------------------------------------------
 Cartesian Forces:  Max     0.000240045 RMS     0.000044334
 Leave Link  716 at Thu Mar 14 10:12:34 2024, MaxMem= 32212254720 cpu:               0.7 elap:               0.0
 (Enter /home/<user>/g16/l103.exe)

 GradGradGradGradGradGradGradGradGradGradGradGradGradGradGradGradGradGrad
 Berny optimization.
 Using GEDIIS/GDIIS optimizer.
 FormGI is forming the generalized inverse of G from B-inverse, IUseBI=4.
 GSVD:  received Info=                   1 from GESDD.
 Internal  Forces:  Max     0.000173668 RMS     0.000032812
 Search for a local minimum.
 Step number   7 out of a maximum of  346
 All quantities printed in internal units (Hartrees-Bohrs-Radians)
 RMS Force = .32812D-04 SwitMx=.10000D-02 MixMth= 2
 Mixed Optimization -- En-DIIS/RFO-DIIS
 Swapping is turned off.
 Update second derivatives using D2CorX and points    2    3    4    5    6
                                                      7
 DE= -2.83D-06 DEPred=-3.29D-06 R= 8.62D-01
 TightC=F SS=  1.41D+00  RLast= 1.16D-02 DXNew= 1.4270D+00 3.4723D-02
 Trust test= 8.62D-01 RLast= 1.16D-02 DXMaxT set to 8.49D-01
 ITU=  1  1  1  1  1  1  0
     Eigenvalues ---    0.00230   0.00230   0.00250   0.00497   0.00615
     Eigenvalues ---    0.00755   0.00884   0.01039   0.01259   0.01460
     Eigenvalues ---    0.01465   0.01605   0.01620   0.01637   0.01653
     Eigenvalues ---    0.01684   0.01717   0.01726   0.01795   0.01834
     Eigenvalues ---    0.01877   0.01934   0.02024   0.02034   0.02042
     Eigenvalues ---    0.02074   0.02084   0.02089   0.02094   0.02099
     Eigenvalues ---    0.02112   0.02117   0.02119   0.02123   0.02133
     Eigenvalues ---    0.02134   0.02143   0.02145   0.02149   0.02159
     Eigenvalues ---    0.02161   0.02164   0.02219   0.02320   0.04013
     Eigenvalues ---    0.04225   0.04427   0.04625   0.05427   0.05436
     Eigenvalues ---    0.05439   0.05493   0.05497   0.05534   0.05941
     Eigenvalues ---    0.08011   0.09060   0.09326   0.11623   0.12668
     Eigenvalues ---    0.12851   0.14515   0.15588   0.15975   0.15995
     Eigenvalues ---    0.15999   0.16000   0.16000   0.16000   0.16000
     Eigenvalues ---    0.16000   0.16000   0.16000   0.16000   0.16000
     Eigenvalues ---    0.16000   0.16000   0.16002   0.16010   0.16030
     Eigenvalues ---    0.16056   0.16099   0.18955   0.21211   0.21575
     Eigenvalues ---    0.21982   0.22011   0.22082   0.22337   0.22456
     Eigenvalues ---    0.22628   0.22702   0.23002   0.23746   0.24349
     Eigenvalues ---    0.24532   0.24972   0.24979   0.24989   0.24994
     Eigenvalues ---    0.24998   0.25184   0.26136   0.28051   0.28079
     Eigenvalues ---    0.28484   0.28607   0.29026   0.31118   0.31539
     Eigenvalues ---    0.32951   0.33138   0.33787   0.34028   0.34090
     Eigenvalues ---    0.34100   0.34104   0.34117   0.34133   0.34277
     Eigenvalues ---    0.34289   0.34603   0.34862   0.34975   0.35038
     Eigenvalues ---    0.35069   0.35085   0.35151   0.35158   0.35163
     Eigenvalues ---    0.35188   0.35195   0.35260   0.35297   0.35461
     Eigenvalues ---    0.35566   0.35860   0.36550   0.37397   0.37978
     Eigenvalues ---    0.39052   0.40489   0.40870   0.41483   0.41562
     Eigenvalues ---    0.42035   0.42138   0.42544   0.43345   0.44358
     Eigenvalues ---    0.44447   0.44511   0.44567   0.44821   0.44992
     Eigenvalues ---    0.45768   0.45829   0.46023   0.46080   0.46475
     Eigenvalues ---    0.46886   0.46932   0.47207   0.47488   0.49154
     Eigenvalues ---    0.54501   0.56298   0.63497
 En-DIIS/RFO-DIIS/Sim-DIIS IScMMF=       -3 using points:     7    6    5    4    3    2
 RFO step:  Lambda=-1.34090356D-06.
 NNeg= 0 NGDIIS= 6 SimSw=  2.50D-01 Rises=F DC= -2.83D-06 SmlDif=  1.00D-05
 NRisDI= 0 DoIntr=F SqrtH=F CThrHd= 10.0 CDAdj=  3.0
 RMS Error=  0.3802018729D-03 NUsed= 6 OKEnD=F EnDIS=F
 InvSVX:  RCond= 3.09D-06 Info=           0 Equed=N FErr=  1.97D-14 BErr=  1.31D-16
 DidBck=F Rises=F RFO-DIIS coefs:    1.14655   -0.07247   -0.04232   -0.02069   -0.02382
                  RFO-DIIS coefs:    0.01275
 Iteration  1 RMS(Cart)=  0.00102335 RMS(Int)=  0.00000048
 Iteration  2 RMS(Cart)=  0.00000058 RMS(Int)=  0.00000040
 ITry= 1 IFail=0 DXMaxC= 4.98D-03 DCOld= 1.00D+10 DXMaxT= 8.49D-01 DXLimC= 3.00D+00 Rises=F
 Variable       Old X    -DE/DX   Delta X   Delta X   Delta X     New X
                                 (Linear)    (Quad)   (Total)
    R1        2.68837  -0.00001  -0.00013   0.00011  -0.00002   2.68835
    R2        2.62625  -0.00006   0.00011  -0.00017  -0.00006   2.62618
    R3        2.04441   0.00003   0.00001   0.00001   0.00002   2.04444
    R4        2.69143   0.00002  -0.00009   0.00013   0.00004   2.69146
    R5        2.76751  -0.00009  -0.00002  -0.00011  -0.00013   2.76738
    R6        2.61266  -0.00003   0.00005  -0.00008  -0.00003   2.61263
    R7        2.05242   0.00001   0.00000   0.00000   0.00000   2.05243
    R8        2.66622   0.00001   0.00004  -0.00003   0.00001   2.66623
    R9        2.89443  -0.00001   0.00003  -0.00006  -0.00003   2.89441
   R10        2.64570   0.00004  -0.00005   0.00010   0.00005   2.64574
   R11        2.75676  -0.00004   0.00013  -0.00021  -0.00007   2.75669
   R12        2.05765  -0.00000  -0.00000  -0.00001  -0.00001   2.05764
   R13        2.89177   0.00000  -0.00002   0.00002   0.00000   2.89177
   R14        2.91864  -0.00001  -0.00002   0.00001  -0.00001   2.91862
   R15        2.91842   0.00001  -0.00002   0.00004   0.00003   2.91844
   R16        2.62245  -0.00002   0.00007  -0.00010  -0.00003   2.62243
   R17        2.67457   0.00001  -0.00007   0.00007  -0.00000   2.67457
   R18        2.65291   0.00000  -0.00002   0.00002  -0.00000   2.65291
   R19        2.05749   0.00001  -0.00001   0.00002   0.00001   2.05750
   R20        2.64228   0.00001   0.00002   0.00000   0.00002   2.64230
   R21        2.05508  -0.00001   0.00002  -0.00002  -0.00001   2.05507
   R22        2.64110  -0.00003   0.00003  -0.00008  -0.00004   2.64106
   R23        2.05635   0.00001  -0.00001   0.00002   0.00001   2.05636
   R24        2.64622   0.00003  -0.00002   0.00007   0.00005   2.64627
   R25        2.05516   0.00000  -0.00001   0.00000  -0.00000   2.05516
   R26        2.07429   0.00000   0.00000   0.00000   0.00001   2.07430
   R27        2.07196  -0.00000   0.00000  -0.00000   0.00000   2.07196
   R28        2.06880   0.00000  -0.00001   0.00001   0.00000   2.06881
   R29        2.07205   0.00000  -0.00000   0.00000   0.00000   2.07206
   R30        2.07425   0.00000   0.00000   0.00000   0.00001   2.07426
   R31        2.06897   0.00000  -0.00001   0.00002   0.00000   2.06898
   R32        2.72229  -0.00017   0.00030  -0.00049  -0.00019   2.72211
   R33        2.67415   0.00003  -0.00035   0.00028  -0.00007   2.67408
   R34        2.79053  -0.00004  -0.00008  -0.00002  -0.00009   2.79043
   R35        2.53153   0.00015  -0.00014   0.00034   0.00020   2.53172
   R36        2.62266  -0.00002   0.00035  -0.00035  -0.00000   2.62266
   R37        2.05197   0.00001   0.00005  -0.00002   0.00003   2.05200
   R38        2.71326   0.00002   0.00033  -0.00021   0.00012   2.71338
   R39        2.53491   0.00016  -0.00017   0.00037   0.00020   2.53511
   R40        2.66860   0.00004  -0.00029   0.00026  -0.00003   2.66857
   R41        2.05298   0.00002   0.00003   0.00002   0.00005   2.05303
   R42        2.77924   0.00001  -0.00010   0.00013   0.00004   2.77928
   R43        3.16807  -0.00012  -0.00070   0.00021  -0.00049   3.16757
   R44        3.16730  -0.00006  -0.00072   0.00031  -0.00041   3.16689
   R45        2.67426   0.00005  -0.00009   0.00017   0.00008   2.67434
   R46        2.67591   0.00001  -0.00003   0.00009   0.00006   2.67597
   R47        2.63010  -0.00002   0.00007  -0.00009  -0.00002   2.63007
   R48        2.04526  -0.00002   0.00001  -0.00007  -0.00006   2.04520
   R49        2.62819  -0.00003   0.00003  -0.00008  -0.00005   2.62814
   R50        2.05173   0.00003  -0.00002   0.00005   0.00003   2.05176
   R51        2.64897   0.00001  -0.00004   0.00003  -0.00001   2.64896
   R52        2.06031  -0.00000  -0.00000   0.00001   0.00000   2.06032
   R53        2.64913  -0.00001   0.00005  -0.00006  -0.00001   2.64912
   R54        2.05972   0.00000  -0.00000   0.00001   0.00001   2.05973
   R55        2.85802   0.00001   0.00002  -0.00002  -0.00000   2.85802
   R56        2.07382   0.00001  -0.00001   0.00004   0.00003   2.07385
   R57        2.08034   0.00001  -0.00001   0.00004   0.00003   2.08037
   R58        2.90429  -0.00000   0.00003  -0.00004  -0.00001   2.90428
   R59        2.08686   0.00001   0.00001   0.00002   0.00002   2.08688
   R60        2.07296   0.00000   0.00000   0.00001   0.00001   2.07297
   R61        2.78319   0.00002  -0.00006   0.00006  -0.00001   2.78318
   R62        1.92879   0.00000  -0.00000   0.00001   0.00000   1.92880
   R63        1.92729   0.00000  -0.00000   0.00000  -0.00000   1.92729
    A1        2.13244  -0.00000  -0.00005   0.00005  -0.00000   2.13244
    A2        2.06155   0.00000   0.00010  -0.00005   0.00005   2.06160
    A3        2.08918   0.00000  -0.00005   0.00000  -0.00005   2.08913
    A4        2.03537   0.00002   0.00015  -0.00010   0.00005   2.03541
    A5        2.14291  -0.00005  -0.00013   0.00005  -0.00008   2.14283
    A6        2.10484   0.00003  -0.00002   0.00006   0.00004   2.10487
    A7        2.11431  -0.00001  -0.00010   0.00007  -0.00003   2.11428
    A8        2.08291  -0.00004   0.00023  -0.00042  -0.00019   2.08273
    A9        2.08537   0.00005  -0.00012   0.00035   0.00022   2.08559
   A10        2.11347  -0.00001   0.00002  -0.00004  -0.00003   2.11344
   A11        2.23978   0.00001  -0.00003   0.00005   0.00002   2.23980
   A12        1.92987   0.00000   0.00001  -0.00000   0.00001   1.92988
   A13        2.07590   0.00001   0.00002   0.00003   0.00005   2.07595
   A14        1.89999  -0.00000  -0.00004   0.00002  -0.00002   1.89997
   A15        2.30721  -0.00001   0.00002  -0.00005  -0.00003   2.30717
   A16        2.09465  -0.00001  -0.00003  -0.00000  -0.00004   2.09461
   A17        2.08340   0.00001  -0.00007   0.00009   0.00002   2.08342
   A18        2.10513  -0.00000   0.00010  -0.00009   0.00001   2.10515
   A19        1.76892   0.00000  -0.00001   0.00002   0.00000   1.76892
   A20        1.94551  -0.00000   0.00004  -0.00006  -0.00002   1.94548
   A21        1.94443  -0.00000   0.00002  -0.00006  -0.00004   1.94440
   A22        1.94176   0.00000  -0.00001   0.00004   0.00003   1.94178
   A23        1.94272   0.00000  -0.00002   0.00004   0.00002   1.94274
   A24        1.91696   0.00000  -0.00001   0.00002   0.00001   1.91697
   A25        2.25043   0.00001  -0.00000   0.00002   0.00002   2.25045
   A26        1.92887  -0.00001   0.00006  -0.00009  -0.00003   1.92884
   A27        2.10388   0.00001  -0.00005   0.00006   0.00001   2.10389
   A28        2.08575   0.00001  -0.00002   0.00003   0.00001   2.08576
   A29        2.10558  -0.00001   0.00003  -0.00005  -0.00001   2.10557
   A30        2.09185   0.00000  -0.00001   0.00001   0.00000   2.09185
   A31        2.09504  -0.00001   0.00005  -0.00008  -0.00002   2.09502
   A32        2.09339   0.00000  -0.00002   0.00003   0.00001   2.09340
   A33        2.09475   0.00000  -0.00004   0.00005   0.00001   2.09476
   A34        2.10899   0.00001  -0.00004   0.00007   0.00002   2.10901
   A35        2.08806  -0.00001   0.00000  -0.00003  -0.00003   2.08803
   A36        2.08614  -0.00000   0.00004  -0.00004   0.00001   2.08615
   A37        2.08111   0.00000  -0.00003   0.00002  -0.00001   2.08111
   A38        2.09863   0.00001   0.00000   0.00004   0.00004   2.09867
   A39        2.10344  -0.00001   0.00003  -0.00006  -0.00003   2.10340
   A40        1.89711   0.00001  -0.00001   0.00005   0.00004   1.89715
   A41        2.29449   0.00000  -0.00008   0.00006  -0.00002   2.29446
   A42        2.09159  -0.00002   0.00009  -0.00011  -0.00002   2.09158
   A43        1.93727   0.00000  -0.00002   0.00004   0.00001   1.93728
   A44        1.93022  -0.00000   0.00003  -0.00004  -0.00001   1.93021
   A45        1.93488  -0.00000   0.00001  -0.00002  -0.00001   1.93487
   A46        1.88516   0.00000  -0.00004   0.00006   0.00002   1.88519
   A47        1.88943   0.00000  -0.00000   0.00001   0.00000   1.88943
   A48        1.88509   0.00000   0.00003  -0.00005  -0.00002   1.88507
   A49        1.92949  -0.00000   0.00002  -0.00001   0.00000   1.92950
   A50        1.93778   0.00001  -0.00003   0.00005   0.00002   1.93780
   A51        1.93514  -0.00000   0.00000  -0.00001  -0.00001   1.93514
   A52        1.88530  -0.00000  -0.00002   0.00002   0.00000   1.88530
   A53        1.88514  -0.00000   0.00003  -0.00004  -0.00002   1.88513
   A54        1.88919  -0.00000   0.00000  -0.00001  -0.00000   1.88919
   A55        2.16694  -0.00016  -0.00014  -0.00031  -0.00045   2.16649
   A56        2.10730   0.00007   0.00033  -0.00004   0.00029   2.10758
   A57        2.00895   0.00008  -0.00019   0.00035   0.00016   2.00911
   A58        2.11130   0.00001   0.00006  -0.00005   0.00001   2.11131
   A59        2.19151  -0.00003   0.00018  -0.00012   0.00006   2.19157
   A60        1.98019   0.00002  -0.00023   0.00017  -0.00007   1.98013
   A61        2.15992  -0.00006   0.00014  -0.00027  -0.00013   2.15979
   A62        2.07240  -0.00000   0.00037  -0.00030   0.00006   2.07246
   A63        2.04929   0.00007  -0.00048   0.00054   0.00006   2.04935
   A64        2.11244  -0.00003   0.00009  -0.00016  -0.00008   2.11237
   A65        1.98240  -0.00014  -0.00022  -0.00023  -0.00044   1.98195
   A66        2.18819   0.00017   0.00013   0.00039   0.00052   2.18871
   A67        2.15941  -0.00002   0.00013  -0.00010   0.00003   2.15944
   A68        2.05126   0.00005  -0.00051   0.00050  -0.00002   2.05124
   A69        2.07119  -0.00003   0.00040  -0.00041  -0.00001   2.07118
   A70        2.01302   0.00002  -0.00023   0.00026   0.00003   2.01305
   A71        2.16230   0.00014  -0.00020   0.00044   0.00024   2.16255
   A72        2.10786  -0.00017   0.00043  -0.00070  -0.00027   2.10759
   A73        1.86957   0.00004   0.00026  -0.00000   0.00026   1.86983
   A74        1.86721   0.00011   0.00027   0.00019   0.00046   1.86767
   A75        1.72541  -0.00003  -0.00008  -0.00013  -0.00021   1.72520
   A76        2.14807   0.00017  -0.00016   0.00059   0.00043   2.14850
   A77        2.11077  -0.00015   0.00007  -0.00041  -0.00034   2.11043
   A78        2.02424  -0.00003   0.00010  -0.00020  -0.00010   2.02413
   A79        2.12022  -0.00000  -0.00002   0.00005   0.00002   2.12025
   A80        2.07048   0.00002   0.00005   0.00003   0.00008   2.07057
   A81        2.09247  -0.00002  -0.00003  -0.00008  -0.00011   2.09236
   A82        2.13071   0.00003  -0.00009   0.00019   0.00010   2.13081
   A83        2.08406  -0.00006   0.00021  -0.00042  -0.00021   2.08385
   A84        2.06805   0.00003  -0.00012   0.00024   0.00012   2.06817
   A85        2.13007   0.00001  -0.00000   0.00002   0.00001   2.13008
   A86        2.07369   0.00000  -0.00005   0.00005   0.00000   2.07369
   A87        2.07941  -0.00001   0.00005  -0.00007  -0.00001   2.07939
   A88        2.11995  -0.00001   0.00005  -0.00009  -0.00004   2.11991
   A89        2.08003   0.00001  -0.00004   0.00010   0.00006   2.08009
   A90        2.08316  -0.00000  -0.00001  -0.00001  -0.00002   2.08314
   A91        2.04103   0.00001  -0.00002   0.00004   0.00002   2.04105
   A92        2.12189  -0.00000   0.00006  -0.00005   0.00001   2.12190
   A93        2.11933  -0.00000  -0.00003   0.00001  -0.00002   2.11931
   A94        1.93654  -0.00000  -0.00003   0.00004   0.00000   1.93655
   A95        1.91578  -0.00000  -0.00003  -0.00000  -0.00003   1.91575
   A96        1.97034   0.00001   0.00009  -0.00002   0.00006   1.97040
   A97        1.85990   0.00000   0.00005  -0.00004   0.00001   1.85991
   A98        1.88514  -0.00000  -0.00006   0.00004  -0.00002   1.88511
   A99        1.89225  -0.00000  -0.00001  -0.00001  -0.00002   1.89223
   A100       1.89628  -0.00001  -0.00000  -0.00002  -0.00002   1.89626
   A101       1.90134  -0.00001  -0.00005  -0.00003  -0.00008   1.90126
   A102       1.93412   0.00002  -0.00005   0.00007   0.00003   1.93415
   A103       1.85880   0.00000   0.00002  -0.00005  -0.00003   1.85877
   A104       1.98813  -0.00000   0.00003   0.00001   0.00004   1.98817
   A105       1.88215   0.00000   0.00005   0.00001   0.00006   1.88221
   A106       1.89800  -0.00001   0.00001  -0.00009  -0.00007   1.89793
   A107       1.90743   0.00001   0.00016  -0.00009   0.00007   1.90750
   A108       1.84093  -0.00000   0.00003  -0.00003   0.00000   1.84094
    D1       -0.02173  -0.00000   0.00021  -0.00024  -0.00003  -0.02176
    D2        3.10688   0.00000   0.00025  -0.00013   0.00012   3.10700
    D3        3.11321  -0.00001   0.00038  -0.00053  -0.00015   3.11306
    D4       -0.04137  -0.00000   0.00042  -0.00042  -0.00000  -0.04137
    D5        0.00792   0.00000  -0.00011   0.00017   0.00006   0.00798
    D6       -3.13281   0.00001  -0.00021   0.00038   0.00017  -3.13264
    D7       -3.12691   0.00001  -0.00029   0.00047   0.00018  -3.12673
    D8        0.01555   0.00001  -0.00039   0.00067   0.00029   0.01583
    D9        0.02118   0.00000  -0.00016   0.00018   0.00002   0.02120
   D10       -3.08318  -0.00000  -0.00029   0.00006  -0.00023  -3.08341
   D11       -3.10773   0.00000  -0.00019   0.00007  -0.00012  -3.10785
   D12        0.07110  -0.00001  -0.00033  -0.00005  -0.00037   0.07072
   D13        0.35022  -0.00001   0.00033  -0.00058  -0.00025   0.34996
   D14       -2.78950  -0.00000   0.00016  -0.00009   0.00007  -2.78943
   D15       -2.80486  -0.00001   0.00038  -0.00048  -0.00010  -2.80496
   D16        0.33861   0.00000   0.00020   0.00002   0.00022   0.33883
   D17       -0.00716  -0.00000   0.00001  -0.00005  -0.00004  -0.00719
   D18       -3.13518  -0.00000  -0.00006  -0.00005  -0.00011  -3.13529
   D19        3.09715   0.00000   0.00015   0.00005   0.00021   3.09736
   D20       -0.03087   0.00000   0.00008   0.00005   0.00013  -0.03073
   D21       -0.00754  -0.00000   0.00009  -0.00003   0.00006  -0.00748
   D22       -3.13643  -0.00000  -0.00003   0.00001  -0.00002  -3.13645
   D23        3.12268   0.00000   0.00015  -0.00003   0.00012   3.12280
   D24       -0.00621   0.00000   0.00003   0.00001   0.00004  -0.00617
   D25        3.13589  -0.00000   0.00003  -0.00002   0.00001   3.13591
   D26        1.06869  -0.00000   0.00003  -0.00004  -0.00001   1.06868
   D27       -1.07945   0.00000   0.00000   0.00001   0.00002  -1.07943
   D28        0.00672  -0.00000  -0.00004  -0.00002  -0.00006   0.00666
   D29       -2.06048  -0.00000  -0.00004  -0.00004  -0.00008  -2.06056
   D30        2.07456   0.00000  -0.00006   0.00001  -0.00005   2.07451
   D31        0.00715   0.00000  -0.00004  -0.00003  -0.00007   0.00708
   D32       -3.13531  -0.00000   0.00006  -0.00024  -0.00018  -3.13550
   D33        3.13252   0.00000   0.00012  -0.00008   0.00004   3.13256
   D34       -0.00995  -0.00000   0.00022  -0.00029  -0.00007  -0.01002
   D35        0.00287  -0.00000  -0.00001   0.00000  -0.00000   0.00287
   D36       -3.13878  -0.00000   0.00002  -0.00012  -0.00011  -3.13889
   D37       -3.12372  -0.00000  -0.00015   0.00005  -0.00010  -3.12382
   D38        0.01782  -0.00000  -0.00013  -0.00008  -0.00021   0.01761
   D39        3.13789   0.00000   0.00002   0.00002   0.00004   3.13794
   D40       -0.00493   0.00000   0.00003   0.00002   0.00005  -0.00487
   D41       -1.07539  -0.00000   0.00005  -0.00003   0.00003  -1.07536
   D42        2.06497  -0.00000   0.00007  -0.00003   0.00004   2.06501
   D43        1.06881   0.00000   0.00002   0.00006   0.00007   1.06889
   D44       -2.07401   0.00000   0.00003   0.00006   0.00009  -2.07392
   D45        3.08328  -0.00000  -0.00010   0.00002  -0.00009   3.08319
   D46       -1.10778   0.00000  -0.00015   0.00009  -0.00006  -1.10784
   D47        0.98269  -0.00000  -0.00009  -0.00001  -0.00009   0.98260
   D48        1.12277  -0.00000  -0.00010   0.00001  -0.00009   1.12268
   D49       -3.06829   0.00000  -0.00015   0.00008  -0.00006  -3.06835
   D50       -0.97781  -0.00000  -0.00009  -0.00001  -0.00010  -0.97791
   D51       -1.03616  -0.00000  -0.00006  -0.00008  -0.00014  -1.03630
   D52        1.05596  -0.00000  -0.00010  -0.00001  -0.00011   1.05585
   D53       -3.13675  -0.00000  -0.00004  -0.00010  -0.00015  -3.13690
   D54        1.10717  -0.00000   0.00015  -0.00006   0.00009   1.10726
   D55       -3.08386  -0.00000   0.00011  -0.00001   0.00011  -3.08376
   D56       -0.98306   0.00000   0.00010   0.00001   0.00011  -0.98295
   D57        3.06761  -0.00000   0.00013  -0.00005   0.00008   3.06769
   D58       -1.12342   0.00000   0.00009   0.00000   0.00010  -1.12332
   D59        0.97738   0.00000   0.00008   0.00002   0.00010   0.97748
   D60       -1.05720   0.00000   0.00009   0.00004   0.00014  -1.05707
   D61        1.03495   0.00000   0.00006   0.00009   0.00015   1.03511
   D62        3.13575   0.00000   0.00004   0.00011   0.00016   3.13591
   D63        3.14065   0.00000   0.00002  -0.00001   0.00001   3.14066
   D64       -0.00070  -0.00000   0.00001  -0.00002  -0.00001  -0.00071
   D65        0.00039  -0.00000   0.00001  -0.00001  -0.00001   0.00039
   D66       -3.14096  -0.00000  -0.00000  -0.00002  -0.00002  -3.14098
   D67        0.00159  -0.00000  -0.00002  -0.00002  -0.00004   0.00156
   D68       -3.13995   0.00000  -0.00004   0.00009   0.00006  -3.13990
   D69       -3.14111  -0.00000  -0.00001  -0.00001  -0.00002  -3.14113
   D70        0.00053   0.00000  -0.00003   0.00010   0.00007   0.00060
   D71       -0.00075  -0.00000   0.00001  -0.00005  -0.00004  -0.00079
   D72        3.14111  -0.00000   0.00001  -0.00002  -0.00001   3.14111
   D73        3.14060  -0.00000   0.00002  -0.00005  -0.00003   3.14058
   D74       -0.00072  -0.00000   0.00002  -0.00001   0.00001  -0.00071
   D75        0.00019   0.00000  -0.00001   0.00004   0.00003   0.00022
   D76       -3.14116   0.00000  -0.00001   0.00005   0.00004  -3.14112
   D77        3.14151   0.00000  -0.00001   0.00000  -0.00001   3.14150
   D78        0.00016   0.00000  -0.00001   0.00002   0.00001   0.00016
   D79        0.00073   0.00000  -0.00001   0.00004   0.00003   0.00077
   D80       -3.14098   0.00000  -0.00003   0.00006   0.00003  -3.14095
   D81       -3.14110   0.00000  -0.00001   0.00003   0.00002  -3.14108
   D82        0.00037   0.00000  -0.00002   0.00005   0.00002   0.00039
   D83        3.14057   0.00000   0.00000   0.00003   0.00003   3.14060
   D84       -0.00108  -0.00000   0.00003  -0.00011  -0.00008  -0.00117
   D85       -0.00091   0.00000   0.00002   0.00001   0.00004  -0.00087
   D86        3.14063  -0.00000   0.00005  -0.00013  -0.00008   3.14055
   D87        3.10597   0.00001  -0.00021   0.00080   0.00059   3.10656
   D88       -0.01331   0.00000  -0.00039   0.00066   0.00027  -0.01304
   D89       -0.03740   0.00001  -0.00004   0.00033   0.00029  -0.03711
   D90        3.12651  -0.00000  -0.00022   0.00019  -0.00003   3.12647
   D91       -3.10508  -0.00001   0.00021  -0.00079  -0.00057  -3.10565
   D92        0.09848  -0.00001  -0.00018  -0.00029  -0.00047   0.09801
   D93        0.03823  -0.00001   0.00005  -0.00033  -0.00028   0.03795
   D94       -3.04140  -0.00000  -0.00034   0.00016  -0.00018  -3.04158
   D95       -0.00018   0.00000  -0.00001   0.00008   0.00007  -0.00011
   D96       -3.12359   0.00000  -0.00022   0.00023   0.00000  -3.12358
   D97        3.12162   0.00001   0.00016   0.00020   0.00036   3.12198
   D98       -0.00178   0.00001  -0.00005   0.00035   0.00030  -0.00149
   D99        3.12270   0.00001   0.00012   0.00005   0.00017   3.12287
   D100       0.00197  -0.00000  -0.00006  -0.00008  -0.00013   0.00183
   D101       0.00087  -0.00000  -0.00001  -0.00011  -0.00012   0.00076
   D102      -3.08468  -0.00000  -0.00027   0.00026  -0.00001  -3.08469
   D103       3.08126  -0.00001   0.00041  -0.00063  -0.00022   3.08104
   D104      -0.00429  -0.00001   0.00015  -0.00027  -0.00011  -0.00440
   D105       0.03816  -0.00001   0.00004  -0.00049  -0.00045   0.03771
   D106      -3.10684  -0.00001   0.00009  -0.00040  -0.00031  -3.10715
   D107      -3.12388  -0.00001   0.00028  -0.00067  -0.00039  -3.12426
   D108       0.01431  -0.00001   0.00033  -0.00058  -0.00025   0.01406
   D109       0.00062  -0.00001   0.00014  -0.00043  -0.00029   0.00032
   D110      -3.12187  -0.00001  -0.00009  -0.00026  -0.00035  -3.12222
   D111      -0.03966   0.00001  -0.00004   0.00052   0.00048  -0.03918
   D112       3.10522   0.00001  -0.00009   0.00043   0.00035   3.10557
   D113       3.04529   0.00001   0.00019   0.00018   0.00038   3.04566
   D114      -0.09301   0.00001   0.00014   0.00010   0.00024  -0.09277
   D115      -0.39090  -0.00001   0.00010  -0.00075  -0.00065  -0.39155
   D116       2.76735   0.00000  -0.00012   0.00002  -0.00010   2.76726
   D117       2.74711  -0.00001   0.00015  -0.00065  -0.00050   2.74660
   D118      -0.37782   0.00001  -0.00007   0.00012   0.00005  -0.37777
   D119      -0.00145  -0.00000   0.00012  -0.00015  -0.00003  -0.00148
   D120       0.00046   0.00001  -0.00015   0.00035   0.00020   0.00065
   D121      -3.10867   0.00001  -0.00025   0.00045   0.00020  -3.10847
   D122       0.03799   0.00001  -0.00041   0.00061   0.00020   0.03820
   D123       0.01702  -0.00001  -0.00004  -0.00029  -0.00033   0.01669
   D124      -3.11950  -0.00001  -0.00021  -0.00012  -0.00033  -3.11983
   D125       3.10874  -0.00001   0.00019  -0.00031  -0.00012   3.10862
   D126      -0.06209  -0.00000   0.00024  -0.00023   0.00001  -0.06207
   D127      -0.01732   0.00001  -0.00001   0.00040   0.00039  -0.01693
   D128       3.09504   0.00002   0.00004   0.00048   0.00052   3.09556
   D129      -0.00711   0.00000   0.00007  -0.00002   0.00004  -0.00707
   D130       3.12861  -0.00000   0.00013  -0.00013  -0.00000   3.12861
   D131       3.12934   0.00000   0.00023  -0.00018   0.00005   3.12939
   D132      -0.01812  -0.00000   0.00029  -0.00029  -0.00000  -0.01812
   D133       0.00756  -0.00000   0.00005  -0.00021  -0.00016   0.00739
   D134       3.13878  -0.00000   0.00010  -0.00024  -0.00014   3.13863
   D135      -3.10506  -0.00001  -0.00001  -0.00029  -0.00029  -3.10535
   D136       0.02616  -0.00001   0.00004  -0.00031  -0.00027   0.02589
   D137      -0.00348   0.00000  -0.00002   0.00022   0.00019  -0.00328
   D138      -3.09937   0.00000  -0.00013   0.00022   0.00008  -3.09929
   D139      -3.13919   0.00001  -0.00009   0.00033   0.00024  -3.13895
   D140       0.04810   0.00001  -0.00020   0.00033   0.00013   0.04823
   D141       0.00327  -0.00000  -0.00003  -0.00010  -0.00013   0.00314
   D142       3.09924  -0.00000   0.00008  -0.00010  -0.00002   3.09921
   D143      -3.12793  -0.00000  -0.00008  -0.00008  -0.00016  -3.12809
   D144      -0.03196  -0.00000   0.00003  -0.00008  -0.00005  -0.03201
   D145      -2.61972   0.00001   0.00018   0.00047   0.00065  -2.61906
   D146      -0.56864   0.00000   0.00020   0.00044   0.00065  -0.56800
   D147       1.54452   0.00000   0.00022   0.00042   0.00064   1.54516
   D148       0.56962   0.00000   0.00007   0.00047   0.00054   0.57016
   D149       2.62070   0.00000   0.00009   0.00044   0.00053   2.62123
   D150      -1.54932   0.00000   0.00011   0.00042   0.00052  -1.54880
   D151      -0.95831   0.00001  -0.00037   0.00029  -0.00008  -0.95839
   D152       1.06002  -0.00000  -0.00038   0.00021  -0.00017   1.05985
   D153       3.12801   0.00000  -0.00038   0.00025  -0.00013   3.12787
   D154      -3.10610   0.00000  -0.00035   0.00023  -0.00011  -3.10621
   D155      -1.08777  -0.00001  -0.00035   0.00015  -0.00020  -1.08797
   D156       0.98021  -0.00000  -0.00035   0.00019  -0.00016   0.98005
   D157       1.16817   0.00001  -0.00037   0.00027  -0.00010   1.16808
   D158      -3.09669  -0.00000  -0.00038   0.00019  -0.00019  -3.09687
   D159      -1.02870   0.00000  -0.00037   0.00022  -0.00015  -1.02885
   D160       1.13111  -0.00001  -0.00135  -0.00046  -0.00181   1.12930
   D161       3.13243  -0.00001  -0.00122  -0.00058  -0.00181   3.13063
   D162      -1.01344  -0.00001  -0.00134  -0.00049  -0.00183  -1.01527
   D163       0.98788  -0.00001  -0.00121  -0.00062  -0.00183   0.98606
   D164      -3.07249  -0.00001  -0.00141  -0.00045  -0.00186  -3.07435
   D165      -1.07117  -0.00001  -0.00128  -0.00057  -0.00185  -1.07302
         Item               Value     Threshold  Converged?
 Maximum Force            0.000174     0.000450     YES
 RMS     Force            0.000033     0.000300     YES
 Maximum Displacement     0.004983     0.001800     NO 
 RMS     Displacement     0.001023     0.001200     YES
 Predicted change in Energy=-6.490691D-07
 Lowest energy point so far.  Saving SCF results.
 GradGradGradGradGradGradGradGradGradGradGradGradGradGradGradGradGradGrad

 Leave Link  103 at Thu Mar 14 10:12:34 2024, MaxMem= 32212254720 cpu:               2.6 elap:               0.1
 (Enter /home/<user>/g16/l202.exe)
 Stoichiometry    C29H25N3S(1-,2)
 Framework group  C1[X(C29H25N3S)]
 Deg. of freedom   168
 Full point group                 C1      NOp   1
 RotChk:  IX=0 Diff= 2.35D-04
 Largest Abelian subgroup         C1      NOp   1
 Largest concise Abelian subgroup C1      NOp   1
                         Standard orientation:                         
 ---------------------------------------------------------------------
 Center     Atomic      Atomic             Coordinates (Angstroms)
 Number     Number       Type             X           Y           Z
 ---------------------------------------------------------------------
      1          6           0       -2.487593    1.675698   -0.287186
      2          6           0       -1.790647    0.440850   -0.172094
      3          6           0       -2.586597   -0.727440    0.001345
      4          6           0       -3.966949   -0.654545    0.028663
      5          6           0       -4.634100    0.581375   -0.105795
      6          6           0       -3.875173    1.747759   -0.259955
      7          1           0       -1.905795    2.581690   -0.392672
      8          1           0       -2.098736   -1.686562    0.148608
      9          1           0       -4.361695    2.716693   -0.360329
     10          6           0       -4.974911   -1.793199    0.211538
     11          6           0       -6.301825   -1.033287    0.152113
     12          6           0       -7.594854   -1.526691    0.254188
     13          6           0       -8.681213   -0.641265    0.172551
     14          6           0       -8.456919    0.726835   -0.009334
     15          6           0       -7.158055    1.232379   -0.112431
     16          6           0       -6.072723    0.351114   -0.032508
     17          1           0       -7.772881   -2.591311    0.396798
     18          1           0       -9.697488   -1.020280    0.251184
     19          1           0       -9.303774    1.407371   -0.071282
     20          1           0       -6.994683    2.298325   -0.253196
     21          6           0       -4.792671   -2.495918    1.574754
     22          1           0       -5.555848   -3.270824    1.722962
     23          1           0       -3.807858   -2.974323    1.633408
     24          1           0       -4.869341   -1.777318    2.397096
     25          6           0       -4.869270   -2.828217   -0.929807
     26          1           0       -3.885283   -3.311921   -0.920944
     27          1           0       -5.632786   -3.609771   -0.824675
     28          1           0       -5.001877   -2.348503   -1.904998
     29          6           0       -0.331003    0.344906   -0.241421
     30          6           0        0.563297    1.451534   -0.016535
     31          6           0        0.299697   -0.884508   -0.546650
     32          6           0        2.027591    1.266292   -0.060982
     33          6           0        1.676364   -1.055392   -0.588079
     34          1           0       -0.318155   -1.734787   -0.819418
     35          6           0        2.602916   -0.021596   -0.329375
     36          1           0        2.052610   -2.029887   -0.886577
     37          7           0        0.193093    2.707060    0.268917
     38          7           0        2.717905    2.388716    0.190642
     39         16           0        1.596081    3.602687    0.466774
     40          6           0        4.049521   -0.286300   -0.347235
     41          6           0        5.017468    0.723866   -0.560378
     42          6           0        4.551411   -1.598237   -0.167911
     43          6           0        6.376820    0.429237   -0.609286
     44          1           0        4.682481    1.745757   -0.682197
     45          6           0        5.911935   -1.882103   -0.218721
     46          1           0        3.860574   -2.408983    0.042517
     47          6           0        6.861512   -0.875500   -0.442862
     48          1           0        7.084019    1.239533   -0.788132
     49          1           0        6.246423   -2.908946   -0.071329
     50          6           0        8.343784   -1.175853   -0.444139
     51          1           0        8.539304   -2.185696   -0.826695
     52          1           0        8.864334   -0.478526   -1.118463
     53          6           0        8.977408   -1.065588    0.951694
     54          1           0        8.755373   -0.064723    1.362205
     55          1           0        8.495530   -1.790191    1.619592
     56          7           0       10.414314   -1.384746    0.900973
     57          1           0       10.887027   -0.679856    0.334007
     58          1           0       10.812725   -1.294398    1.835456
 ---------------------------------------------------------------------
 Rotational constants (GHZ):           0.3523057           0.0394044           0.0360990
 Leave Link  202 at Thu Mar 14 10:12:34 2024, MaxMem= 32212254720 cpu:               0.0 elap:               0.0
 (Enter /home/<user>/g16/l301.exe)
 Standard basis: 6-31G(d) (6D, 7F)
 Ernie: Thresh=  0.10000D-02 Tol=  0.10000D-05 Strict=F.
 There are   549 symmetry adapted cartesian basis functions of A   symmetry.
 There are   549 symmetry adapted basis functions of A   symmetry.
   549 basis functions,  1048 primitive gaussians,   549 cartesian basis functions
   119 alpha electrons      118 beta electrons
       nuclear repulsion energy      3069.0361072002 Hartrees.
 IExCor=  402 DFT=T Ex+Corr=B3LYP ExCW=0 ScaHFX=  0.200000
 ScaDFX=  0.800000  0.720000  1.000000  0.810000 ScalE2=  1.000000  1.000000
 IRadAn=      5 IRanWt=     -1 IRanGd=            0 ICorTp=0 IEmpDi=  4
 NAtoms=   58 NActive=   58 NUniq=   58 SFac= 1.00D+00 NAtFMM=   60 NAOKFM=F Big=F
 Integral buffers will be    131072 words long.
 Raffenetti 2 integral format.
 Two-electron integral symmetry is turned on.
 Leave Link  301 at Thu Mar 14 10:12:35 2024, MaxMem= 32212254720 cpu:               0.8 elap:               0.0
 (Enter /home/<user>/g16/l302.exe)
 NPDir=0 NMtPBC=     1 NCelOv=     1 NCel=       1 NClECP=     1 NCelD=      1
         NCelK=      1 NCelE2=     1 NClLst=     1 CellRange=     0.0.
 One-electron integrals computed using PRISM.
 One-electron integral symmetry used in STVInt
 NBasis=   549 RedAO= T EigKep=  2.68D-04  NBF=   549
 NBsUse=   549 1.00D-06 EigRej= -1.00D+00 NBFU=   549
 Precomputing XC quadrature grid using
 IXCGrd= 4 IRadAn=           5 IRanWt=          -1 IRanGd=           0 AccXCQ= 0.00D+00.
 Generated NRdTot=       0 NPtTot=           0 NUsed=           0 NTot=          32
 NSgBfM=   512   512   512   512   512 MxSgAt=    58 MxSgA2=    58.
 Leave Link  302 at Thu Mar 14 10:12:35 2024, MaxMem= 32212254720 cpu:              13.1 elap:               0.4
 (Enter /home/<user>/g16/l303.exe)
 DipDrv:  MaxL=1.
 Leave Link  303 at Thu Mar 14 10:12:35 2024, MaxMem= 32212254720 cpu:               1.4 elap:               0.1
 (Enter /home/<user>/g16/l401.exe)
 Initial guess from the checkpoint file:  "FBTP_E0opt.chk"
 B after Tr=    -0.000000   -0.000000    0.000000
         Rot=    1.000000    0.000012    0.000005   -0.000019 Ang=   0.00 deg.
 Guess basis will be translated and rotated to current coordinates.
 JPrj=2 DoOrth=T DoCkMO=T.
 Initial guess <Sx>= 0.0000 <Sy>= 0.0000 <Sz>= 0.5000 <S**2>= 0.7610 S= 0.5055
 Leave Link  401 at Thu Mar 14 10:12:36 2024, MaxMem= 32212254720 cpu:              16.7 elap:               0.6
 (Enter /home/<user>/g16/l502.exe)
 Integral symmetry usage will be decided dynamically.
 UHF open shell SCF:
 Using DIIS extrapolation, IDIIS=  1040.
 NGot= 32212254720 LenX= 32211628124 LenY= 32211326174
 Requested convergence on RMS density matrix=1.00D-08 within 128 cycles.
 Requested convergence on MAX density matrix=1.00D-06.
 Requested convergence on             energy=1.00D-06.
 No special actions if energy rises.
 Fock matrices will be formed incrementally for  20 cycles.

 Cycle   1  Pass 1  IDiag  1:
 FoFJK:  IHMeth= 1 ICntrl=       0 DoSepK=F KAlg= 0 I1Cent=           0 FoldK=F
 IRaf= 550000000 NMat=       1 IRICut=       1 DoRegI=T DoRafI=F ISym2E= 0 IDoP0=0 IntGTp=1.
 FoFCou: FMM=F IPFlag=           0 FMFlag=      100000 FMFlg1=           0
         NFxFlg=           0 DoJE=F BraDBF=F KetDBF=F FulRan=T
         wScrn=  0.000000 ICntrl=         0 IOpCl=  1 I1Cent=           0 NGrid=           0
         NMat0=    1 NMatS0=      1 NMatT0=    0 NMatD0=    1 NMtDS0=    0 NMtDT0=    0
 Symmetry not used in FoFCou.
 E= -1682.64590427828    
 DIIS: error= 5.52D-05 at cycle   1 NSaved=   1.
 NSaved= 1 IEnMin= 1 EnMin= -1682.64590427828     IErMin= 1 ErrMin= 5.52D-05
 ErrMax= 5.52D-05  0.00D+00 EMaxC= 1.00D-01 BMatC= 7.68D-06 BMatP= 7.68D-06
 IDIUse=1 WtCom= 1.00D+00 WtEn= 0.00D+00
 Coeff-Com:  0.100D+01
 Coeff:      0.100D+01
 Gap=     1.871 Goal=   None    Shift=    0.000
 Gap=     1.932 Goal=   None    Shift=    0.000
 RMSDP=5.32D-06 MaxDP=2.43D-04              OVMax= 4.05D-04

 Cycle   2  Pass 1  IDiag  1:
 RMSU=  5.32D-06    CP:  1.00D+00
 E= -1682.64590804515     Delta-E=       -0.000003766867 Rises=F Damp=F
 DIIS: error= 5.39D-06 at cycle   2 NSaved=   2.
 NSaved= 2 IEnMin= 2 EnMin= -1682.64590804515     IErMin= 2 ErrMin= 5.39D-06
 ErrMax= 5.39D-06  0.00D+00 EMaxC= 1.00D-01 BMatC= 1.57D-07 BMatP= 7.68D-06
 IDIUse=1 WtCom= 1.00D+00 WtEn= 0.00D+00
 Coeff-Com: -0.571D-01 0.106D+01
 Coeff:     -0.571D-01 0.106D+01
 Gap=     0.063 Goal=   None    Shift=    0.000
 Gap=     0.109 Goal=   None    Shift=    0.000
 RMSDP=1.26D-06 MaxDP=6.15D-05 DE=-3.77D-06 OVMax= 1.91D-04

 Cycle   3  Pass 1  IDiag  1:
 RMSU=  1.25D-06    CP:  1.00D+00  1.04D+00
 E= -1682.64590800176     Delta-E=        0.000000043383 Rises=F Damp=F
 DIIS: error= 1.06D-05 at cycle   3 NSaved=   3.
 NSaved= 3 IEnMin= 2 EnMin= -1682.64590804515     IErMin= 2 ErrMin= 5.39D-06
 ErrMax= 1.06D-05  0.00D+00 EMaxC= 1.00D-01 BMatC= 4.15D-07 BMatP= 1.57D-07
 IDIUse=1 WtCom= 1.00D+00 WtEn= 0.00D+00
 Coeff-Com: -0.514D-01 0.695D+00 0.356D+00
 Coeff:     -0.514D-01 0.695D+00 0.356D+00
 Gap=     0.063 Goal=   None    Shift=    0.000
 Gap=     0.109 Goal=   None    Shift=    0.000
 RMSDP=8.59D-07 MaxDP=6.50D-05 DE= 4.34D-08 OVMax= 1.55D-04

 Cycle   4  Pass 1  IDiag  1:
 RMSU=  3.99D-07    CP:  1.00D+00  1.07D+00  4.07D-01
 E= -1682.64590810639     Delta-E=       -0.000000104626 Rises=F Damp=F
 DIIS: error= 3.19D-06 at cycle   4 NSaved=   4.
 NSaved= 4 IEnMin= 4 EnMin= -1682.64590810639     IErMin= 4 ErrMin= 3.19D-06
 ErrMax= 3.19D-06  0.00D+00 EMaxC= 1.00D-01 BMatC= 2.76D-08 BMatP= 1.57D-07
 IDIUse=1 WtCom= 1.00D+00 WtEn= 0.00D+00
 Coeff-Com: -0.264D-01 0.325D+00 0.229D+00 0.472D+00
 Coeff:     -0.264D-01 0.325D+00 0.229D+00 0.472D+00
 Gap=     0.063 Goal=   None    Shift=    0.000
 Gap=     0.109 Goal=   None    Shift=    0.000
 RMSDP=2.51D-07 MaxDP=2.13D-05 DE=-1.05D-07 OVMax= 5.09D-05

 Cycle   5  Pass 1  IDiag  1:
 RMSU=  1.84D-07    CP:  1.00D+00  1.07D+00  4.63D-01  6.11D-01
 E= -1682.64590811194     Delta-E=       -0.000000005553 Rises=F Damp=F
 DIIS: error= 1.09D-06 at cycle   5 NSaved=   5.
 NSaved= 5 IEnMin= 5 EnMin= -1682.64590811194     IErMin= 5 ErrMin= 1.09D-06
 ErrMax= 1.09D-06  0.00D+00 EMaxC= 1.00D-01 BMatC= 5.81D-09 BMatP= 2.76D-08
 IDIUse=1 WtCom= 1.00D+00 WtEn= 0.00D+00
 Coeff-Com: -0.744D-02 0.791D-01 0.848D-01 0.333D+00 0.510D+00
 Coeff:     -0.744D-02 0.791D-01 0.848D-01 0.333D+00 0.510D+00
 Gap=     0.063 Goal=   None    Shift=    0.000
 Gap=     0.109 Goal=   None    Shift=    0.000
 RMSDP=9.94D-08 MaxDP=6.24D-06 DE=-5.55D-09 OVMax= 1.53D-05

 Cycle   6  Pass 1  IDiag  1:
 RMSU=  6.02D-08    CP:  1.00D+00  1.07D+00  4.69D-01  7.13D-01  6.37D-01
 E= -1682.64590811336     Delta-E=       -0.000000001412 Rises=F Damp=F
 DIIS: error= 3.35D-07 at cycle   6 NSaved=   6.
 NSaved= 6 IEnMin= 6 EnMin= -1682.64590811336     IErMin= 6 ErrMin= 3.35D-07
 ErrMax= 3.35D-07  0.00D+00 EMaxC= 1.00D-01 BMatC= 4.89D-10 BMatP= 5.81D-09
 IDIUse=1 WtCom= 1.00D+00 WtEn= 0.00D+00
 Coeff-Com: -0.699D-03 0.524D-03 0.186D-01 0.128D+00 0.288D+00 0.565D+00
 Coeff:     -0.699D-03 0.524D-03 0.186D-01 0.128D+00 0.288D+00 0.565D+00
 Gap=     0.063 Goal=   None    Shift=    0.000
 Gap=     0.109 Goal=   None    Shift=    0.000
 RMSDP=3.59D-08 MaxDP=2.84D-06 DE=-1.41D-09 OVMax= 8.11D-06

 Cycle   7  Pass 1  IDiag  1:
 RMSU=  2.38D-08    CP:  1.00D+00  1.07D+00  4.69D-01  7.27D-01  7.12D-01
                    CP:  6.29D-01
 E= -1682.64590811355     Delta-E=       -0.000000000191 Rises=F Damp=F
 DIIS: error= 1.49D-07 at cycle   7 NSaved=   7.
 NSaved= 7 IEnMin= 7 EnMin= -1682.64590811355     IErMin= 7 ErrMin= 1.49D-07
 ErrMax= 1.49D-07  0.00D+00 EMaxC= 1.00D-01 BMatC= 1.03D-10 BMatP= 4.89D-10
 IDIUse=1 WtCom= 1.00D+00 WtEn= 0.00D+00
 Coeff-Com:  0.694D-03-0.118D-01-0.875D-03 0.304D-01 0.101D+00 0.360D+00
 Coeff-Com:  0.520D+00
 Coeff:      0.694D-03-0.118D-01-0.875D-03 0.304D-01 0.101D+00 0.360D+00
 Coeff:      0.520D+00
 Gap=     0.063 Goal=   None    Shift=    0.000
 Gap=     0.109 Goal=   None    Shift=    0.000
 RMSDP=1.51D-08 MaxDP=9.49D-07 DE=-1.91D-10 OVMax= 2.28D-06

 Cycle   8  Pass 1  IDiag  1:
 RMSU=  1.02D-08    CP:  1.00D+00  1.07D+00  4.71D-01  7.29D-01  7.09D-01
                    CP:  7.00D-01  5.96D-01
 E= -1682.64590811356     Delta-E=       -0.000000000018 Rises=F Damp=F
 DIIS: error= 5.84D-08 at cycle   8 NSaved=   8.
 NSaved= 8 IEnMin= 8 EnMin= -1682.64590811356     IErMin= 8 ErrMin= 5.84D-08
 ErrMax= 5.84D-08  0.00D+00 EMaxC= 1.00D-01 BMatC= 1.07D-11 BMatP= 1.03D-10
 IDIUse=1 WtCom= 1.00D+00 WtEn= 0.00D+00
 Coeff-Com:  0.454D-03-0.672D-02-0.207D-02 0.533D-02 0.279D-01 0.152D+00
 Coeff-Com:  0.296D+00 0.527D+00
 Coeff:      0.454D-03-0.672D-02-0.207D-02 0.533D-02 0.279D-01 0.152D+00
 Coeff:      0.296D+00 0.527D+00
 Gap=     0.063 Goal=   None    Shift=    0.000
 Gap=     0.109 Goal=   None    Shift=    0.000
 RMSDP=6.59D-09 MaxDP=6.21D-07 DE=-1.82D-11 OVMax= 2.44D-06

 SCF Done:  E(UB3LYP) =  -1682.64590811     A.U. after    8 cycles
            NFock=  8  Conv=0.66D-08     -V/T= 2.0082
 <Sx>= 0.0000 <Sy>= 0.0000 <Sz>= 0.5000 <S**2>= 0.7610 S= 0.5055
 <L.S>= 0.000000000000E+00
 KE= 1.669027771672D+03 PE=-1.008637005597D+04 EE= 3.665660268985D+03
 Annihilation of the first spin contaminant:
 S**2 before annihilation     0.7610,   after     0.7501
 Leave Link  502 at Thu Mar 14 10:12:59 2024, MaxMem= 32212254720 cpu:             692.4 elap:              23.1
 (Enter /home/<user>/g16/l701.exe)
 ... and contract with generalized density number  0.
 Compute integral first derivatives.
 Leave Link  701 at Thu Mar 14 10:12:59 2024, MaxMem= 32212254720 cpu:               5.0 elap:               0.2
 (Enter /home/<user>/g16/l702.exe)
 L702 exits ... SP integral derivatives will be done elsewhere.
 Leave Link  702 at Thu Mar 14 10:12:59 2024, MaxMem= 32212254720 cpu:               0.7 elap:               0.0
 (Enter /home/<user>/g16/l703.exe)
 Integral derivatives from FoFJK, PRISM(SPDF).
 Compute integral first derivatives, UseDBF=F ICtDFT=           0.
 Calling FoFJK, ICntrl=      2127 FMM=F ISym2X=0 I1Cent= 0 IOpClX= 1 NMat=1 NMatS=1 NMatT=0.
 FoFJK:  IHMeth= 1 ICntrl=    2127 DoSepK=F KAlg= 0 I1Cent=           0 FoldK=F
 IRaf=         0 NMat=       1 IRICut=       1 DoRegI=T DoRafI=F ISym2E= 0 IDoP0=0 IntGTp=1.
 FoFCou: FMM=F IPFlag=           0 FMFlag=      100000 FMFlg1=         800
         NFxFlg=           0 DoJE=F BraDBF=F KetDBF=F FulRan=T
         wScrn=  0.000000 ICntrl=      2127 IOpCl=  1 I1Cent=           0 NGrid=           0
         NMat0=    1 NMatS0=      1 NMatT0=    0 NMatD0=    1 NMtDS0=    0 NMtDT0=    0
 Symmetry not used in FoFCou.
 Leave Link  703 at Thu Mar 14 10:13:06 2024, MaxMem= 32212254720 cpu:             199.9 elap:               6.7
 (Enter /home/<user>/g16/l716.exe)
 Dipole        =-8.46216388D-01-1.33612720D+00 1.97848294D-01
 ***** Axes restored to original set *****
 -------------------------------------------------------------------
 Center     Atomic                   Forces (Hartrees/Bohr)
 Number     Number              X              Y              Z
 -------------------------------------------------------------------
      1        6          -0.000044098    0.000000424   -0.000009361
      2        6           0.000037291    0.000007371   -0.000003612
      3        6          -0.000056015   -0.000010332    0.000003343
      4        6           0.000018339   -0.000007568    0.000000493
      5        6          -0.000033739   -0.000025762    0.000000647
      6        6           0.000041809    0.000017248    0.000004467
      7        1           0.000002740    0.000004447    0.000006428
      8        1           0.000027417    0.000002896   -0.000003285
      9        1          -0.000004965   -0.000005848   -0.000005395
     10        6           0.000002818    0.000012240    0.000000924
     11        6          -0.000031167   -0.000020723    0.000004479
     12        6           0.000013985    0.000007629   -0.000002177
     13        6          -0.000016489   -0.000004301    0.000002729
     14        6           0.000021949    0.000002492   -0.000000928
     15        6          -0.000034267   -0.000000244    0.000001250
     16        6           0.000055549    0.000018360   -0.000004405
     17        1           0.000001197   -0.000002646    0.000000829
     18        1           0.000003469    0.000000935   -0.000000991
     19        1          -0.000002379    0.000000924    0.000000142
     20        1           0.000003422   -0.000000024    0.000001190
     21        6          -0.000001851   -0.000007719   -0.000002364
     22        1           0.000000333    0.000001147    0.000000408
     23        1           0.000000357    0.000002663   -0.000001463
     24        1           0.000000403    0.000001380   -0.000000378
     25        6          -0.000000602   -0.000004615    0.000002735
     26        1           0.000000392    0.000001506   -0.000000359
     27        1           0.000000349    0.000000054   -0.000001717
     28        1           0.000000078    0.000001761   -0.000000574
     29        6           0.000026082    0.000115408    0.000016980
     30        6          -0.000017765   -0.000094989   -0.000026964
     31        6           0.000046829   -0.000082459   -0.000009817
     32        6          -0.000000541   -0.000075496   -0.000010215
     33        6          -0.000069866   -0.000055813   -0.000012497
     34        1          -0.000029626    0.000018287    0.000008055
     35        6          -0.000011627    0.000124701    0.000027562
     36        1           0.000026901    0.000014559    0.000003150
     37        7          -0.000041930    0.000090823    0.000023827
     38        7           0.000104792    0.000057429    0.000003402
     39       16          -0.000007305   -0.000126374   -0.000015104
     40        6          -0.000026114    0.000015642   -0.000018053
     41        6           0.000002121   -0.000019725    0.000007833
     42        6           0.000053225   -0.000018305    0.000007625
     43        6          -0.000016964    0.000019652   -0.000002993
     44        1          -0.000012163    0.000023270    0.000006572
     45        6          -0.000020375   -0.000004733    0.000002442
     46        1          -0.000014749    0.000008514    0.000001579
     47        6          -0.000002193   -0.000006175   -0.000002902
     48        1          -0.000000711   -0.000004844   -0.000003243
     49        1           0.000001077    0.000003865   -0.000000139
     50        6          -0.000000883    0.000009986    0.000011485
     51        1           0.000003104   -0.000001306   -0.000007286
     52        1           0.000002739    0.000002633   -0.000000441
     53        6          -0.000003533    0.000005779   -0.000015312
     54        1          -0.000002704   -0.000001735    0.000007963
     55        1          -0.000004469   -0.000006642   -0.000004001
     56        7           0.000005245   -0.000017521    0.000020331
     57        1          -0.000002804   -0.000001909   -0.000011927
     58        1           0.000007884    0.000013780   -0.000000967
 -------------------------------------------------------------------
 Cartesian Forces:  Max     0.000126374 RMS     0.000027917
 Leave Link  716 at Thu Mar 14 10:13:06 2024, MaxMem= 32212254720 cpu:               0.7 elap:               0.0
 (Enter /home/<user>/g16/l103.exe)

 GradGradGradGradGradGradGradGradGradGradGradGradGradGradGradGradGradGrad
 Berny optimization.
 Using GEDIIS/GDIIS optimizer.
 FormGI is forming the generalized inverse of G from B-inverse, IUseBI=4.
 GSVD:  received Info=                   1 from GESDD.
 Internal  Forces:  Max     0.000124679 RMS     0.000017606
 Search for a local minimum.
 Step number   8 out of a maximum of  346
 All quantities printed in internal units (Hartrees-Bohrs-Radians)
 RMS Force = .17606D-04 SwitMx=.10000D-02 MixMth= 2
 Mixed Optimization -- En-DIIS/RFO-DIIS
 Swapping is turned off.
 Update second derivatives using D2CorX and points    2    3    4    5    6
                                                      7    8
 DE= -4.98D-07 DEPred=-6.49D-07 R= 7.67D-01
 Trust test= 7.67D-01 RLast= 5.52D-03 DXMaxT set to 8.49D-01
 ITU=  0  1  1  1  1  1  1  0
     Eigenvalues ---    0.00230   0.00230   0.00250   0.00430   0.00615
     Eigenvalues ---    0.00755   0.00852   0.01042   0.01258   0.01460
     Eigenvalues ---    0.01468   0.01604   0.01610   0.01638   0.01652
     Eigenvalues ---    0.01683   0.01717   0.01731   0.01814   0.01840
     Eigenvalues ---    0.01880   0.01910   0.02023   0.02041   0.02050
     Eigenvalues ---    0.02072   0.02084   0.02089   0.02094   0.02098
     Eigenvalues ---    0.02112   0.02118   0.02119   0.02124   0.02133
     Eigenvalues ---    0.02134   0.02141   0.02145   0.02150   0.02156
     Eigenvalues ---    0.02160   0.02161   0.02220   0.02320   0.04012
     Eigenvalues ---    0.04225   0.04425   0.04624   0.05428   0.05436
     Eigenvalues ---    0.05439   0.05493   0.05496   0.05532   0.05942
     Eigenvalues ---    0.08013   0.09055   0.09326   0.11623   0.12674
     Eigenvalues ---    0.12853   0.15010   0.15639   0.15973   0.15975
     Eigenvalues ---    0.15996   0.15999   0.16000   0.16000   0.16000
     Eigenvalues ---    0.16000   0.16000   0.16000   0.16000   0.16000
     Eigenvalues ---    0.16000   0.16000   0.16001   0.16003   0.16020
     Eigenvalues ---    0.16064   0.16194   0.18952   0.21000   0.21822
     Eigenvalues ---    0.21979   0.21997   0.22027   0.22449   0.22475
     Eigenvalues ---    0.22658   0.22956   0.23587   0.23864   0.24311
     Eigenvalues ---    0.24529   0.24819   0.24973   0.24989   0.24998
     Eigenvalues ---    0.24999   0.25031   0.27865   0.28077   0.28136
     Eigenvalues ---    0.28464   0.28605   0.29028   0.31215   0.32788
     Eigenvalues ---    0.33134   0.33776   0.34025   0.34062   0.34090
     Eigenvalues ---    0.34100   0.34104   0.34110   0.34125   0.34276
     Eigenvalues ---    0.34289   0.34646   0.34912   0.35037   0.35063
     Eigenvalues ---    0.35082   0.35114   0.35151   0.35161   0.35184
     Eigenvalues ---    0.35185   0.35199   0.35265   0.35392   0.35481
     Eigenvalues ---    0.35816   0.36300   0.36584   0.37383   0.37995
     Eigenvalues ---    0.40172   0.40629   0.41438   0.41514   0.41591
     Eigenvalues ---    0.42078   0.42502   0.43251   0.43644   0.44366
     Eigenvalues ---    0.44467   0.44562   0.44642   0.44889   0.45021
     Eigenvalues ---    0.45819   0.45847   0.45946   0.46083   0.46286
     Eigenvalues ---    0.46935   0.47165   0.47285   0.48129   0.52867
     Eigenvalues ---    0.54418   0.59668   0.63696
 En-DIIS/RFO-DIIS/Sim-DIIS IScMMF=       -3 using points:     8    7    6    5    4    3    2
 RFO step:  Lambda=-3.73574315D-07.
 NNeg= 0 NGDIIS= 7 SimSw=  2.50D-01 Rises=F DC= -4.98D-07 SmlDif=  1.00D-05
 NRisDI= 0 DoIntr=F SqrtH=F CThrHd= 10.0 CDAdj=  3.0
 RMS Error=  0.2441001098D-03 NUsed= 7 OKEnD=F EnDIS=F
 InvSVX:  RCond= 5.32D-07 Info=           0 Equed=N FErr=  3.32D-14 BErr=  1.07D-16
 DidBck=F Rises=F RFO-DIIS coefs:    1.41333   -0.23432   -0.19924    0.02423   -0.00534
                  RFO-DIIS coefs:    0.00395   -0.00262
 Iteration  1 RMS(Cart)=  0.00083779 RMS(Int)=  0.00000013
 Iteration  2 RMS(Cart)=  0.00000030 RMS(Int)=  0.00000006
 ITry= 1 IFail=0 DXMaxC= 3.62D-03 DCOld= 1.00D+10 DXMaxT= 8.49D-01 DXLimC= 3.00D+00 Rises=F
 Variable       Old X    -DE/DX   Delta X   Delta X   Delta X     New X
                                 (Linear)    (Quad)   (Total)
    R1        2.68835   0.00001   0.00004  -0.00003   0.00001   2.68836
    R2        2.62618  -0.00002  -0.00003  -0.00003  -0.00006   2.62612
    R3        2.04444   0.00000  -0.00004   0.00006   0.00002   2.04445
    R4        2.69146   0.00002   0.00006  -0.00002   0.00004   2.69150
    R5        2.76738  -0.00001   0.00000  -0.00006  -0.00005   2.76733
    R6        2.61263  -0.00002  -0.00002  -0.00002  -0.00004   2.61259
    R7        2.05243   0.00001  -0.00001   0.00003   0.00002   2.05245
    R8        2.66623  -0.00000  -0.00000  -0.00000  -0.00000   2.66623
    R9        2.89441  -0.00000  -0.00001  -0.00000  -0.00002   2.89439
   R10        2.64574   0.00002   0.00001   0.00004   0.00005   2.64580
   R11        2.75669  -0.00002  -0.00006  -0.00001  -0.00007   2.75661
   R12        2.05764  -0.00000  -0.00000  -0.00001  -0.00001   2.05763
   R13        2.89177   0.00000   0.00000   0.00001   0.00001   2.89178
   R14        2.91862  -0.00000  -0.00000  -0.00001  -0.00001   2.91861
   R15        2.91844   0.00000   0.00002  -0.00001   0.00001   2.91845
   R16        2.62243  -0.00001  -0.00002  -0.00000  -0.00003   2.62240
   R17        2.67457   0.00001  -0.00001   0.00003   0.00003   2.67460
   R18        2.65291   0.00000   0.00000   0.00000   0.00001   2.65291
   R19        2.05750   0.00000   0.00001   0.00000   0.00001   2.05751
   R20        2.64230   0.00000   0.00001   0.00000   0.00001   2.64231
   R21        2.05507  -0.00000  -0.00000  -0.00001  -0.00001   2.05506
   R22        2.64106  -0.00001  -0.00002  -0.00001  -0.00004   2.64102
   R23        2.05636   0.00000   0.00001   0.00000   0.00001   2.05637
   R24        2.64627   0.00002   0.00003   0.00001   0.00004   2.64631
   R25        2.05516   0.00000  -0.00000   0.00000   0.00000   2.05516
   R26        2.07430  -0.00000   0.00001  -0.00001  -0.00000   2.07430
   R27        2.07196  -0.00000   0.00000  -0.00001  -0.00000   2.07196
   R28        2.06881   0.00000   0.00000  -0.00000   0.00000   2.06881
   R29        2.07206  -0.00000   0.00000  -0.00000   0.00000   2.07206
   R30        2.07426  -0.00000   0.00001  -0.00001   0.00000   2.07426
   R31        2.06898   0.00000   0.00000  -0.00000   0.00000   2.06898
   R32        2.72211  -0.00006   0.00002  -0.00021  -0.00018   2.72192
   R33        2.67408   0.00006  -0.00002   0.00010   0.00008   2.67417
   R34        2.79043   0.00001  -0.00003   0.00001  -0.00002   2.79041
   R35        2.53172   0.00004   0.00014  -0.00000   0.00014   2.53186
   R36        2.62266  -0.00002  -0.00009   0.00007  -0.00001   2.62264
   R37        2.05200   0.00000   0.00001  -0.00000   0.00001   2.05201
   R38        2.71338  -0.00012   0.00006  -0.00030  -0.00024   2.71314
   R39        2.53511   0.00003   0.00012   0.00000   0.00012   2.53523
   R40        2.66857   0.00005   0.00000   0.00007   0.00007   2.66865
   R41        2.05303  -0.00000   0.00001  -0.00000   0.00000   2.05303
   R42        2.77928  -0.00004   0.00004  -0.00011  -0.00007   2.77921
   R43        3.16757  -0.00002  -0.00030   0.00009  -0.00020   3.16737
   R44        3.16689  -0.00004  -0.00029   0.00007  -0.00022   3.16668
   R45        2.67434  -0.00002   0.00007  -0.00008  -0.00001   2.67433
   R46        2.67597   0.00001   0.00009  -0.00005   0.00004   2.67601
   R47        2.63007  -0.00002  -0.00001  -0.00003  -0.00004   2.63003
   R48        2.04520   0.00002  -0.00004   0.00008   0.00004   2.04524
   R49        2.62814  -0.00002  -0.00003  -0.00002  -0.00005   2.62809
   R50        2.05176   0.00000  -0.00001   0.00003   0.00002   2.05178
   R51        2.64896   0.00001  -0.00002   0.00004   0.00002   2.64898
   R52        2.06032  -0.00000   0.00001  -0.00002  -0.00001   2.06031
   R53        2.64912   0.00001  -0.00001   0.00002   0.00001   2.64913
   R54        2.05973  -0.00000   0.00001  -0.00002  -0.00001   2.05972
   R55        2.85802   0.00000  -0.00002   0.00003   0.00001   2.85803
   R56        2.07385   0.00000   0.00002  -0.00001   0.00002   2.07387
   R57        2.08037   0.00000   0.00002  -0.00001   0.00002   2.08039
   R58        2.90428  -0.00000  -0.00001  -0.00000  -0.00001   2.90426
   R59        2.08688   0.00000   0.00002  -0.00001   0.00001   2.08689
   R60        2.07297   0.00000   0.00001   0.00000   0.00001   2.07298
   R61        2.78318   0.00001  -0.00003   0.00005   0.00002   2.78321
   R62        1.92880   0.00000   0.00000   0.00001   0.00001   1.92881
   R63        1.92729   0.00001  -0.00001   0.00002   0.00001   1.92730
    A1        2.13244  -0.00000   0.00004  -0.00006  -0.00002   2.13242
    A2        2.06160   0.00000   0.00003  -0.00001   0.00002   2.06162
    A3        2.08913   0.00000  -0.00007   0.00007  -0.00001   2.08912
    A4        2.03541  -0.00001  -0.00007   0.00007   0.00000   2.03541
    A5        2.14283   0.00004   0.00013  -0.00002   0.00011   2.14294
    A6        2.10487  -0.00004  -0.00006  -0.00005  -0.00012   2.10476
    A7        2.11428   0.00001   0.00004  -0.00001   0.00003   2.11431
    A8        2.08273  -0.00003  -0.00011  -0.00011  -0.00022   2.08251
    A9        2.08559   0.00002   0.00008   0.00012   0.00020   2.08579
   A10        2.11344  -0.00001  -0.00000  -0.00004  -0.00004   2.11340
   A11        2.23980   0.00001   0.00000   0.00004   0.00004   2.23985
   A12        1.92988  -0.00000  -0.00000  -0.00001  -0.00001   1.92987
   A13        2.07595   0.00000   0.00000   0.00002   0.00002   2.07597
   A14        1.89997   0.00000  -0.00000   0.00001   0.00000   1.89998
   A15        2.30717  -0.00000   0.00001  -0.00003  -0.00002   2.30715
   A16        2.09461   0.00001  -0.00000   0.00001   0.00001   2.09462
   A17        2.08342   0.00000   0.00000   0.00003   0.00003   2.08345
   A18        2.10515  -0.00001   0.00000  -0.00004  -0.00004   2.10511
   A19        1.76892   0.00000   0.00000   0.00001   0.00002   1.76893
   A20        1.94548  -0.00000  -0.00001   0.00000  -0.00001   1.94547
   A21        1.94440  -0.00000  -0.00003   0.00001  -0.00002   1.94438
   A22        1.94178  -0.00000   0.00002  -0.00001   0.00001   1.94180
   A23        1.94274  -0.00000   0.00000   0.00001   0.00001   1.94275
   A24        1.91697   0.00000   0.00002  -0.00002  -0.00000   1.91697
   A25        2.25045   0.00000   0.00002   0.00000   0.00002   2.25047
   A26        1.92884  -0.00001  -0.00002  -0.00002  -0.00004   1.92880
   A27        2.10389   0.00001   0.00001   0.00002   0.00003   2.10392
   A28        2.08576   0.00000   0.00001   0.00000   0.00001   2.08578
   A29        2.10557  -0.00000  -0.00001  -0.00001  -0.00002   2.10555
   A30        2.09185   0.00000  -0.00000   0.00001   0.00000   2.09186
   A31        2.09502  -0.00001  -0.00002  -0.00001  -0.00003   2.09499
   A32        2.09340   0.00000   0.00001   0.00001   0.00002   2.09342
   A33        2.09476   0.00000   0.00001   0.00001   0.00002   2.09478
   A34        2.10901   0.00001   0.00001   0.00002   0.00003   2.10904
   A35        2.08803  -0.00000  -0.00002  -0.00001  -0.00002   2.08800
   A36        2.08615  -0.00000   0.00000  -0.00001  -0.00001   2.08614
   A37        2.08111   0.00000  -0.00001   0.00001   0.00001   2.08112
   A38        2.09867   0.00000   0.00003  -0.00000   0.00003   2.09870
   A39        2.10340  -0.00001  -0.00002  -0.00001  -0.00003   2.10337
   A40        1.89715   0.00001   0.00003   0.00000   0.00003   1.89717
   A41        2.29446   0.00001  -0.00002   0.00003   0.00002   2.29448
   A42        2.09158  -0.00001  -0.00001  -0.00004  -0.00005   2.09153
   A43        1.93728   0.00000   0.00001   0.00001   0.00002   1.93731
   A44        1.93021  -0.00000  -0.00001  -0.00001  -0.00002   1.93019
   A45        1.93487  -0.00000   0.00000  -0.00002  -0.00002   1.93485
   A46        1.88519   0.00000   0.00001   0.00002   0.00003   1.88521
   A47        1.88943   0.00000  -0.00000   0.00000   0.00000   1.88944
   A48        1.88507   0.00000  -0.00002   0.00001  -0.00001   1.88506
   A49        1.92950  -0.00000   0.00000  -0.00001  -0.00001   1.92949
   A50        1.93780   0.00000   0.00001   0.00001   0.00002   1.93783
   A51        1.93514  -0.00000   0.00000  -0.00002  -0.00002   1.93512
   A52        1.88530   0.00000   0.00000   0.00001   0.00001   1.88531
   A53        1.88513   0.00000  -0.00002   0.00001  -0.00001   1.88512
   A54        1.88919  -0.00000  -0.00000   0.00000  -0.00000   1.88918
   A55        2.16649   0.00004  -0.00007   0.00004  -0.00003   2.16646
   A56        2.10758  -0.00006   0.00006  -0.00016  -0.00010   2.10748
   A57        2.00911   0.00002   0.00001   0.00012   0.00013   2.00924
   A58        2.11131  -0.00001  -0.00001  -0.00003  -0.00003   2.11127
   A59        2.19157   0.00001   0.00020  -0.00014   0.00006   2.19163
   A60        1.98013  -0.00000  -0.00019   0.00017  -0.00003   1.98010
   A61        2.15979  -0.00002   0.00000  -0.00010  -0.00010   2.15969
   A62        2.07246  -0.00002   0.00008  -0.00022  -0.00014   2.07232
   A63        2.04935   0.00005  -0.00008   0.00032   0.00024   2.04959
   A64        2.11237   0.00001  -0.00000  -0.00002  -0.00003   2.11234
   A65        1.98195   0.00006  -0.00024   0.00029   0.00005   1.98201
   A66        2.18871  -0.00006   0.00025  -0.00027  -0.00002   2.18869
   A67        2.15944  -0.00003   0.00004  -0.00014  -0.00010   2.15934
   A68        2.05124   0.00005  -0.00013   0.00034   0.00021   2.05145
   A69        2.07118  -0.00001   0.00008  -0.00019  -0.00011   2.07107
   A70        2.01305   0.00004  -0.00002   0.00017   0.00015   2.01319
   A71        2.16255  -0.00009  -0.00005  -0.00018  -0.00023   2.16232
   A72        2.10759   0.00005   0.00007   0.00001   0.00008   2.10767
   A73        1.86983  -0.00006   0.00032  -0.00043  -0.00011   1.86972
   A74        1.86767  -0.00009   0.00035  -0.00050  -0.00014   1.86752
   A75        1.72520   0.00010  -0.00024   0.00046   0.00023   1.72542
   A76        2.14850  -0.00006   0.00013  -0.00019  -0.00006   2.14844
   A77        2.11043   0.00005  -0.00001   0.00007   0.00006   2.11049
   A78        2.02413   0.00001  -0.00012   0.00012  -0.00000   2.02413
   A79        2.12025  -0.00000   0.00005  -0.00006  -0.00000   2.12025
   A80        2.07057  -0.00001   0.00002  -0.00001   0.00000   2.07057
   A81        2.09236   0.00001  -0.00007   0.00007  -0.00000   2.09236
   A82        2.13081  -0.00000   0.00007  -0.00005   0.00002   2.13083
   A83        2.08385  -0.00002  -0.00008  -0.00007  -0.00015   2.08370
   A84        2.06817   0.00002   0.00001   0.00012   0.00013   2.06830
   A85        2.13008  -0.00000   0.00000  -0.00001  -0.00001   2.13008
   A86        2.07369   0.00000  -0.00000   0.00002   0.00002   2.07371
   A87        2.07939  -0.00000  -0.00000  -0.00001  -0.00001   2.07938
   A88        2.11991  -0.00001  -0.00001  -0.00002  -0.00003   2.11988
   A89        2.08009   0.00001   0.00004   0.00000   0.00004   2.08013
   A90        2.08314   0.00000  -0.00002   0.00002  -0.00001   2.08313
   A91        2.04105   0.00000   0.00000   0.00002   0.00003   2.04108
   A92        2.12190  -0.00001   0.00001  -0.00004  -0.00002   2.12188
   A93        2.11931   0.00000  -0.00002   0.00001  -0.00001   2.11930
   A94        1.93655   0.00000  -0.00000   0.00002   0.00001   1.93656
   A95        1.91575   0.00000  -0.00003   0.00003  -0.00001   1.91574
   A96        1.97040   0.00000   0.00004  -0.00001   0.00003   1.97043
   A97        1.85991  -0.00000   0.00002  -0.00004  -0.00002   1.85989
   A98        1.88511   0.00000  -0.00001   0.00001  -0.00000   1.88511
   A99        1.89223  -0.00000  -0.00000  -0.00001  -0.00001   1.89222
   A100       1.89626  -0.00000  -0.00000  -0.00001  -0.00002   1.89624
   A101       1.90126  -0.00000  -0.00004  -0.00000  -0.00004   1.90122
   A102       1.93415   0.00000  -0.00001   0.00003   0.00003   1.93417
   A103       1.85877  -0.00000  -0.00001  -0.00001  -0.00002   1.85875
   A104       1.98817   0.00000   0.00001   0.00002   0.00003   1.98820
   A105       1.88221   0.00000   0.00005  -0.00002   0.00002   1.88223
   A106       1.89793  -0.00001  -0.00006  -0.00001  -0.00007   1.89786
   A107       1.90750   0.00001   0.00000   0.00005   0.00005   1.90754
   A108       1.84094  -0.00000   0.00001  -0.00002  -0.00002   1.84092
    D1       -0.02176   0.00000   0.00011  -0.00010   0.00001  -0.02175
    D2        3.10700  -0.00000   0.00008  -0.00026  -0.00017   3.10683
    D3        3.11306  -0.00000   0.00006  -0.00014  -0.00008   3.11298
    D4       -0.04137  -0.00001   0.00004  -0.00029  -0.00026  -0.04163
    D5        0.00798  -0.00000   0.00004  -0.00003   0.00000   0.00798
    D6       -3.13264   0.00000   0.00007   0.00008   0.00015  -3.13249
    D7       -3.12673   0.00000   0.00008   0.00001   0.00009  -3.12664
    D8        0.01583   0.00000   0.00012   0.00012   0.00024   0.01608
    D9        0.02120  -0.00000  -0.00014   0.00012  -0.00002   0.02118
   D10       -3.08341  -0.00000  -0.00024   0.00007  -0.00017  -3.08358
   D11       -3.10785   0.00000  -0.00012   0.00027   0.00015  -3.10770
   D12        0.07072   0.00000  -0.00022   0.00023   0.00001   0.07073
   D13        0.34996   0.00000   0.00005   0.00009   0.00015   0.35011
   D14       -2.78943   0.00000   0.00014   0.00019   0.00033  -2.78910
   D15       -2.80496  -0.00000   0.00003  -0.00007  -0.00004  -2.80500
   D16        0.33883  -0.00000   0.00012   0.00002   0.00015   0.33897
   D17       -0.00719   0.00000   0.00004  -0.00001   0.00002  -0.00717
   D18       -3.13529   0.00000   0.00001  -0.00006  -0.00005  -3.13533
   D19        3.09736   0.00000   0.00013   0.00003   0.00016   3.09752
   D20       -0.03073   0.00000   0.00011  -0.00002   0.00009  -0.03064
   D21       -0.00748  -0.00000   0.00011  -0.00012  -0.00001  -0.00749
   D22       -3.13645   0.00000  -0.00003   0.00002  -0.00000  -3.13645
   D23        3.12280  -0.00000   0.00013  -0.00008   0.00005   3.12285
   D24       -0.00617   0.00000  -0.00001   0.00006   0.00005  -0.00611
   D25        3.13591   0.00000   0.00001   0.00000   0.00001   3.13592
   D26        1.06868  -0.00000  -0.00001   0.00000  -0.00001   1.06868
   D27       -1.07943   0.00000   0.00000   0.00002   0.00002  -1.07941
   D28        0.00666  -0.00000  -0.00001  -0.00004  -0.00005   0.00661
   D29       -2.06056  -0.00000  -0.00003  -0.00004  -0.00007  -2.06063
   D30        2.07451   0.00000  -0.00002  -0.00002  -0.00004   2.07447
   D31        0.00708   0.00000  -0.00014   0.00014  -0.00000   0.00708
   D32       -3.13550  -0.00000  -0.00018   0.00002  -0.00016  -3.13565
   D33        3.13256  -0.00000   0.00003  -0.00004  -0.00001   3.13255
   D34       -0.01002  -0.00000  -0.00001  -0.00016  -0.00017  -0.01019
   D35        0.00287  -0.00000   0.00002  -0.00006  -0.00003   0.00283
   D36       -3.13889  -0.00000  -0.00004  -0.00004  -0.00008  -3.13897
   D37       -3.12382   0.00000  -0.00014   0.00011  -0.00003  -3.12385
   D38        0.01761   0.00000  -0.00020   0.00013  -0.00007   0.01754
   D39        3.13794   0.00000   0.00000   0.00004   0.00005   3.13798
   D40       -0.00487  -0.00000   0.00002   0.00001   0.00003  -0.00484
   D41       -1.07536   0.00000  -0.00000   0.00005   0.00005  -1.07532
   D42        2.06501   0.00000   0.00002   0.00001   0.00003   2.06504
   D43        1.06889   0.00000   0.00003   0.00003   0.00006   1.06895
   D44       -2.07392   0.00000   0.00005  -0.00001   0.00004  -2.07388
   D45        3.08319   0.00000  -0.00001   0.00001   0.00001   3.08320
   D46       -1.10784   0.00000   0.00001   0.00003   0.00004  -1.10780
   D47        0.98260   0.00000  -0.00002   0.00002  -0.00000   0.98260
   D48        1.12268  -0.00000  -0.00001   0.00000  -0.00001   1.12267
   D49       -3.06835   0.00000   0.00000   0.00002   0.00002  -3.06833
   D50       -0.97791  -0.00000  -0.00002   0.00000  -0.00002  -0.97793
   D51       -1.03630  -0.00000  -0.00004   0.00001  -0.00003  -1.03634
   D52        1.05585   0.00000  -0.00003   0.00003  -0.00000   1.05585
   D53       -3.13690  -0.00000  -0.00005   0.00001  -0.00004  -3.13694
   D54        1.10726  -0.00000  -0.00001   0.00004   0.00003   1.10728
   D55       -3.08376  -0.00000  -0.00000   0.00005   0.00005  -3.08371
   D56       -0.98295  -0.00000   0.00001   0.00005   0.00005  -0.98290
   D57        3.06769  -0.00000  -0.00002   0.00006   0.00004   3.06773
   D58       -1.12332   0.00000  -0.00001   0.00007   0.00006  -1.12326
   D59        0.97748   0.00000  -0.00001   0.00007   0.00006   0.97754
   D60       -1.05707  -0.00000   0.00001   0.00005   0.00006  -1.05701
   D61        1.03511   0.00000   0.00003   0.00006   0.00008   1.03519
   D62        3.13591   0.00000   0.00003   0.00005   0.00009   3.13599
   D63        3.14066  -0.00000   0.00001  -0.00003  -0.00002   3.14064
   D64       -0.00071  -0.00000   0.00000  -0.00002  -0.00002  -0.00073
   D65        0.00039  -0.00000  -0.00001   0.00001   0.00000   0.00039
   D66       -3.14098   0.00000  -0.00002   0.00002   0.00000  -3.14098
   D67        0.00156   0.00000  -0.00003   0.00003   0.00000   0.00156
   D68       -3.13990   0.00000   0.00003   0.00001   0.00004  -3.13986
   D69       -3.14113   0.00000  -0.00001  -0.00001  -0.00002  -3.14115
   D70        0.00060   0.00000   0.00005  -0.00002   0.00003   0.00062
   D71       -0.00079  -0.00000  -0.00002  -0.00000  -0.00002  -0.00082
   D72        3.14111  -0.00000   0.00000  -0.00002  -0.00001   3.14109
   D73        3.14058  -0.00000  -0.00001  -0.00001  -0.00002   3.14055
   D74       -0.00071  -0.00000   0.00001  -0.00003  -0.00002  -0.00073
   D75        0.00022   0.00000   0.00002  -0.00000   0.00001   0.00023
   D76       -3.14112   0.00000   0.00002  -0.00001   0.00002  -3.14110
   D77        3.14150   0.00000  -0.00001   0.00001   0.00001   3.14151
   D78        0.00016   0.00000  -0.00000   0.00001   0.00001   0.00018
   D79        0.00077   0.00000   0.00002  -0.00000   0.00002   0.00078
   D80       -3.14095   0.00000   0.00002   0.00001   0.00003  -3.14092
   D81       -3.14108   0.00000   0.00001  -0.00000   0.00001  -3.14107
   D82        0.00039   0.00000   0.00001   0.00001   0.00002   0.00042
   D83        3.14060  -0.00000   0.00002  -0.00000   0.00002   3.14062
   D84       -0.00117  -0.00000  -0.00005   0.00002  -0.00003  -0.00120
   D85       -0.00087  -0.00000   0.00002  -0.00002   0.00001  -0.00087
   D86        3.14055  -0.00000  -0.00005   0.00000  -0.00005   3.14050
   D87        3.10656   0.00000   0.00025   0.00006   0.00031   3.10688
   D88       -0.01304   0.00001   0.00015   0.00023   0.00038  -0.01266
   D89       -0.03711   0.00000   0.00017  -0.00003   0.00013  -0.03698
   D90        3.12647   0.00001   0.00006   0.00014   0.00020   3.12667
   D91       -3.10565  -0.00000  -0.00029  -0.00007  -0.00036  -3.10601
   D92        0.09801  -0.00000  -0.00014  -0.00017  -0.00031   0.09770
   D93        0.03795  -0.00000  -0.00021   0.00002  -0.00019   0.03776
   D94       -3.04158  -0.00000  -0.00005  -0.00008  -0.00014  -3.04172
   D95       -0.00011   0.00000   0.00005  -0.00003   0.00003  -0.00009
   D96       -3.12358  -0.00000  -0.00011   0.00002  -0.00009  -3.12367
   D97        3.12198  -0.00000   0.00015  -0.00018  -0.00003   3.12195
   D98       -0.00149  -0.00000  -0.00001  -0.00014  -0.00015  -0.00163
   D99        3.12287  -0.00000   0.00007   0.00003   0.00009   3.12297
   D100       0.00183   0.00000  -0.00003   0.00019   0.00016   0.00199
   D101       0.00076   0.00000   0.00002   0.00005   0.00007   0.00083
   D102      -3.08469   0.00000   0.00020  -0.00009   0.00011  -3.08457
   D103       3.08104   0.00000  -0.00013   0.00014   0.00001   3.08106
   D104      -0.00440   0.00000   0.00005  -0.00000   0.00005  -0.00435
   D105       0.03771   0.00000  -0.00024   0.00010  -0.00014   0.03757
   D106      -3.10715  -0.00001  -0.00030  -0.00013  -0.00043  -3.10758
   D107      -3.12426   0.00000  -0.00006   0.00005  -0.00001  -3.12427
   D108       0.01406  -0.00000  -0.00013  -0.00017  -0.00030   0.01376
   D109       0.00032   0.00000   0.00004   0.00001   0.00005   0.00037
   D110      -3.12222   0.00000  -0.00012   0.00005  -0.00007  -3.12228
   D111      -0.03918  -0.00000   0.00021  -0.00011   0.00010  -0.03908
   D112       3.10557   0.00001   0.00027   0.00011   0.00038   3.10595
   D113       3.04566  -0.00000   0.00002   0.00005   0.00007   3.04573
   D114      -0.09277   0.00001   0.00008   0.00027   0.00035  -0.09242
   D115      -0.39155   0.00001   0.00008   0.00038   0.00045  -0.39110
   D116       2.76726   0.00001  -0.00000   0.00034   0.00034   2.76760
   D117       2.74660   0.00001   0.00001   0.00014   0.00015   2.74675
   D118      -0.37777   0.00000  -0.00007   0.00010   0.00003  -0.37774
   D119      -0.00148  -0.00000   0.00005  -0.00016  -0.00011  -0.00160
   D120       0.00065  -0.00000  -0.00006   0.00009   0.00003   0.00068
   D121      -3.10847  -0.00000  -0.00010   0.00011   0.00002  -3.10845
   D122       0.03820   0.00000  -0.00010   0.00022   0.00012   0.03831
   D123       0.01669   0.00000  -0.00002   0.00015   0.00013   0.01682
   D124      -3.11983   0.00001  -0.00003   0.00025   0.00022  -3.11960
   D125       3.10862  -0.00000   0.00014  -0.00016  -0.00001   3.10861
   D126      -0.06207   0.00000   0.00014  -0.00009   0.00006  -0.06202
   D127      -0.01693  -0.00000   0.00007  -0.00019  -0.00012  -0.01705
   D128       3.09556  -0.00000   0.00007  -0.00012  -0.00005   3.09552
   D129      -0.00707  -0.00000  -0.00004  -0.00002  -0.00006  -0.00713
   D130       3.12861  -0.00000  -0.00003  -0.00008  -0.00010   3.12851
   D131       3.12939  -0.00000  -0.00003  -0.00013  -0.00016   3.12922
   D132      -0.01812  -0.00001  -0.00002  -0.00019  -0.00020  -0.01832
   D133       0.00739   0.00000  -0.00006   0.00010   0.00005   0.00744
   D134       3.13863   0.00000  -0.00008   0.00006  -0.00001   3.13862
   D135      -3.10535   0.00000  -0.00006   0.00004  -0.00002  -3.10537
   D136       0.02589   0.00000  -0.00007  -0.00000  -0.00008   0.02581
   D137      -0.00328  -0.00000   0.00005  -0.00007  -0.00002  -0.00330
   D138      -3.09929   0.00000   0.00007   0.00001   0.00007  -3.09921
   D139      -3.13895  -0.00000   0.00004  -0.00001   0.00002  -3.13893
   D140       0.04823   0.00000   0.00005   0.00006   0.00011   0.04835
   D141       0.00314   0.00000  -0.00000   0.00003   0.00002   0.00316
   D142       3.09921  -0.00000  -0.00002  -0.00005  -0.00007   3.09915
   D143      -3.12809   0.00000   0.00001   0.00007   0.00008  -3.12800
   D144      -0.03201   0.00000   0.00000  -0.00001  -0.00001  -0.03202
   D145      -2.61906   0.00000   0.00035   0.00028   0.00063  -2.61843
   D146      -0.56800   0.00000   0.00035   0.00025   0.00060  -0.56739
   D147       1.54516   0.00000   0.00034   0.00026   0.00060   1.54576
   D148       0.57016   0.00001   0.00036   0.00035   0.00072   0.57088
   D149       2.62123   0.00000   0.00036   0.00033   0.00069   2.62192
   D150      -1.54880   0.00000   0.00035   0.00034   0.00069  -1.54811
   D151      -0.95839   0.00000  -0.00003  -0.00005  -0.00009  -0.95847
   D152       1.05985  -0.00000  -0.00007  -0.00008  -0.00015   1.05970
   D153       3.12787  -0.00000  -0.00004  -0.00009  -0.00013   3.12774
   D154      -3.10621   0.00000  -0.00004  -0.00008  -0.00012  -3.10633
   D155      -1.08797  -0.00000  -0.00008  -0.00010  -0.00018  -1.08815
   D156       0.98005  -0.00000  -0.00005  -0.00011  -0.00016   0.97989
   D157       1.16808   0.00000  -0.00006  -0.00003  -0.00009   1.16799
   D158      -3.09687  -0.00000  -0.00009  -0.00006  -0.00015  -3.09702
   D159      -1.02885   0.00000  -0.00006  -0.00007  -0.00013  -1.02898
   D160       1.12930  -0.00001  -0.00130  -0.00002  -0.00132   1.12799
   D161       3.13063  -0.00001  -0.00132  -0.00003  -0.00135   3.12928
   D162      -1.01527  -0.00001  -0.00129  -0.00004  -0.00133  -1.01660
   D163       0.98606  -0.00001  -0.00132  -0.00005  -0.00136   0.98469
   D164      -3.07435  -0.00001  -0.00132  -0.00001  -0.00134  -3.07568
   D165      -1.07302  -0.00001  -0.00135  -0.00002  -0.00137  -1.07439
         Item               Value     Threshold  Converged?
 Maximum Force            0.000125     0.000450     YES
 RMS     Force            0.000018     0.000300     YES
 Maximum Displacement     0.003619     0.001800     NO 
 RMS     Displacement     0.000838     0.001200     YES
 Predicted change in Energy=-1.861390D-07
 Lowest energy point so far.  Saving SCF results.
 GradGradGradGradGradGradGradGradGradGradGradGradGradGradGradGradGradGrad

 Leave Link  103 at Thu Mar 14 10:13:06 2024, MaxMem= 32212254720 cpu:               2.6 elap:               0.1
 (Enter /home/<user>/g16/l202.exe)
 Stoichiometry    C29H25N3S(1-,2)
 Framework group  C1[X(C29H25N3S)]
 Deg. of freedom   168
 Full point group                 C1      NOp   1
 RotChk:  IX=0 Diff= 1.90D-04
 Largest Abelian subgroup         C1      NOp   1
 Largest concise Abelian subgroup C1      NOp   1
                         Standard orientation:                         
 ---------------------------------------------------------------------
 Center     Atomic      Atomic             Coordinates (Angstroms)
 Number     Number       Type             X           Y           Z
 ---------------------------------------------------------------------
      1          6           0       -2.487479    1.675693   -0.287305
      2          6           0       -1.790588    0.440877   -0.171485
      3          6           0       -2.586623   -0.727350    0.002155
      4          6           0       -3.966965   -0.654459    0.029009
      5          6           0       -4.634038    0.581422   -0.106170
      6          6           0       -3.875036    1.747763   -0.260558
      7          1           0       -1.905646    2.581664   -0.392885
      8          1           0       -2.098607   -1.686348    0.149794
      9          1           0       -4.361558    2.716619   -0.361625
     10          6           0       -4.975019   -1.793008    0.211947
     11          6           0       -6.301905   -1.033090    0.151817
     12          6           0       -7.594969   -1.526401    0.253684
     13          6           0       -8.681283   -0.640977    0.171388
     14          6           0       -8.456854    0.727052   -0.010919
     15          6           0       -7.157962    1.232516   -0.113801
     16          6           0       -6.072653    0.351243   -0.033254
     17          1           0       -7.773062   -2.590969    0.396640
     18          1           0       -9.697592   -1.019920    0.249841
     19          1           0       -9.303672    1.407597   -0.073362
     20          1           0       -6.994489    2.298407   -0.254872
     21          6           0       -4.793225   -2.495258    1.575457
     22          1           0       -5.556459   -3.270097    1.723714
     23          1           0       -3.808426   -2.973631    1.634579
     24          1           0       -4.870132   -1.776354    2.397514
     25          6           0       -4.868997   -2.828422   -0.929010
     26          1           0       -3.885030   -3.312159   -0.919614
     27          1           0       -5.632589   -3.609911   -0.823929
     28          1           0       -5.001203   -2.349013   -1.904408
     29          6           0       -0.330972    0.344695   -0.240481
     30          6           0        0.563350    1.451220   -0.015805
     31          6           0        0.299493   -0.884969   -0.545394
     32          6           0        2.027613    1.265822   -0.060277
     33          6           0        1.676134   -1.055972   -0.586898
     34          1           0       -0.318668   -1.735132   -0.817843
     35          6           0        2.602709   -0.022066   -0.328504
     36          1           0        2.052492   -2.030487   -0.885194
     37          7           0        0.193302    2.706891    0.269554
     38          7           0        2.718146    2.388253    0.191048
     39         16           0        1.596421    3.602203    0.466983
     40          6           0        4.049317   -0.286517   -0.346825
     41          6           0        5.016965    0.723895   -0.560118
     42          6           0        4.551577   -1.598363   -0.167702
     43          6           0        6.376346    0.429582   -0.609502
     44          1           0        4.681711    1.745762   -0.681583
     45          6           0        5.912120   -1.881932   -0.218973
     46          1           0        3.860861   -2.409187    0.042869
     47          6           0        6.861381   -0.875074   -0.443356
     48          1           0        7.083314    1.240032   -0.788541
     49          1           0        6.246921   -2.908689   -0.071711
     50          6           0        8.343734   -1.175055   -0.445061
     51          1           0        8.539468   -2.184575   -0.828384
     52          1           0        8.864006   -0.477112   -1.118973
     53          6           0        8.977565   -1.065627    0.950736
     54          1           0        8.755420   -0.065068    1.361944
     55          1           0        8.495846   -1.790737    1.618207
     56          7           0       10.414520   -1.384561    0.899610
     57          1           0       10.886810   -0.679909    0.331987
     58          1           0       10.813360   -1.293537    1.833849
 ---------------------------------------------------------------------
 Rotational constants (GHZ):           0.3523863           0.0394046           0.0360996
 Leave Link  202 at Thu Mar 14 10:13:06 2024, MaxMem= 32212254720 cpu:               0.0 elap:               0.0
 (Enter /home/<user>/g16/l301.exe)
 Standard basis: 6-31G(d) (6D, 7F)
 Ernie: Thresh=  0.10000D-02 Tol=  0.10000D-05 Strict=F.
 There are   549 symmetry adapted cartesian basis functions of A   symmetry.
 There are   549 symmetry adapted basis functions of A   symmetry.
   549 basis functions,  1048 primitive gaussians,   549 cartesian basis functions
   119 alpha electrons      118 beta electrons
       nuclear repulsion energy      3069.0845402045 Hartrees.
 IExCor=  402 DFT=T Ex+Corr=B3LYP ExCW=0 ScaHFX=  0.200000
 ScaDFX=  0.800000  0.720000  1.000000  0.810000 ScalE2=  1.000000  1.000000
 IRadAn=      5 IRanWt=     -1 IRanGd=            0 ICorTp=0 IEmpDi=  4
 NAtoms=   58 NActive=   58 NUniq=   58 SFac= 1.00D+00 NAtFMM=   60 NAOKFM=F Big=F
 Integral buffers will be    131072 words long.
 Raffenetti 2 integral format.
 Two-electron integral symmetry is turned on.
 Leave Link  301 at Thu Mar 14 10:13:06 2024, MaxMem= 32212254720 cpu:               0.8 elap:               0.0
 (Enter /home/<user>/g16/l302.exe)
 NPDir=0 NMtPBC=     1 NCelOv=     1 NCel=       1 NClECP=     1 NCelD=      1
         NCelK=      1 NCelE2=     1 NClLst=     1 CellRange=     0.0.
 One-electron integrals computed using PRISM.
 One-electron integral symmetry used in STVInt
 NBasis=   549 RedAO= T EigKep=  2.68D-04  NBF=   549
 NBsUse=   549 1.00D-06 EigRej= -1.00D+00 NBFU=   549
 Precomputing XC quadrature grid using
 IXCGrd= 4 IRadAn=           5 IRanWt=          -1 IRanGd=           0 AccXCQ= 0.00D+00.
 Generated NRdTot=       0 NPtTot=           0 NUsed=           0 NTot=          32
 NSgBfM=   512   512   512   512   512 MxSgAt=    58 MxSgA2=    58.
 Leave Link  302 at Thu Mar 14 10:13:07 2024, MaxMem= 32212254720 cpu:              14.8 elap:               0.5
 (Enter /home/<user>/g16/l303.exe)
 DipDrv:  MaxL=1.
 Leave Link  303 at Thu Mar 14 10:13:07 2024, MaxMem= 32212254720 cpu:               1.4 elap:               0.1
 (Enter /home/<user>/g16/l401.exe)
 Initial guess from the checkpoint file:  "FBTP_E0opt.chk"
 B after Tr=     0.000000    0.000000    0.000000
         Rot=    1.000000    0.000012   -0.000000    0.000004 Ang=   0.00 deg.
 Guess basis will be translated and rotated to current coordinates.
 JPrj=2 DoOrth=T DoCkMO=T.
 Initial guess <Sx>= 0.0000 <Sy>= 0.0000 <Sz>= 0.5000 <S**2>= 0.7610 S= 0.5055
 Leave Link  401 at Thu Mar 14 10:13:07 2024, MaxMem= 32212254720 cpu:              16.7 elap:               0.6
 (Enter /home/<user>/g16/l502.exe)
 Integral symmetry usage will be decided dynamically.
 UHF open shell SCF:
 Using DIIS extrapolation, IDIIS=  1040.
 NGot= 32212254720 LenX= 32211628124 LenY= 32211326174
 Requested convergence on RMS density matrix=1.00D-08 within 128 cycles.
 Requested convergence on MAX density matrix=1.00D-06.
 Requested convergence on             energy=1.00D-06.
 No special actions if energy rises.
 Fock matrices will be formed incrementally for  20 cycles.

 Cycle   1  Pass 1  IDiag  1:
 FoFJK:  IHMeth= 1 ICntrl=       0 DoSepK=F KAlg= 0 I1Cent=           0 FoldK=F
 IRaf= 550000000 NMat=       1 IRICut=       1 DoRegI=T DoRafI=F ISym2E= 0 IDoP0=0 IntGTp=1.
 FoFCou: FMM=F IPFlag=           0 FMFlag=      100000 FMFlg1=           0
         NFxFlg=           0 DoJE=F BraDBF=F KetDBF=F FulRan=T
         wScrn=  0.000000 ICntrl=         0 IOpCl=  1 I1Cent=           0 NGrid=           0
         NMat0=    1 NMatS0=      1 NMatT0=    0 NMatD0=    1 NMtDS0=    0 NMtDT0=    0
 Symmetry not used in FoFCou.
 E= -1682.64590645697    
 DIIS: error= 2.58D-05 at cycle   1 NSaved=   1.
 NSaved= 1 IEnMin= 1 EnMin= -1682.64590645697     IErMin= 1 ErrMin= 2.58D-05
 ErrMax= 2.58D-05  0.00D+00 EMaxC= 1.00D-01 BMatC= 3.50D-06 BMatP= 3.50D-06
 IDIUse=1 WtCom= 1.00D+00 WtEn= 0.00D+00
 Coeff-Com:  0.100D+01
 Coeff:      0.100D+01
 Gap=     1.871 Goal=   None    Shift=    0.000
 Gap=     1.932 Goal=   None    Shift=    0.000
 RMSDP=3.28D-06 MaxDP=9.89D-05              OVMax= 1.83D-04

 Cycle   2  Pass 1  IDiag  1:
 RMSU=  3.28D-06    CP:  1.00D+00
 E= -1682.64590829031     Delta-E=       -0.000001833338 Rises=F Damp=F
 DIIS: error= 2.84D-06 at cycle   2 NSaved=   2.
 NSaved= 2 IEnMin= 2 EnMin= -1682.64590829031     IErMin= 2 ErrMin= 2.84D-06
 ErrMax= 2.84D-06  0.00D+00 EMaxC= 1.00D-01 BMatC= 6.39D-08 BMatP= 3.50D-06
 IDIUse=1 WtCom= 1.00D+00 WtEn= 0.00D+00
 Coeff-Com: -0.669D-01 0.107D+01
 Coeff:     -0.669D-01 0.107D+01
 Gap=     0.063 Goal=   None    Shift=    0.000
 Gap=     0.109 Goal=   None    Shift=    0.000
 RMSDP=7.93D-07 MaxDP=4.65D-05 DE=-1.83D-06 OVMax= 1.25D-04

 Cycle   3  Pass 1  IDiag  1:
 RMSU=  7.72D-07    CP:  1.00D+00  1.06D+00
 E= -1682.64590828514     Delta-E=        0.000000005171 Rises=F Damp=F
 DIIS: error= 7.13D-06 at cycle   3 NSaved=   3.
 NSaved= 3 IEnMin= 2 EnMin= -1682.64590829031     IErMin= 2 ErrMin= 2.84D-06
 ErrMax= 7.13D-06  0.00D+00 EMaxC= 1.00D-01 BMatC= 1.35D-07 BMatP= 6.39D-08
 IDIUse=1 WtCom= 1.00D+00 WtEn= 0.00D+00
 Coeff-Com: -0.537D-01 0.683D+00 0.371D+00
 Coeff:     -0.537D-01 0.683D+00 0.371D+00
 Gap=     0.063 Goal=   None    Shift=    0.000
 Gap=     0.109 Goal=   None    Shift=    0.000
 RMSDP=5.19D-07 MaxDP=4.28D-05 DE= 5.17D-09 OVMax= 1.08D-04

 Cycle   4  Pass 1  IDiag  1:
 RMSU=  2.54D-07    CP:  1.00D+00  1.08D+00  4.25D-01
 E= -1682.64590831886     Delta-E=       -0.000000033720 Rises=F Damp=F
 DIIS: error= 1.65D-06 at cycle   4 NSaved=   4.
 NSaved= 4 IEnMin= 4 EnMin= -1682.64590831886     IErMin= 4 ErrMin= 1.65D-06
 ErrMax= 1.65D-06  0.00D+00 EMaxC= 1.00D-01 BMatC= 8.63D-09 BMatP= 6.39D-08
 IDIUse=1 WtCom= 1.00D+00 WtEn= 0.00D+00
 Coeff-Com: -0.234D-01 0.274D+00 0.225D+00 0.524D+00
 Coeff:     -0.234D-01 0.274D+00 0.225D+00 0.524D+00
 Gap=     0.063 Goal=   None    Shift=    0.000
 Gap=     0.109 Goal=   None    Shift=    0.000
 RMSDP=1.52D-07 MaxDP=1.18D-05 DE=-3.37D-08 OVMax= 2.91D-05

 Cycle   5  Pass 1  IDiag  1:
 RMSU=  1.22D-07    CP:  1.00D+00  1.08D+00  4.82D-01  6.89D-01
 E= -1682.64590832032     Delta-E=       -0.000000001459 Rises=F Damp=F
 DIIS: error= 1.06D-06 at cycle   5 NSaved=   5.
 NSaved= 5 IEnMin= 5 EnMin= -1682.64590832032     IErMin= 5 ErrMin= 1.06D-06
 ErrMax= 1.06D-06  0.00D+00 EMaxC= 1.00D-01 BMatC= 3.26D-09 BMatP= 8.63D-09
 IDIUse=1 WtCom= 1.00D+00 WtEn= 0.00D+00
 Coeff-Com: -0.624D-02 0.612D-01 0.942D-01 0.402D+00 0.449D+00
 Coeff:     -0.624D-02 0.612D-01 0.942D-01 0.402D+00 0.449D+00
 Gap=     0.063 Goal=   None    Shift=    0.000
 Gap=     0.109 Goal=   None    Shift=    0.000
 RMSDP=7.38D-08 MaxDP=5.71D-06 DE=-1.46D-09 OVMax= 1.27D-05

 Cycle   6  Pass 1  IDiag  1:
 RMSU=  4.00D-08    CP:  1.00D+00  1.08D+00  4.96D-01  7.78D-01  5.37D-01
 E= -1682.64590832109     Delta-E=       -0.000000000772 Rises=F Damp=F
 DIIS: error= 1.60D-07 at cycle   6 NSaved=   6.
 NSaved= 6 IEnMin= 6 EnMin= -1682.64590832109     IErMin= 6 ErrMin= 1.60D-07
 ErrMax= 1.60D-07  0.00D+00 EMaxC= 1.00D-01 BMatC= 1.38D-10 BMatP= 3.26D-09
 IDIUse=1 WtCom= 1.00D+00 WtEn= 0.00D+00
 Coeff-Com:  0.143D-03-0.863D-02 0.174D-01 0.127D+00 0.224D+00 0.641D+00
 Coeff:      0.143D-03-0.863D-02 0.174D-01 0.127D+00 0.224D+00 0.641D+00
 Gap=     0.063 Goal=   None    Shift=    0.000
 Gap=     0.109 Goal=   None    Shift=    0.000
 RMSDP=2.32D-08 MaxDP=1.73D-06 DE=-7.72D-10 OVMax= 6.59D-06

 Cycle   7  Pass 1  IDiag  1:
 RMSU=  1.54D-08    CP:  1.00D+00  1.08D+00  4.96D-01  8.04D-01  6.12D-01
                    CP:  6.72D-01
 E= -1682.64590832118     Delta-E=       -0.000000000084 Rises=F Damp=F
 DIIS: error= 1.21D-07 at cycle   7 NSaved=   7.
 NSaved= 7 IEnMin= 7 EnMin= -1682.64590832118     IErMin= 7 ErrMin= 1.21D-07
 ErrMax= 1.21D-07  0.00D+00 EMaxC= 1.00D-01 BMatC= 4.61D-11 BMatP= 1.38D-10
 IDIUse=1 WtCom= 1.00D+00 WtEn= 0.00D+00
 Coeff-Com:  0.837D-03-0.132D-01 0.122D-02 0.359D-01 0.947D-01 0.428D+00
 Coeff-Com:  0.453D+00
 Coeff:      0.837D-03-0.132D-01 0.122D-02 0.359D-01 0.947D-01 0.428D+00
 Coeff:      0.453D+00
 Gap=     0.063 Goal=   None    Shift=    0.000
 Gap=     0.109 Goal=   None    Shift=    0.000
 RMSDP=9.72D-09 MaxDP=4.63D-07 DE=-8.37D-11 OVMax= 1.69D-06

 SCF Done:  E(UB3LYP) =  -1682.64590832     A.U. after    7 cycles
            NFock=  7  Conv=0.97D-08     -V/T= 2.0082
 <Sx>= 0.0000 <Sy>= 0.0000 <Sz>= 0.5000 <S**2>= 0.7610 S= 0.5055
 <L.S>= 0.000000000000E+00
 KE= 1.669028327909D+03 PE=-1.008646695355D+04 EE= 3.665708177117D+03
 Annihilation of the first spin contaminant:
 S**2 before annihilation     0.7610,   after     0.7501
 Leave Link  502 at Thu Mar 14 10:13:28 2024, MaxMem= 32212254720 cpu:             619.6 elap:              20.7
 (Enter /home/<user>/g16/l701.exe)
 ... and contract with generalized density number  0.
 Compute integral first derivatives.
 Leave Link  701 at Thu Mar 14 10:13:28 2024, MaxMem= 32212254720 cpu:               4.9 elap:               0.2
 (Enter /home/<user>/g16/l702.exe)
 L702 exits ... SP integral derivatives will be done elsewhere.
 Leave Link  702 at Thu Mar 14 10:13:28 2024, MaxMem= 32212254720 cpu:               0.7 elap:               0.0
 (Enter /home/<user>/g16/l703.exe)
 Integral derivatives from FoFJK, PRISM(SPDF).
 Compute integral first derivatives, UseDBF=F ICtDFT=           0.
 Calling FoFJK, ICntrl=      2127 FMM=F ISym2X=0 I1Cent= 0 IOpClX= 1 NMat=1 NMatS=1 NMatT=0.
 FoFJK:  IHMeth= 1 ICntrl=    2127 DoSepK=F KAlg= 0 I1Cent=           0 FoldK=F
 IRaf=         0 NMat=       1 IRICut=       1 DoRegI=T DoRafI=F ISym2E= 0 IDoP0=0 IntGTp=1.
 FoFCou: FMM=F IPFlag=           0 FMFlag=      100000 FMFlg1=         800
         NFxFlg=           0 DoJE=F BraDBF=F KetDBF=F FulRan=T
         wScrn=  0.000000 ICntrl=      2127 IOpCl=  1 I1Cent=           0 NGrid=           0
         NMat0=    1 NMatS0=      1 NMatT0=    0 NMatD0=    1 NMtDS0=    0 NMtDT0=    0
 Symmetry not used in FoFCou.
 Leave Link  703 at Thu Mar 14 10:13:35 2024, MaxMem= 32212254720 cpu:             197.1 elap:               6.6
 (Enter /home/<user>/g16/l716.exe)
 Dipole        =-8.46801073D-01-1.33561861D+00 1.96909626D-01
 ***** Axes restored to original set *****
 -------------------------------------------------------------------
 Center     Atomic                   Forces (Hartrees/Bohr)
 Number     Number              X              Y              Z
 -------------------------------------------------------------------
      1        6          -0.000009095    0.000004931    0.000002409
      2        6          -0.000000470   -0.000013374   -0.000002341
      3        6          -0.000018084   -0.000002036   -0.000003680
      4        6           0.000009983   -0.000006011   -0.000001500
      5        6          -0.000011820   -0.000004603   -0.000002205
      6        6           0.000006732   -0.000002906    0.000002015
      7        1           0.000003167   -0.000001446    0.000001876
      8        1          -0.000002972    0.000004241    0.000005960
      9        1          -0.000003735   -0.000001229    0.000000295
     10        6           0.000000702    0.000002579    0.000001158
     11        6          -0.000007373   -0.000006244   -0.000000279
     12        6           0.000002148   -0.000000897   -0.000000510
     13        6          -0.000003506    0.000000400    0.000001142
     14        6           0.000001465   -0.000000328    0.000000310
     15        6          -0.000005085   -0.000004580   -0.000000023
     16        6           0.000011746    0.000014393    0.000000155
     17        1           0.000000674   -0.000000021    0.000000008
     18        1           0.000000542    0.000000243   -0.000000289
     19        1           0.000000097    0.000000129    0.000000355
     20        1          -0.000000005    0.000000439    0.000000390
     21        6          -0.000001079   -0.000003159    0.000000958
     22        1           0.000001372    0.000000679   -0.000000273
     23        1          -0.000000303    0.000000241   -0.000000516
     24        1          -0.000000562   -0.000000273    0.000000184
     25        6          -0.000000674   -0.000001159   -0.000000313
     26        1          -0.000000155    0.000001022   -0.000000073
     27        1           0.000000660    0.000001036   -0.000000002
     28        1          -0.000000468    0.000000298   -0.000000067
     29        6           0.000003516    0.000077989    0.000007591
     30        6           0.000018504   -0.000040073   -0.000008178
     31        6           0.000049746   -0.000053759   -0.000006528
     32        6          -0.000028469   -0.000030220   -0.000015966
     33        6          -0.000055215   -0.000036079   -0.000004974
     34        1          -0.000001644    0.000014608    0.000001145
     35        6           0.000011163    0.000072307    0.000008455
     36        1           0.000008852    0.000011142    0.000002513
     37        7          -0.000039499    0.000018845    0.000003587
     38        7           0.000048698    0.000011237    0.000004226
     39       16          -0.000001856   -0.000011720    0.000004280
     40        6           0.000005165   -0.000010744   -0.000000157
     41        6          -0.000002254   -0.000000308   -0.000000921
     42        6           0.000009466   -0.000002792   -0.000003304
     43        6           0.000001485   -0.000004394   -0.000002180
     44        1          -0.000002090   -0.000000156    0.000001666
     45        6          -0.000005483   -0.000002345    0.000005392
     46        1           0.000001781    0.000001095    0.000002505
     47        6           0.000005256    0.000004359    0.000000287
     48        1           0.000000719   -0.000002135    0.000000442
     49        1          -0.000000604    0.000001237   -0.000001056
     50        6           0.000007819    0.000003205    0.000000898
     51        1           0.000001258   -0.000000349   -0.000005350
     52        1          -0.000001919    0.000001134    0.000001105
     53        6          -0.000008908    0.000004468   -0.000001041
     54        1           0.000002069   -0.000002131    0.000003381
     55        1          -0.000000023   -0.000004410   -0.000001292
     56        7          -0.000001198   -0.000010937    0.000006086
     57        1          -0.000001203   -0.000000071   -0.000006735
     58        1           0.000000965    0.000008632   -0.000001020
 -------------------------------------------------------------------
 Cartesian Forces:  Max     0.000077989 RMS     0.000013765
 Leave Link  716 at Thu Mar 14 10:13:35 2024, MaxMem= 32212254720 cpu:               0.7 elap:               0.0
 (Enter /home/<user>/g16/l103.exe)

 GradGradGradGradGradGradGradGradGradGradGradGradGradGradGradGradGradGrad
 Berny optimization.
 Using GEDIIS/GDIIS optimizer.
 FormGI is forming the generalized inverse of G from B-inverse, IUseBI=4.
 GSVD:  received Info=                   1 from GESDD.
 Internal  Forces:  Max     0.000042321 RMS     0.000006265
 Search for a local minimum.
 Step number   9 out of a maximum of  346
 All quantities printed in internal units (Hartrees-Bohrs-Radians)
 RMS Force = .62645D-05 SwitMx=.10000D-02 MixMth= 2
 Mixed Optimization -- En-DIIS/RFO-DIIS
 Swapping is turned off.
 Update second derivatives using D2CorX and points    2    3    4    5    6
                                                      7    8    9
 DE= -2.08D-07 DEPred=-1.86D-07 R= 1.12D+00
 Trust test= 1.12D+00 RLast= 4.10D-03 DXMaxT set to 8.49D-01
 ITU=  0  0  1  1  1  1  1  1  0
     Eigenvalues ---    0.00230   0.00231   0.00249   0.00356   0.00613
     Eigenvalues ---    0.00756   0.00803   0.01041   0.01260   0.01461
     Eigenvalues ---    0.01467   0.01600   0.01608   0.01637   0.01653
     Eigenvalues ---    0.01682   0.01717   0.01732   0.01814   0.01844
     Eigenvalues ---    0.01883   0.01980   0.02019   0.02038   0.02052
     Eigenvalues ---    0.02076   0.02084   0.02089   0.02094   0.02099
     Eigenvalues ---    0.02112   0.02119   0.02121   0.02123   0.02133
     Eigenvalues ---    0.02135   0.02144   0.02146   0.02150   0.02158
     Eigenvalues ---    0.02161   0.02171   0.02223   0.02379   0.04012
     Eigenvalues ---    0.04227   0.04428   0.04623   0.05428   0.05436
     Eigenvalues ---    0.05439   0.05493   0.05496   0.05540   0.05942
     Eigenvalues ---    0.08011   0.09071   0.09328   0.11623   0.12675
     Eigenvalues ---    0.12851   0.14577   0.15888   0.15923   0.15976
     Eigenvalues ---    0.15996   0.15999   0.16000   0.16000   0.16000
     Eigenvalues ---    0.16000   0.16000   0.16000   0.16000   0.16000
     Eigenvalues ---    0.16000   0.16001   0.16002   0.16020   0.16047
     Eigenvalues ---    0.16117   0.16165   0.18946   0.21594   0.21841
     Eigenvalues ---    0.21944   0.22002   0.22339   0.22456   0.22477
     Eigenvalues ---    0.22768   0.22975   0.23474   0.24147   0.24410
     Eigenvalues ---    0.24533   0.24957   0.24980   0.24991   0.24998
     Eigenvalues ---    0.25010   0.25988   0.28057   0.28078   0.28374
     Eigenvalues ---    0.28580   0.28613   0.29065   0.31215   0.32938
     Eigenvalues ---    0.33153   0.33747   0.33937   0.34059   0.34090
     Eigenvalues ---    0.34100   0.34105   0.34115   0.34203   0.34277
     Eigenvalues ---    0.34289   0.34391   0.34957   0.35038   0.35067
     Eigenvalues ---    0.35082   0.35127   0.35151   0.35162   0.35179
     Eigenvalues ---    0.35194   0.35247   0.35300   0.35375   0.35504
     Eigenvalues ---    0.35918   0.36241   0.36710   0.37556   0.38188
     Eigenvalues ---    0.38938   0.40622   0.41334   0.41511   0.41596
     Eigenvalues ---    0.42083   0.42503   0.43048   0.43251   0.44348
     Eigenvalues ---    0.44462   0.44569   0.44659   0.44889   0.45011
     Eigenvalues ---    0.45769   0.45836   0.46076   0.46138   0.46429
     Eigenvalues ---    0.46942   0.47184   0.47280   0.48642   0.52338
     Eigenvalues ---    0.54427   0.60531   0.63657
 En-DIIS/RFO-DIIS/Sim-DIIS IScMMF=       -3 using points:     9    8    7    6    5    4    3    2
 RFO step:  Lambda=-1.04202214D-07.
 NNeg= 0 NGDIIS= 8 SimSw=  2.50D-01 Rises=F DC= -2.08D-07 SmlDif=  1.00D-05
 NRisDI= 0 DoIntr=F SqrtH=F CThrHd= 10.0 CDAdj=  3.0
 RMS Error=  0.2007049097D-03 NUsed= 8 OKEnD=F EnDIS=F
 InvSVX:  RCond= 8.26D-08 Info=           0 Equed=N FErr=  1.48D-13 BErr=  7.86D-17
 DIIS inversion failure, remove point   8.
 InvSVX:  RCond= 1.04D-07 Info=           0 Equed=N FErr=  9.77D-14 BErr=  9.04D-17
 RFO-DIIS uses    7 points instead of    8
 DidBck=F Rises=F RFO-DIIS coefs:    1.51468   -0.36642   -0.11553   -0.02305   -0.01897
                  RFO-DIIS coefs:    0.00760    0.00169    0.00000
 Iteration  1 RMS(Cart)=  0.00048233 RMS(Int)=  0.00000008
 Iteration  2 RMS(Cart)=  0.00000013 RMS(Int)=  0.00000003
 ITry= 1 IFail=0 DXMaxC= 2.58D-03 DCOld= 1.00D+10 DXMaxT= 8.49D-01 DXLimC= 3.00D+00 Rises=F
 Variable       Old X    -DE/DX   Delta X   Delta X   Delta X     New X
                                 (Linear)    (Quad)   (Total)
    R1        2.68836   0.00000  -0.00000   0.00003   0.00003   2.68838
    R2        2.62612   0.00000  -0.00004   0.00002  -0.00002   2.62611
    R3        2.04445   0.00000   0.00001  -0.00000   0.00000   2.04446
    R4        2.69150   0.00001   0.00003   0.00003   0.00006   2.69156
    R5        2.76733   0.00003  -0.00003   0.00007   0.00004   2.76737
    R6        2.61259  -0.00000  -0.00002  -0.00000  -0.00002   2.61257
    R7        2.05245  -0.00000   0.00001  -0.00001  -0.00001   2.05244
    R8        2.66623   0.00000  -0.00000   0.00000   0.00000   2.66623
    R9        2.89439   0.00000  -0.00001   0.00001   0.00000   2.89439
   R10        2.64580  -0.00000   0.00003  -0.00001   0.00002   2.64582
   R11        2.75661  -0.00000  -0.00005   0.00001  -0.00004   2.75657
   R12        2.05763   0.00000  -0.00000   0.00001   0.00000   2.05764
   R13        2.89178   0.00000   0.00000   0.00001   0.00001   2.89179
   R14        2.91861   0.00000  -0.00001   0.00001  -0.00000   2.91861
   R15        2.91845  -0.00000   0.00001  -0.00001  -0.00000   2.91845
   R16        2.62240  -0.00000  -0.00002   0.00001  -0.00001   2.62239
   R17        2.67460   0.00001   0.00001   0.00002   0.00003   2.67463
   R18        2.65291   0.00000   0.00000   0.00001   0.00001   2.65292
   R19        2.05751  -0.00000   0.00001  -0.00000   0.00000   2.05751
   R20        2.64231  -0.00000   0.00001  -0.00001   0.00000   2.64231
   R21        2.05506  -0.00000  -0.00001   0.00000  -0.00000   2.05506
   R22        2.64102  -0.00000  -0.00003   0.00001  -0.00001   2.64101
   R23        2.05637   0.00000   0.00001  -0.00000   0.00000   2.05637
   R24        2.64631   0.00000   0.00003  -0.00001   0.00002   2.64633
   R25        2.05516   0.00000  -0.00000   0.00000   0.00000   2.05516
   R26        2.07430  -0.00000   0.00000  -0.00001  -0.00000   2.07429
   R27        2.07196  -0.00000  -0.00000  -0.00000  -0.00000   2.07196
   R28        2.06881   0.00000   0.00000  -0.00000   0.00000   2.06881
   R29        2.07206  -0.00000   0.00000  -0.00000  -0.00000   2.07206
   R30        2.07426  -0.00000   0.00000  -0.00000  -0.00000   2.07426
   R31        2.06898   0.00000   0.00000  -0.00000   0.00000   2.06898
   R32        2.72192  -0.00002  -0.00011   0.00001  -0.00010   2.72182
   R33        2.67417   0.00004   0.00002   0.00012   0.00014   2.67431
   R34        2.79041   0.00001  -0.00003   0.00004   0.00001   2.79042
   R35        2.53186   0.00002   0.00010  -0.00001   0.00009   2.53195
   R36        2.62264  -0.00003  -0.00001  -0.00009  -0.00010   2.62254
   R37        2.05201  -0.00001   0.00001  -0.00004  -0.00003   2.05198
   R38        2.71314  -0.00002  -0.00009  -0.00001  -0.00011   2.71304
   R39        2.53523   0.00002   0.00009   0.00001   0.00010   2.53533
   R40        2.66865   0.00003   0.00002   0.00010   0.00012   2.66876
   R41        2.05303  -0.00001   0.00001  -0.00003  -0.00002   2.05301
   R42        2.77921   0.00002  -0.00002   0.00005   0.00003   2.77924
   R43        3.16737   0.00001  -0.00024   0.00020  -0.00004   3.16733
   R44        3.16668   0.00001  -0.00023   0.00020  -0.00004   3.16664
   R45        2.67433  -0.00000   0.00000   0.00000   0.00001   2.67433
   R46        2.67601   0.00001   0.00004   0.00001   0.00004   2.67605
   R47        2.63003   0.00001  -0.00002   0.00002   0.00000   2.63003
   R48        2.04524   0.00000   0.00001  -0.00001   0.00000   2.04524
   R49        2.62809  -0.00000  -0.00003   0.00000  -0.00003   2.62807
   R50        2.05178  -0.00000   0.00001  -0.00001  -0.00000   2.05178
   R51        2.64898  -0.00000   0.00001  -0.00001  -0.00000   2.64898
   R52        2.06031  -0.00000  -0.00000  -0.00000  -0.00000   2.06031
   R53        2.64913   0.00000   0.00001   0.00000   0.00001   2.64914
   R54        2.05972  -0.00000   0.00000  -0.00000  -0.00000   2.05972
   R55        2.85803  -0.00000   0.00000   0.00000   0.00000   2.85803
   R56        2.07387   0.00000   0.00001  -0.00000   0.00001   2.07388
   R57        2.08039  -0.00000   0.00001  -0.00001   0.00000   2.08039
   R58        2.90426  -0.00000  -0.00001  -0.00001  -0.00002   2.90424
   R59        2.08689  -0.00000   0.00001  -0.00001  -0.00000   2.08689
   R60        2.07298   0.00000   0.00001   0.00000   0.00001   2.07299
   R61        2.78321  -0.00000  -0.00000   0.00001   0.00001   2.78322
   R62        1.92881   0.00000   0.00000   0.00001   0.00001   1.92882
   R63        1.92730   0.00000   0.00000   0.00001   0.00001   1.92731
    A1        2.13242   0.00000  -0.00000   0.00002   0.00002   2.13244
    A2        2.06162  -0.00000   0.00002  -0.00005  -0.00003   2.06159
    A3        2.08912   0.00000  -0.00002   0.00003   0.00001   2.08913
    A4        2.03541  -0.00001   0.00001  -0.00007  -0.00006   2.03535
    A5        2.14294  -0.00000   0.00002  -0.00000   0.00002   2.14296
    A6        2.10476   0.00001  -0.00003   0.00007   0.00005   2.10480
    A7        2.11431   0.00001   0.00001   0.00004   0.00005   2.11435
    A8        2.08251  -0.00000  -0.00014   0.00007  -0.00007   2.08244
    A9        2.08579  -0.00001   0.00014  -0.00012   0.00002   2.08581
   A10        2.11340   0.00000  -0.00003   0.00002  -0.00001   2.11340
   A11        2.23985   0.00000   0.00003  -0.00000   0.00002   2.23987
   A12        1.92987  -0.00000  -0.00000  -0.00002  -0.00002   1.92985
   A13        2.07597  -0.00000   0.00002  -0.00004  -0.00002   2.07595
   A14        1.89998   0.00000  -0.00000   0.00002   0.00002   1.90000
   A15        2.30715  -0.00000  -0.00002   0.00002   0.00000   2.30715
   A16        2.09462   0.00001  -0.00001   0.00003   0.00003   2.09465
   A17        2.08345   0.00000   0.00002  -0.00000   0.00002   2.08347
   A18        2.10511  -0.00001  -0.00001  -0.00003  -0.00005   2.10506
   A19        1.76893   0.00000   0.00001   0.00001   0.00002   1.76895
   A20        1.94547   0.00000  -0.00001   0.00001   0.00000   1.94547
   A21        1.94438  -0.00000  -0.00002   0.00001  -0.00001   1.94436
   A22        1.94180  -0.00000   0.00001  -0.00001   0.00000   1.94180
   A23        1.94275  -0.00000   0.00001  -0.00001  -0.00001   1.94274
   A24        1.91697   0.00000   0.00000  -0.00001  -0.00000   1.91697
   A25        2.25047  -0.00000   0.00001  -0.00001   0.00000   2.25047
   A26        1.92880  -0.00000  -0.00003   0.00000  -0.00002   1.92877
   A27        2.10392   0.00000   0.00001   0.00001   0.00002   2.10394
   A28        2.08578   0.00000   0.00001  -0.00000   0.00001   2.08578
   A29        2.10555  -0.00000  -0.00001  -0.00000  -0.00001   2.10554
   A30        2.09186   0.00000   0.00000   0.00000   0.00000   2.09186
   A31        2.09499  -0.00000  -0.00002  -0.00000  -0.00002   2.09497
   A32        2.09342   0.00000   0.00001   0.00000   0.00001   2.09343
   A33        2.09478   0.00000   0.00001   0.00000   0.00001   2.09479
   A34        2.10904   0.00000   0.00002  -0.00000   0.00002   2.10906
   A35        2.08800  -0.00000  -0.00002   0.00001  -0.00001   2.08799
   A36        2.08614  -0.00000   0.00000  -0.00001  -0.00001   2.08614
   A37        2.08112   0.00000   0.00000   0.00001   0.00001   2.08113
   A38        2.09870  -0.00000   0.00002  -0.00002   0.00000   2.09870
   A39        2.10337  -0.00000  -0.00002   0.00000  -0.00002   2.10335
   A40        1.89717  -0.00000   0.00002  -0.00002   0.00001   1.89718
   A41        2.29448   0.00001  -0.00000   0.00003   0.00003   2.29451
   A42        2.09153  -0.00000  -0.00002  -0.00002  -0.00004   2.09149
   A43        1.93731   0.00000   0.00001  -0.00000   0.00001   1.93732
   A44        1.93019  -0.00000  -0.00001   0.00000  -0.00001   1.93018
   A45        1.93485  -0.00000  -0.00001   0.00000  -0.00001   1.93485
   A46        1.88521   0.00000   0.00002  -0.00001   0.00001   1.88522
   A47        1.88944  -0.00000   0.00000  -0.00000  -0.00000   1.88944
   A48        1.88506   0.00000  -0.00001   0.00001  -0.00000   1.88505
   A49        1.92949  -0.00000  -0.00000  -0.00001  -0.00001   1.92948
   A50        1.93783  -0.00000   0.00002  -0.00001   0.00001   1.93784
   A51        1.93512  -0.00000  -0.00001   0.00000  -0.00001   1.93511
   A52        1.88531   0.00000   0.00000   0.00001   0.00001   1.88532
   A53        1.88512   0.00000  -0.00001   0.00001  -0.00000   1.88512
   A54        1.88918   0.00000  -0.00000   0.00000   0.00000   1.88919
   A55        2.16646   0.00002  -0.00014   0.00019   0.00004   2.16650
   A56        2.10748  -0.00001   0.00005  -0.00010  -0.00006   2.10743
   A57        2.00924  -0.00001   0.00009  -0.00008   0.00001   2.00925
   A58        2.11127   0.00001  -0.00002   0.00004   0.00002   2.11129
   A59        2.19163  -0.00002   0.00005  -0.00008  -0.00003   2.19160
   A60        1.98010   0.00001  -0.00003   0.00004   0.00000   1.98010
   A61        2.15969  -0.00000  -0.00007   0.00004  -0.00003   2.15966
   A62        2.07232  -0.00001  -0.00002  -0.00006  -0.00009   2.07224
   A63        2.04959   0.00001   0.00009   0.00002   0.00011   2.04970
   A64        2.11234   0.00000  -0.00003   0.00002  -0.00001   2.11233
   A65        1.98201   0.00001  -0.00004   0.00006   0.00002   1.98202
   A66        2.18869  -0.00002   0.00007  -0.00009  -0.00002   2.18867
   A67        2.15934  -0.00000  -0.00005   0.00002  -0.00002   2.15932
   A68        2.05145   0.00001   0.00007   0.00005   0.00012   2.05157
   A69        2.07107  -0.00001  -0.00002  -0.00007  -0.00010   2.07097
   A70        2.01319  -0.00000   0.00008  -0.00005   0.00003   2.01322
   A71        2.16232   0.00002  -0.00014   0.00020   0.00005   2.16237
   A72        2.10767  -0.00002   0.00006  -0.00014  -0.00008   2.10759
   A73        1.86972  -0.00002  -0.00002  -0.00003  -0.00005   1.86967
   A74        1.86752  -0.00003  -0.00001  -0.00005  -0.00006   1.86746
   A75        1.72542   0.00003   0.00011  -0.00002   0.00009   1.72552
   A76        2.14844   0.00000   0.00001   0.00002   0.00002   2.14847
   A77        2.11049   0.00000   0.00001   0.00001   0.00002   2.11052
   A78        2.02413  -0.00000  -0.00002  -0.00003  -0.00005   2.02409
   A79        2.12025  -0.00000   0.00001   0.00000   0.00001   2.12026
   A80        2.07057  -0.00000   0.00001  -0.00003  -0.00002   2.07055
   A81        2.09236   0.00000  -0.00002   0.00003   0.00001   2.09237
   A82        2.13083   0.00000   0.00002   0.00002   0.00004   2.13087
   A83        2.08370  -0.00000  -0.00011   0.00006  -0.00005   2.08365
   A84        2.06830  -0.00000   0.00009  -0.00008   0.00001   2.06831
   A85        2.13008   0.00000  -0.00001   0.00002   0.00002   2.13009
   A86        2.07371   0.00000   0.00001  -0.00000   0.00001   2.07372
   A87        2.07938  -0.00000  -0.00001  -0.00002  -0.00003   2.07935
   A88        2.11988  -0.00000  -0.00003   0.00001  -0.00001   2.11986
   A89        2.08013   0.00000   0.00004  -0.00002   0.00001   2.08015
   A90        2.08313   0.00000  -0.00001   0.00001  -0.00000   2.08313
   A91        2.04108  -0.00000   0.00002  -0.00003  -0.00001   2.04107
   A92        2.12188   0.00000  -0.00001   0.00001   0.00000   2.12188
   A93        2.11930   0.00000  -0.00001   0.00002   0.00001   2.11931
   A94        1.93656   0.00000   0.00001   0.00001   0.00002   1.93658
   A95        1.91574  -0.00000  -0.00002  -0.00001  -0.00002   1.91572
   A96        1.97043  -0.00000   0.00003  -0.00003  -0.00000   1.97042
   A97        1.85989  -0.00000  -0.00000  -0.00001  -0.00002   1.85987
   A98        1.88511   0.00000  -0.00001   0.00002   0.00001   1.88513
   A99        1.89222   0.00000  -0.00001   0.00002   0.00001   1.89223
   A100       1.89624   0.00000  -0.00001   0.00001   0.00000   1.89624
   A101       1.90122   0.00000  -0.00004   0.00004   0.00001   1.90122
   A102       1.93417  -0.00001   0.00001  -0.00003  -0.00002   1.93415
   A103       1.85875  -0.00000  -0.00001   0.00002   0.00001   1.85876
   A104       1.98820   0.00000   0.00002  -0.00002  -0.00001   1.98819
   A105       1.88223   0.00000   0.00003  -0.00002   0.00001   1.88224
   A106       1.89786  -0.00000  -0.00005  -0.00002  -0.00007   1.89779
   A107       1.90754  -0.00000   0.00003  -0.00004  -0.00001   1.90753
   A108       1.84092   0.00000  -0.00000  -0.00002  -0.00003   1.84090
    D1       -0.02175  -0.00000  -0.00000  -0.00011  -0.00011  -0.02186
    D2        3.10683  -0.00000  -0.00003  -0.00005  -0.00007   3.10675
    D3        3.11298  -0.00000  -0.00007  -0.00003  -0.00010   3.11288
    D4       -0.04163  -0.00000  -0.00010   0.00003  -0.00007  -0.04170
    D5        0.00798   0.00000   0.00003   0.00003   0.00006   0.00804
    D6       -3.13249   0.00000   0.00011  -0.00002   0.00009  -3.13240
    D7       -3.12664   0.00000   0.00010  -0.00005   0.00005  -3.12659
    D8        0.01608   0.00000   0.00018  -0.00009   0.00008   0.01616
    D9        0.02118   0.00000  -0.00001   0.00010   0.00008   0.02126
   D10       -3.08358   0.00000  -0.00012   0.00030   0.00017  -3.08340
   D11       -3.10770   0.00000   0.00001   0.00004   0.00005  -3.10765
   D12        0.07073   0.00000  -0.00010   0.00024   0.00014   0.07087
   D13        0.35011   0.00000   0.00011   0.00005   0.00017   0.35028
   D14       -2.78910   0.00000   0.00028  -0.00006   0.00022  -2.78888
   D15       -2.80500   0.00000   0.00009   0.00012   0.00020  -2.80480
   D16        0.33897   0.00000   0.00026   0.00000   0.00026   0.33923
   D17       -0.00717   0.00000   0.00000  -0.00001  -0.00001  -0.00718
   D18       -3.13533   0.00000  -0.00003   0.00006   0.00004  -3.13530
   D19        3.09752  -0.00000   0.00011  -0.00021  -0.00010   3.09742
   D20       -0.03064  -0.00000   0.00008  -0.00014  -0.00006  -0.03070
   D21       -0.00749  -0.00000   0.00002  -0.00007  -0.00005  -0.00754
   D22       -3.13645   0.00000  -0.00001   0.00002   0.00001  -3.13645
   D23        3.12285  -0.00000   0.00005  -0.00013  -0.00009   3.12277
   D24       -0.00611  -0.00000   0.00002  -0.00004  -0.00003  -0.00614
   D25        3.13592   0.00000   0.00001  -0.00001  -0.00000   3.13592
   D26        1.06868  -0.00000  -0.00001  -0.00001  -0.00002   1.06866
   D27       -1.07941  -0.00000   0.00001  -0.00002  -0.00001  -1.07941
   D28        0.00661   0.00000  -0.00002   0.00005   0.00004   0.00665
   D29       -2.06063   0.00000  -0.00003   0.00005   0.00002  -2.06061
   D30        2.07447   0.00000  -0.00002   0.00005   0.00003   2.07450
   D31        0.00708   0.00000  -0.00004   0.00006   0.00003   0.00711
   D32       -3.13565   0.00000  -0.00012   0.00011  -0.00001  -3.13566
   D33        3.13255  -0.00000   0.00000  -0.00005  -0.00005   3.13250
   D34       -0.01019  -0.00000  -0.00008  -0.00001  -0.00008  -0.01027
   D35        0.00283   0.00000  -0.00001   0.00001   0.00000   0.00283
   D36       -3.13897   0.00000  -0.00005   0.00006   0.00000  -3.13897
   D37       -3.12385   0.00000  -0.00005   0.00012   0.00007  -3.12377
   D38        0.01754   0.00000  -0.00009   0.00016   0.00007   0.01761
   D39        3.13798  -0.00000   0.00002  -0.00002  -0.00000   3.13798
   D40       -0.00484  -0.00000   0.00001  -0.00005  -0.00003  -0.00488
   D41       -1.07532   0.00000   0.00002  -0.00001   0.00001  -1.07531
   D42        2.06504   0.00000   0.00001  -0.00003  -0.00002   2.06502
   D43        1.06895   0.00000   0.00004  -0.00003   0.00001   1.06895
   D44       -2.07388  -0.00000   0.00003  -0.00005  -0.00002  -2.07390
   D45        3.08320   0.00000  -0.00000   0.00008   0.00008   3.08328
   D46       -1.10780   0.00000   0.00002   0.00008   0.00010  -1.10770
   D47        0.98260   0.00000  -0.00001   0.00009   0.00008   0.98268
   D48        1.12267  -0.00000  -0.00001   0.00007   0.00006   1.12273
   D49       -3.06833  -0.00000   0.00001   0.00007   0.00007  -3.06825
   D50       -0.97793  -0.00000  -0.00002   0.00008   0.00006  -0.97787
   D51       -1.03634   0.00000  -0.00003   0.00010   0.00007  -1.03627
   D52        1.05585   0.00000  -0.00001   0.00009   0.00008   1.05593
   D53       -3.13694   0.00000  -0.00004   0.00010   0.00006  -3.13687
   D54        1.10728  -0.00000   0.00001  -0.00008  -0.00007   1.10721
   D55       -3.08371  -0.00000   0.00002  -0.00009  -0.00006  -3.08377
   D56       -0.98290  -0.00000   0.00003  -0.00009  -0.00006  -0.98296
   D57        3.06773   0.00000   0.00001  -0.00008  -0.00006   3.06766
   D58       -1.12326   0.00000   0.00003  -0.00008  -0.00005  -1.12331
   D59        0.97754   0.00000   0.00003  -0.00008  -0.00005   0.97749
   D60       -1.05701  -0.00000   0.00004  -0.00010  -0.00006  -1.05707
   D61        1.03519  -0.00000   0.00005  -0.00010  -0.00005   1.03514
   D62        3.13599  -0.00000   0.00005  -0.00011  -0.00005   3.13594
   D63        3.14064  -0.00000  -0.00001  -0.00002  -0.00003   3.14061
   D64       -0.00073  -0.00000  -0.00001  -0.00001  -0.00002  -0.00074
   D65        0.00039  -0.00000  -0.00000   0.00000   0.00000   0.00039
   D66       -3.14098   0.00000  -0.00000   0.00002   0.00001  -3.14096
   D67        0.00156   0.00000  -0.00000   0.00002   0.00002   0.00158
   D68       -3.13986   0.00000   0.00004  -0.00001   0.00002  -3.13983
   D69       -3.14115   0.00000  -0.00001   0.00000  -0.00001  -3.14116
   D70        0.00062  -0.00000   0.00003  -0.00003  -0.00000   0.00062
   D71       -0.00082   0.00000  -0.00002   0.00002   0.00000  -0.00081
   D72        3.14109   0.00000  -0.00001   0.00000  -0.00000   3.14109
   D73        3.14055  -0.00000  -0.00002   0.00001  -0.00001   3.14054
   D74       -0.00073  -0.00000  -0.00001  -0.00001  -0.00002  -0.00074
   D75        0.00023  -0.00000   0.00001  -0.00001  -0.00000   0.00023
   D76       -3.14110  -0.00000   0.00002  -0.00002   0.00000  -3.14110
   D77        3.14151   0.00000  -0.00000   0.00001   0.00000   3.14151
   D78        0.00018   0.00000   0.00000   0.00000   0.00001   0.00018
   D79        0.00078  -0.00000   0.00002  -0.00002  -0.00000   0.00078
   D80       -3.14092   0.00000   0.00002  -0.00001   0.00001  -3.14091
   D81       -3.14107  -0.00000   0.00001  -0.00001  -0.00000  -3.14107
   D82        0.00042   0.00000   0.00001  -0.00001   0.00001   0.00042
   D83        3.14062  -0.00000   0.00002  -0.00001   0.00001   3.14063
   D84       -0.00120   0.00000  -0.00004   0.00004   0.00000  -0.00120
   D85       -0.00087  -0.00000   0.00001  -0.00002  -0.00001  -0.00087
   D86        3.14050   0.00000  -0.00004   0.00003  -0.00001   3.14049
   D87        3.10688  -0.00000   0.00028  -0.00017   0.00011   3.10699
   D88       -0.01266   0.00000   0.00025   0.00000   0.00025  -0.01241
   D89       -0.03698   0.00000   0.00012  -0.00006   0.00006  -0.03692
   D90        3.12667   0.00000   0.00009   0.00011   0.00020   3.12687
   D91       -3.10601   0.00000  -0.00030   0.00021  -0.00009  -3.10611
   D92        0.09770   0.00000  -0.00025   0.00020  -0.00005   0.09765
   D93        0.03776   0.00000  -0.00015   0.00011  -0.00004   0.03771
   D94       -3.04172   0.00000  -0.00009   0.00009  -0.00000  -3.04172
   D95       -0.00009  -0.00000   0.00003  -0.00007  -0.00004  -0.00013
   D96       -3.12367   0.00000  -0.00006   0.00021   0.00015  -3.12352
   D97        3.12195  -0.00000   0.00006  -0.00022  -0.00016   3.12179
   D98       -0.00163   0.00000  -0.00003   0.00006   0.00003  -0.00160
   D99        3.12297  -0.00000   0.00007  -0.00024  -0.00018   3.12279
   D100       0.00199  -0.00000   0.00003  -0.00009  -0.00005   0.00194
   D101       0.00083  -0.00000   0.00002  -0.00002  -0.00000   0.00083
   D102      -3.08457  -0.00000   0.00007  -0.00007   0.00001  -3.08457
   D103       3.08106  -0.00000  -0.00004  -0.00001  -0.00005   3.08101
   D104      -0.00435  -0.00000   0.00002  -0.00006  -0.00004  -0.00439
   D105       0.03757   0.00000  -0.00015   0.00015  -0.00000   0.03757
   D106      -3.10758   0.00000  -0.00030   0.00026  -0.00004  -3.10762
   D107      -3.12427  -0.00000  -0.00005  -0.00017  -0.00022  -3.12449
   D108       0.01376  -0.00000  -0.00021  -0.00005  -0.00026   0.01350
   D109       0.00037   0.00000   0.00001  -0.00000   0.00000   0.00038
   D110      -3.12228   0.00000  -0.00008   0.00029   0.00021  -3.12208
   D111      -0.03908  -0.00000   0.00013  -0.00011   0.00002  -0.03906
   D112       3.10595  -0.00000   0.00028  -0.00022   0.00006   3.10601
   D113       3.04573   0.00000   0.00008  -0.00006   0.00002   3.04575
   D114      -0.09242  -0.00000   0.00023  -0.00017   0.00006  -0.09236
   D115      -0.39110  -0.00000   0.00013  -0.00011   0.00002  -0.39108
   D116       2.76760  -0.00000   0.00010  -0.00007   0.00003   2.76763
   D117       2.74675  -0.00000  -0.00003   0.00001  -0.00002   2.74673
   D118      -0.37774   0.00000  -0.00006   0.00005  -0.00001  -0.37775
   D119      -0.00160   0.00000  -0.00003   0.00008   0.00005  -0.00155
   D120       0.00068  -0.00000   0.00001  -0.00004  -0.00003   0.00066
   D121      -3.10845   0.00000   0.00000   0.00006   0.00006  -3.10839
   D122       0.03831   0.00000   0.00006   0.00002   0.00008   0.03839
   D123       0.01682   0.00000   0.00003   0.00003   0.00006   0.01687
   D124      -3.11960   0.00000   0.00009  -0.00001   0.00007  -3.11953
   D125       3.10861  -0.00000   0.00001  -0.00007  -0.00006   3.10855
   D126      -0.06202  -0.00000   0.00007  -0.00016  -0.00008  -0.06210
   D127      -0.01705  -0.00000  -0.00002  -0.00003  -0.00005  -0.01710
   D128       3.09552  -0.00000   0.00004  -0.00012  -0.00008   3.09544
   D129      -0.00713  -0.00000  -0.00003   0.00001  -0.00002  -0.00715
   D130       3.12851  -0.00000  -0.00005  -0.00000  -0.00005   3.12846
   D131       3.12922  -0.00000  -0.00009   0.00005  -0.00004   3.12919
   D132      -0.01832  -0.00000  -0.00010   0.00004  -0.00007  -0.01838
   D133       0.00744   0.00000   0.00000   0.00000   0.00000   0.00744
   D134       3.13862   0.00000  -0.00003   0.00003   0.00000   3.13862
   D135      -3.10537   0.00000  -0.00005   0.00009   0.00003  -3.10534
   D136       0.02581   0.00000  -0.00009   0.00011   0.00003   0.02584
   D137      -0.00330  -0.00000   0.00002  -0.00004  -0.00003  -0.00333
   D138      -3.09921  -0.00000   0.00005  -0.00006  -0.00001  -3.09922
   D139      -3.13893  -0.00000   0.00003  -0.00003   0.00000  -3.13892
   D140       0.04835  -0.00000   0.00007  -0.00005   0.00002   0.04837
   D141       0.00316   0.00000  -0.00000   0.00004   0.00003   0.00320
   D142       3.09915   0.00000  -0.00004   0.00005   0.00002   3.09916
   D143      -3.12800   0.00000   0.00003   0.00001   0.00004  -3.12796
   D144      -0.03202   0.00000  -0.00001   0.00003   0.00002  -0.03200
   D145      -2.61843   0.00000   0.00044   0.00029   0.00073  -2.61771
   D146      -0.56739   0.00000   0.00043   0.00028   0.00071  -0.56669
   D147       1.54576   0.00000   0.00043   0.00027   0.00070   1.54646
   D148       0.57088   0.00000   0.00048   0.00027   0.00075   0.57163
   D149       2.62192   0.00000   0.00047   0.00026   0.00072   2.62265
   D150      -1.54811   0.00000   0.00046   0.00026   0.00072  -1.54739
   D151      -0.95847  -0.00000  -0.00008   0.00001  -0.00007  -0.95854
   D152       1.05970   0.00000  -0.00012   0.00007  -0.00005   1.05965
   D153       3.12774   0.00000  -0.00010   0.00005  -0.00005   3.12770
   D154      -3.10633  -0.00000  -0.00010  -0.00000  -0.00010  -3.10643
   D155      -1.08815   0.00000  -0.00014   0.00006  -0.00008  -1.08824
   D156       0.97989   0.00000  -0.00012   0.00004  -0.00008   0.97981
   D157       1.16799  -0.00000  -0.00009  -0.00001  -0.00009   1.16789
   D158      -3.09702   0.00000  -0.00013   0.00005  -0.00008  -3.09710
   D159      -1.02898  -0.00000  -0.00011   0.00004  -0.00007  -1.02905
   D160       1.12799  -0.00000  -0.00106  -0.00000  -0.00106   1.12692
   D161       3.12928  -0.00001  -0.00108  -0.00006  -0.00114   3.12814
   D162      -1.01660  -0.00000  -0.00107   0.00002  -0.00105  -1.01765
   D163       0.98469  -0.00000  -0.00108  -0.00003  -0.00112   0.98358
   D164      -3.07568  -0.00000  -0.00108   0.00002  -0.00106  -3.07675
   D165      -1.07439  -0.00001  -0.00110  -0.00004  -0.00113  -1.07552
         Item               Value     Threshold  Converged?
 Maximum Force            0.000042     0.000450     YES
 RMS     Force            0.000006     0.000300     YES
 Maximum Displacement     0.002578     0.001800     NO 
 RMS     Displacement     0.000482     0.001200     YES
 Predicted change in Energy=-5.169636D-08
 Lowest energy point so far.  Saving SCF results.
 GradGradGradGradGradGradGradGradGradGradGradGradGradGradGradGradGradGrad

 Leave Link  103 at Thu Mar 14 10:13:35 2024, MaxMem= 32212254720 cpu:               2.9 elap:               0.1
 (Enter /home/<user>/g16/l202.exe)
 Stoichiometry    C29H25N3S(1-,2)
 Framework group  C1[X(C29H25N3S)]
 Deg. of freedom   168
 Full point group                 C1      NOp   1
 RotChk:  IX=0 Diff= 7.84D-05
 Largest Abelian subgroup         C1      NOp   1
 Largest concise Abelian subgroup C1      NOp   1
                         Standard orientation:                         
 ---------------------------------------------------------------------
 Center     Atomic      Atomic             Coordinates (Angstroms)
 Number     Number       Type             X           Y           Z
 ---------------------------------------------------------------------
      1          6           0       -2.487569    1.675698   -0.287557
      2          6           0       -1.790578    0.440949   -0.171452
      3          6           0       -2.586621   -0.727280    0.002399
      4          6           0       -3.966959   -0.654482    0.029083
      5          6           0       -4.634099    0.581322   -0.106479
      6          6           0       -3.875126    1.747673   -0.261012
      7          1           0       -1.905774    2.581689   -0.393202
      8          1           0       -2.098529   -1.686176    0.150420
      9          1           0       -4.361725    2.716461   -0.362379
     10          6           0       -4.974979   -1.793027    0.212239
     11          6           0       -6.301911   -1.033209    0.151746
     12          6           0       -7.594951   -1.526566    0.253611
     13          6           0       -8.681319   -0.641232    0.170981
     14          6           0       -8.456934    0.726761   -0.011659
     15          6           0       -7.158068    1.232276   -0.114542
     16          6           0       -6.072690    0.351099   -0.033659
     17          1           0       -7.772984   -2.591110    0.396835
     18          1           0       -9.697614   -1.020210    0.249425
     19          1           0       -9.303784    1.407244   -0.074361
     20          1           0       -6.994643    2.298143   -0.255862
     21          6           0       -4.793291   -2.494891    1.575962
     22          1           0       -5.556448   -3.269783    1.724331
     23          1           0       -3.808437   -2.973116    1.635343
     24          1           0       -4.870395   -1.775770    2.397812
     25          6           0       -4.868770   -2.828753   -0.928417
     26          1           0       -3.884750   -3.312376   -0.918812
     27          1           0       -5.632288   -3.610290   -0.823177
     28          1           0       -5.000952   -2.349624   -1.903957
     29          6           0       -0.330929    0.344847   -0.240322
     30          6           0        0.563328    1.451349   -0.015617
     31          6           0        0.299593   -0.884872   -0.545238
     32          6           0        2.027603    1.266026   -0.060109
     33          6           0        1.676189   -1.055804   -0.586735
     34          1           0       -0.318617   -1.734979   -0.817696
     35          6           0        2.602731   -0.021783   -0.328337
     36          1           0        2.052709   -2.030251   -0.885007
     37          7           0        0.193199    2.706998    0.269956
     38          7           0        2.718129    2.388470    0.191451
     39         16           0        1.596302    3.602247    0.467604
     40          6           0        4.049354   -0.286234   -0.346745
     41          6           0        5.017015    0.724160   -0.560084
     42          6           0        4.551665   -1.598092   -0.167671
     43          6           0        6.376386    0.429821   -0.609620
     44          1           0        4.681764    1.746043   -0.681449
     45          6           0        5.912183   -1.881689   -0.219083
     46          1           0        3.860946   -2.408887    0.043004
     47          6           0        6.861434   -0.874839   -0.443568
     48          1           0        7.083356    1.240250   -0.788737
     49          1           0        6.246991   -2.908447   -0.071853
     50          6           0        8.343785   -1.174829   -0.445454
     51          1           0        8.539543   -2.184069   -0.829521
     52          1           0        8.864056   -0.476391   -1.118858
     53          6           0        8.977577   -1.066402    0.950427
     54          1           0        8.755489   -0.066111    1.362316
     55          1           0        8.495800   -1.791948    1.617390
     56          7           0       10.414519   -1.385377    0.899090
     57          1           0       10.886637   -0.680889    0.331110
     58          1           0       10.813575   -1.293973    1.833204
 ---------------------------------------------------------------------
 Rotational constants (GHZ):           0.3523682           0.0394043           0.0360992
 Leave Link  202 at Thu Mar 14 10:13:35 2024, MaxMem= 32212254720 cpu:               0.1 elap:               0.0
 (Enter /home/<user>/g16/l301.exe)
 Standard basis: 6-31G(d) (6D, 7F)
 Ernie: Thresh=  0.10000D-02 Tol=  0.10000D-05 Strict=F.
 There are   549 symmetry adapted cartesian basis functions of A   symmetry.
 There are   549 symmetry adapted basis functions of A   symmetry.
   549 basis functions,  1048 primitive gaussians,   549 cartesian basis functions
   119 alpha electrons      118 beta electrons
       nuclear repulsion energy      3069.0722125494 Hartrees.
 IExCor=  402 DFT=T Ex+Corr=B3LYP ExCW=0 ScaHFX=  0.200000
 ScaDFX=  0.800000  0.720000  1.000000  0.810000 ScalE2=  1.000000  1.000000
 IRadAn=      5 IRanWt=     -1 IRanGd=            0 ICorTp=0 IEmpDi=  4
 NAtoms=   58 NActive=   58 NUniq=   58 SFac= 1.00D+00 NAtFMM=   60 NAOKFM=F Big=F
 Integral buffers will be    131072 words long.
 Raffenetti 2 integral format.
 Two-electron integral symmetry is turned on.
 Leave Link  301 at Thu Mar 14 10:13:35 2024, MaxMem= 32212254720 cpu:               0.8 elap:               0.0
 (Enter /home/<user>/g16/l302.exe)
 NPDir=0 NMtPBC=     1 NCelOv=     1 NCel=       1 NClECP=     1 NCelD=      1
         NCelK=      1 NCelE2=     1 NClLst=     1 CellRange=     0.0.
 One-electron integrals computed using PRISM.
 One-electron integral symmetry used in STVInt
 NBasis=   549 RedAO= T EigKep=  2.68D-04  NBF=   549
 NBsUse=   549 1.00D-06 EigRej= -1.00D+00 NBFU=   549
 Precomputing XC quadrature grid using
 IXCGrd= 4 IRadAn=           5 IRanWt=          -1 IRanGd=           0 AccXCQ= 0.00D+00.
 Generated NRdTot=       0 NPtTot=           0 NUsed=           0 NTot=          32
 NSgBfM=   512   512   512   512   512 MxSgAt=    58 MxSgA2=    58.
 Leave Link  302 at Thu Mar 14 10:13:36 2024, MaxMem= 32212254720 cpu:              12.5 elap:               0.4
 (Enter /home/<user>/g16/l303.exe)
 DipDrv:  MaxL=1.
 Leave Link  303 at Thu Mar 14 10:13:36 2024, MaxMem= 32212254720 cpu:               1.4 elap:               0.1
 (Enter /home/<user>/g16/l401.exe)
 Initial guess from the checkpoint file:  "FBTP_E0opt.chk"
 B after Tr=     0.000000   -0.000000    0.000000
         Rot=    1.000000   -0.000015    0.000001   -0.000003 Ang=  -0.00 deg.
 Guess basis will be translated and rotated to current coordinates.
 JPrj=2 DoOrth=T DoCkMO=T.
 Initial guess <Sx>= 0.0000 <Sy>= 0.0000 <Sz>= 0.5000 <S**2>= 0.7610 S= 0.5055
 Leave Link  401 at Thu Mar 14 10:13:36 2024, MaxMem= 32212254720 cpu:              16.7 elap:               0.6
 (Enter /home/<user>/g16/l502.exe)
 Integral symmetry usage will be decided dynamically.
 UHF open shell SCF:
 Using DIIS extrapolation, IDIIS=  1040.
 NGot= 32212254720 LenX= 32211628124 LenY= 32211326174
 Requested convergence on RMS density matrix=1.00D-08 within 128 cycles.
 Requested convergence on MAX density matrix=1.00D-06.
 Requested convergence on             energy=1.00D-06.
 No special actions if energy rises.
 Fock matrices will be formed incrementally for  20 cycles.

 Cycle   1  Pass 1  IDiag  1:
 FoFJK:  IHMeth= 1 ICntrl=       0 DoSepK=F KAlg= 0 I1Cent=           0 FoldK=F
 IRaf= 550000000 NMat=       1 IRICut=       1 DoRegI=T DoRafI=F ISym2E= 0 IDoP0=0 IntGTp=1.
 FoFCou: FMM=F IPFlag=           0 FMFlag=      100000 FMFlg1=           0
         NFxFlg=           0 DoJE=F BraDBF=F KetDBF=F FulRan=T
         wScrn=  0.000000 ICntrl=         0 IOpCl=  1 I1Cent=           0 NGrid=           0
         NMat0=    1 NMatS0=      1 NMatT0=    0 NMatD0=    1 NMtDS0=    0 NMtDT0=    0
 Symmetry not used in FoFCou.
 E= -1682.64590764425    
 DIIS: error= 2.27D-05 at cycle   1 NSaved=   1.
 NSaved= 1 IEnMin= 1 EnMin= -1682.64590764425     IErMin= 1 ErrMin= 2.27D-05
 ErrMax= 2.27D-05  0.00D+00 EMaxC= 1.00D-01 BMatC= 1.32D-06 BMatP= 1.32D-06
 IDIUse=1 WtCom= 1.00D+00 WtEn= 0.00D+00
 Coeff-Com:  0.100D+01
 Coeff:      0.100D+01
 Gap=     1.871 Goal=   None    Shift=    0.000
 Gap=     1.932 Goal=   None    Shift=    0.000
 RMSDP=1.99D-06 MaxDP=8.81D-05              OVMax= 1.43D-04

 Cycle   2  Pass 1  IDiag  1:
 RMSU=  1.99D-06    CP:  1.00D+00
 E= -1682.64590836184     Delta-E=       -0.000000717588 Rises=F Damp=F
 DIIS: error= 2.13D-06 at cycle   2 NSaved=   2.
 NSaved= 2 IEnMin= 2 EnMin= -1682.64590836184     IErMin= 2 ErrMin= 2.13D-06
 ErrMax= 2.13D-06  0.00D+00 EMaxC= 1.00D-01 BMatC= 2.25D-08 BMatP= 1.32D-06
 IDIUse=1 WtCom= 1.00D+00 WtEn= 0.00D+00
 Coeff-Com: -0.717D-01 0.107D+01
 Coeff:     -0.717D-01 0.107D+01
 Gap=     0.063 Goal=   None    Shift=    0.000
 Gap=     0.109 Goal=   None    Shift=    0.000
 RMSDP=4.12D-07 MaxDP=1.72D-05 DE=-7.18D-07 OVMax= 3.37D-05

 Cycle   3  Pass 1  IDiag  1:
 RMSU=  3.84D-07    CP:  1.00D+00  1.08D+00
 E= -1682.64590836564     Delta-E=       -0.000000003800 Rises=F Damp=F
 DIIS: error= 2.96D-06 at cycle   3 NSaved=   3.
 NSaved= 3 IEnMin= 3 EnMin= -1682.64590836564     IErMin= 2 ErrMin= 2.13D-06
 ErrMax= 2.96D-06  0.00D+00 EMaxC= 1.00D-01 BMatC= 3.02D-08 BMatP= 2.25D-08
 IDIUse=1 WtCom= 1.00D+00 WtEn= 0.00D+00
 Coeff-Com: -0.516D-01 0.631D+00 0.421D+00
 Coeff:     -0.516D-01 0.631D+00 0.421D+00
 Gap=     0.063 Goal=   None    Shift=    0.000
 Gap=     0.109 Goal=   None    Shift=    0.000
 RMSDP=2.34D-07 MaxDP=1.50D-05 DE=-3.80D-09 OVMax= 3.02D-05

 Cycle   4  Pass 1  IDiag  1:
 RMSU=  1.35D-07    CP:  1.00D+00  1.09D+00  5.13D-01
 E= -1682.64590837257     Delta-E=       -0.000000006933 Rises=F Damp=F
 DIIS: error= 9.03D-07 at cycle   4 NSaved=   4.
 NSaved= 4 IEnMin= 4 EnMin= -1682.64590837257     IErMin= 4 ErrMin= 9.03D-07
 ErrMax= 9.03D-07  0.00D+00 EMaxC= 1.00D-01 BMatC= 2.28D-09 BMatP= 2.25D-08
 IDIUse=1 WtCom= 1.00D+00 WtEn= 0.00D+00
 Coeff-Com: -0.181D-01 0.200D+00 0.238D+00 0.581D+00
 Coeff:     -0.181D-01 0.200D+00 0.238D+00 0.581D+00
 Gap=     0.063 Goal=   None    Shift=    0.000
 Gap=     0.109 Goal=   None    Shift=    0.000
 RMSDP=7.77D-08 MaxDP=7.21D-06 DE=-6.93D-09 OVMax= 1.37D-05

 Cycle   5  Pass 1  IDiag  1:
 RMSU=  6.10D-08    CP:  1.00D+00  1.10D+00  5.77D-01  6.95D-01
 E= -1682.64590837297     Delta-E=       -0.000000000397 Rises=F Damp=F
 DIIS: error= 4.35D-07 at cycle   5 NSaved=   5.
 NSaved= 5 IEnMin= 5 EnMin= -1682.64590837297     IErMin= 5 ErrMin= 4.35D-07
 ErrMax= 4.35D-07  0.00D+00 EMaxC= 1.00D-01 BMatC= 6.49D-10 BMatP= 2.28D-09
 IDIUse=1 WtCom= 1.00D+00 WtEn= 0.00D+00
 Coeff-Com: -0.626D-02 0.608D-01 0.113D+00 0.402D+00 0.431D+00
 Coeff:     -0.626D-02 0.608D-01 0.113D+00 0.402D+00 0.431D+00
 Gap=     0.063 Goal=   None    Shift=    0.000
 Gap=     0.109 Goal=   None    Shift=    0.000
 RMSDP=3.72D-08 MaxDP=3.05D-06 DE=-3.97D-10 OVMax= 6.91D-06

 Cycle   6  Pass 1  IDiag  1:
 RMSU=  2.44D-08    CP:  1.00D+00  1.10D+00  5.83D-01  7.76D-01  5.79D-01
 E= -1682.64590837310     Delta-E=       -0.000000000135 Rises=F Damp=F
 DIIS: error= 1.65D-07 at cycle   6 NSaved=   6.
 NSaved= 6 IEnMin= 6 EnMin= -1682.64590837310     IErMin= 6 ErrMin= 1.65D-07
 ErrMax= 1.65D-07  0.00D+00 EMaxC= 1.00D-01 BMatC= 9.89D-11 BMatP= 6.49D-10
 IDIUse=1 WtCom= 1.00D+00 WtEn= 0.00D+00
 Coeff-Com:  0.172D-03-0.849D-02 0.206D-01 0.140D+00 0.301D+00 0.546D+00
 Coeff:      0.172D-03-0.849D-02 0.206D-01 0.140D+00 0.301D+00 0.546D+00
 Gap=     0.063 Goal=   None    Shift=    0.000
 Gap=     0.109 Goal=   None    Shift=    0.000
 RMSDP=1.46D-08 MaxDP=1.02D-06 DE=-1.35D-10 OVMax= 2.30D-06

 Cycle   7  Pass 1  IDiag  1:
 RMSU=  8.90D-09    CP:  1.00D+00  1.10D+00  5.89D-01  7.96D-01  6.51D-01
                    CP:  5.91D-01
 E= -1682.64590837309     Delta-E=        0.000000000011 Rises=F Damp=F
 DIIS: error= 5.81D-08 at cycle   7 NSaved=   7.
 NSaved= 7 IEnMin= 6 EnMin= -1682.64590837310     IErMin= 7 ErrMin= 5.81D-08
 ErrMax= 5.81D-08  0.00D+00 EMaxC= 1.00D-01 BMatC= 1.21D-11 BMatP= 9.89D-11
 IDIUse=1 WtCom= 1.00D+00 WtEn= 0.00D+00
 Coeff-Com:  0.826D-03-0.124D-01-0.503D-03 0.369D-01 0.130D+00 0.334D+00
 Coeff-Com:  0.511D+00
 Coeff:      0.826D-03-0.124D-01-0.503D-03 0.369D-01 0.130D+00 0.334D+00
 Coeff:      0.511D+00
 Gap=     0.063 Goal=   None    Shift=    0.000
 Gap=     0.109 Goal=   None    Shift=    0.000
 RMSDP=6.27D-09 MaxDP=6.73D-07 DE= 1.09D-11 OVMax= 2.02D-06

 SCF Done:  E(UB3LYP) =  -1682.64590837     A.U. after    7 cycles
            NFock=  7  Conv=0.63D-08     -V/T= 2.0082
 <Sx>= 0.0000 <Sy>= 0.0000 <Sz>= 0.5000 <S**2>= 0.7610 S= 0.5055
 <L.S>= 0.000000000000E+00
 KE= 1.669027969743D+03 PE=-1.008644135020D+04 EE= 3.665695259532D+03
 Annihilation of the first spin contaminant:
 S**2 before annihilation     0.7610,   after     0.7501
 Leave Link  502 at Thu Mar 14 10:13:57 2024, MaxMem= 32212254720 cpu:             616.8 elap:              20.6
 (Enter /home/<user>/g16/l701.exe)
 ... and contract with generalized density number  0.
 Compute integral first derivatives.
 Leave Link  701 at Thu Mar 14 10:13:57 2024, MaxMem= 32212254720 cpu:               5.0 elap:               0.2
 (Enter /home/<user>/g16/l702.exe)
 L702 exits ... SP integral derivatives will be done elsewhere.
 Leave Link  702 at Thu Mar 14 10:13:57 2024, MaxMem= 32212254720 cpu:               0.7 elap:               0.0
 (Enter /home/<user>/g16/l703.exe)
 Integral derivatives from FoFJK, PRISM(SPDF).
 Compute integral first derivatives, UseDBF=F ICtDFT=           0.
 Calling FoFJK, ICntrl=      2127 FMM=F ISym2X=0 I1Cent= 0 IOpClX= 1 NMat=1 NMatS=1 NMatT=0.
 FoFJK:  IHMeth= 1 ICntrl=    2127 DoSepK=F KAlg= 0 I1Cent=           0 FoldK=F
 IRaf=         0 NMat=       1 IRICut=       1 DoRegI=T DoRafI=F ISym2E= 0 IDoP0=0 IntGTp=1.
 FoFCou: FMM=F IPFlag=           0 FMFlag=      100000 FMFlg1=         800
         NFxFlg=           0 DoJE=F BraDBF=F KetDBF=F FulRan=T
         wScrn=  0.000000 ICntrl=      2127 IOpCl=  1 I1Cent=           0 NGrid=           0
         NMat0=    1 NMatS0=      1 NMatT0=    0 NMatD0=    1 NMtDS0=    0 NMtDT0=    0
 Symmetry not used in FoFCou.
 Leave Link  703 at Thu Mar 14 10:14:04 2024, MaxMem= 32212254720 cpu:             200.8 elap:               6.7
 (Enter /home/<user>/g16/l716.exe)
 Dipole        =-8.47052231D-01-1.33581805D+00 1.96451110D-01
 ***** Axes restored to original set *****
 -------------------------------------------------------------------
 Center     Atomic                   Forces (Hartrees/Bohr)
 Number     Number              X              Y              Z
 -------------------------------------------------------------------
      1        6           0.000013229   -0.000001373    0.000000258
      2        6          -0.000019833   -0.000014112    0.000008256
      3        6           0.000019073    0.000008171   -0.000005343
      4        6          -0.000003543    0.000000474    0.000000892
      5        6           0.000008544    0.000004177   -0.000003642
      6        6          -0.000008845   -0.000004694    0.000000144
      7        1           0.000001629    0.000000344   -0.000000472
      8        1          -0.000003325   -0.000003430    0.000002765
      9        1          -0.000000137    0.000001003    0.000002550
     10        6          -0.000001078   -0.000004334   -0.000001627
     11        6           0.000007474    0.000004823   -0.000000486
     12        6          -0.000004009   -0.000003616    0.000000963
     13        6           0.000005245    0.000001422   -0.000000460
     14        6          -0.000006632   -0.000000961    0.000000818
     15        6           0.000010329   -0.000004084   -0.000000068
     16        6          -0.000015122    0.000003967    0.000001895
     17        1           0.000000169    0.000001008   -0.000000505
     18        1          -0.000000194   -0.000000206    0.000000087
     19        1           0.000001459   -0.000000330    0.000000391
     20        1          -0.000001634    0.000000332    0.000000113
     21        6           0.000000574    0.000001030    0.000001806
     22        1           0.000000867    0.000000353   -0.000000985
     23        1          -0.000000459   -0.000001192   -0.000000026
     24        1          -0.000000250   -0.000000907    0.000000228
     25        6           0.000000152   -0.000000209   -0.000001567
     26        1          -0.000000441   -0.000000211   -0.000000104
     27        1           0.000000579    0.000000886    0.000000026
     28        1          -0.000000141   -0.000000476   -0.000000075
     29        6          -0.000007475    0.000016828   -0.000005507
     30        6           0.000020962    0.000003553    0.000002859
     31        6          -0.000001400   -0.000000912   -0.000000050
     32        6          -0.000020863    0.000005947    0.000005026
     33        6           0.000000047   -0.000004457   -0.000001373
     34        1          -0.000002332    0.000001947   -0.000000013
     35        6           0.000011161    0.000014433   -0.000003444
     36        1           0.000000692    0.000002818   -0.000000344
     37        7          -0.000021746   -0.000017905   -0.000000663
     38        7           0.000017733   -0.000021361   -0.000002601
     39       16           0.000000917    0.000017912   -0.000000152
     40        6           0.000017805   -0.000014218    0.000003623
     41        6          -0.000014578    0.000001123    0.000000635
     42        6          -0.000015137    0.000006501   -0.000002284
     43        6           0.000006727   -0.000005585   -0.000004065
     44        1          -0.000000828    0.000000583   -0.000000652
     45        6           0.000002986    0.000000038    0.000004039
     46        1           0.000004382   -0.000002405    0.000001662
     47        6           0.000001390    0.000007568   -0.000000733
     48        1          -0.000000134    0.000000474    0.000001974
     49        1          -0.000002071   -0.000000099   -0.000000977
     50        6           0.000005721   -0.000000581   -0.000002381
     51        1          -0.000000218    0.000000721   -0.000002801
     52        1          -0.000003074    0.000001153    0.000002535
     53        6          -0.000006202    0.000002230    0.000002587
     54        1           0.000001223   -0.000001260    0.000000672
     55        1           0.000000954   -0.000001465   -0.000001207
     56        7          -0.000000819   -0.000004345    0.000000582
     57        1           0.000000051    0.000000189   -0.000002267
     58        1           0.000000443    0.000002720   -0.000000514
 -------------------------------------------------------------------
 Cartesian Forces:  Max     0.000021746 RMS     0.000006412
 Leave Link  716 at Thu Mar 14 10:14:04 2024, MaxMem= 32212254720 cpu:               0.7 elap:               0.0
 (Enter /home/<user>/g16/l103.exe)

 GradGradGradGradGradGradGradGradGradGradGradGradGradGradGradGradGradGrad
 Berny optimization.
 Using GEDIIS/GDIIS optimizer.
 FormGI is forming the generalized inverse of G from B-inverse, IUseBI=4.
 GSVD:  received Info=                   1 from GESDD.
 Internal  Forces:  Max     0.000016785 RMS     0.000002882
 Search for a local minimum.
 Step number  10 out of a maximum of  346
 All quantities printed in internal units (Hartrees-Bohrs-Radians)
 RMS Force = .28818D-05 SwitMx=.10000D-02 MixMth= 2
 Mixed Optimization -- En-DIIS/RFO-DIIS
 Swapping is turned off.
 Update second derivatives using D2CorX and points    2    3    4    5    6
                                                      7    8    9   10
 DE= -5.19D-08 DEPred=-5.17D-08 R= 1.00D+00
 Trust test= 1.00D+00 RLast= 3.38D-03 DXMaxT set to 8.49D-01
 ITU=  0  0  0  1  1  1  1  1  1  0
     Eigenvalues ---    0.00230   0.00231   0.00245   0.00290   0.00609
     Eigenvalues ---    0.00756   0.00824   0.01046   0.01259   0.01461
     Eigenvalues ---    0.01469   0.01606   0.01632   0.01640   0.01658
     Eigenvalues ---    0.01705   0.01721   0.01730   0.01810   0.01850
     Eigenvalues ---    0.01880   0.01964   0.02021   0.02038   0.02051
     Eigenvalues ---    0.02076   0.02084   0.02090   0.02094   0.02100
     Eigenvalues ---    0.02112   0.02119   0.02122   0.02124   0.02134
     Eigenvalues ---    0.02137   0.02145   0.02147   0.02150   0.02160
     Eigenvalues ---    0.02161   0.02182   0.02223   0.02412   0.04011
     Eigenvalues ---    0.04228   0.04429   0.04619   0.05430   0.05436
     Eigenvalues ---    0.05439   0.05494   0.05499   0.05541   0.05946
     Eigenvalues ---    0.08020   0.09067   0.09324   0.11623   0.12674
     Eigenvalues ---    0.12845   0.14560   0.15740   0.15936   0.15979
     Eigenvalues ---    0.15997   0.15999   0.16000   0.16000   0.16000
     Eigenvalues ---    0.16000   0.16000   0.16000   0.16000   0.16000
     Eigenvalues ---    0.16001   0.16001   0.16010   0.16021   0.16037
     Eigenvalues ---    0.16120   0.16163   0.18971   0.21740   0.21840
     Eigenvalues ---    0.21982   0.22040   0.22341   0.22459   0.22478
     Eigenvalues ---    0.22754   0.22968   0.23367   0.23988   0.24405
     Eigenvalues ---    0.24536   0.24955   0.24988   0.24995   0.24999
     Eigenvalues ---    0.25091   0.25758   0.27912   0.28075   0.28099
     Eigenvalues ---    0.28539   0.28597   0.29049   0.31231   0.32916
     Eigenvalues ---    0.33154   0.33796   0.34022   0.34090   0.34100
     Eigenvalues ---    0.34102   0.34106   0.34124   0.34229   0.34277
     Eigenvalues ---    0.34289   0.34846   0.34965   0.35038   0.35069
     Eigenvalues ---    0.35088   0.35124   0.35151   0.35162   0.35190
     Eigenvalues ---    0.35195   0.35245   0.35281   0.35433   0.35528
     Eigenvalues ---    0.36079   0.36645   0.37276   0.37530   0.38217
     Eigenvalues ---    0.40400   0.40869   0.41278   0.41572   0.41887
     Eigenvalues ---    0.42147   0.42530   0.43223   0.43654   0.44349
     Eigenvalues ---    0.44521   0.44575   0.44890   0.44949   0.45057
     Eigenvalues ---    0.45759   0.45833   0.46075   0.46320   0.46686
     Eigenvalues ---    0.46945   0.47216   0.47398   0.48803   0.52478
     Eigenvalues ---    0.54423   0.60655   0.64091
 En-DIIS/RFO-DIIS/Sim-DIIS IScMMF=       -3 using points:    10    9    8    7    6    5    4    3    2
 RFO step:  Lambda=-1.98128029D-08.
 NNeg= 0 NGDIIS= 9 SimSw=  2.50D-01 Rises=F DC= -5.19D-08 SmlDif=  1.00D-05
 NRisDI= 0 DoIntr=F SqrtH=F CThrHd= 10.0 CDAdj=  3.0
 RMS Error=  0.9399090506D-04 NUsed= 9 OKEnD=F EnDIS=F
 InvSVX:  RCond= 2.65D-08 Info=           0 Equed=N FErr=  1.60D-13 BErr=  1.28D-16
 DIIS inversion failure, remove point   9.
 InvSVX:  RCond= 3.28D-08 Info=           0 Equed=N FErr=  1.21D-13 BErr=  1.02D-16
 DIIS inversion failure, remove point   8.
 InvSVX:  RCond= 3.96D-08 Info=           0 Equed=N FErr=  9.57D-14 BErr=  6.81D-17
 DIIS inversion failure, remove point   7.
 InvSVX:  RCond= 4.99D-08 Info=           0 Equed=N FErr=  7.23D-14 BErr=  6.69D-17
 DIIS inversion failure, remove point   6.
 InvSVX:  RCond= 6.04D-08 Info=           0 Equed=N FErr=  6.05D-14 BErr=  6.21D-17
 DIIS inversion failure, remove point   5.
 InvSVX:  RCond= 7.60D-08 Info=           0 Equed=N FErr=  4.73D-14 BErr=  6.18D-17
 DIIS inversion failure, remove point   4.
 InvSVX:  RCond= 1.05D-07 Info=           0 Equed=N FErr=  3.02D-14 BErr=  8.46D-17
 RFO-DIIS uses    3 points instead of    9
 DidBck=F Rises=F RFO-DIIS coefs:    1.22367   -0.07556   -0.14811    0.00000    0.00000
                  RFO-DIIS coefs:    0.00000    0.00000    0.00000    0.00000
 Iteration  1 RMS(Cart)=  0.00019085 RMS(Int)=  0.00000002
 Iteration  2 RMS(Cart)=  0.00000003 RMS(Int)=  0.00000000
 ITry= 1 IFail=0 DXMaxC= 1.32D-03 DCOld= 1.00D+10 DXMaxT= 8.49D-01 DXLimC= 3.00D+00 Rises=F
 Variable       Old X    -DE/DX   Delta X   Delta X   Delta X     New X
                                 (Linear)    (Quad)   (Total)
    R1        2.68838  -0.00001   0.00001  -0.00001  -0.00001   2.68838
    R2        2.62611   0.00000  -0.00001   0.00001   0.00000   2.62611
    R3        2.04446   0.00000   0.00000  -0.00000   0.00000   2.04446
    R4        2.69156  -0.00001   0.00002  -0.00003  -0.00001   2.69155
    R5        2.76737  -0.00000   0.00000  -0.00001  -0.00001   2.76736
    R6        2.61257   0.00000  -0.00001   0.00001  -0.00000   2.61257
    R7        2.05244   0.00000   0.00000   0.00000   0.00000   2.05245
    R8        2.66623   0.00000  -0.00000   0.00001   0.00001   2.66624
    R9        2.89439  -0.00000  -0.00000   0.00000  -0.00000   2.89439
   R10        2.64582  -0.00001   0.00001  -0.00002  -0.00000   2.64581
   R11        2.75657   0.00000  -0.00002   0.00002   0.00000   2.75657
   R12        2.05764   0.00000  -0.00000   0.00000   0.00000   2.05764
   R13        2.89179  -0.00000   0.00000  -0.00000   0.00000   2.89179
   R14        2.91861   0.00000  -0.00000   0.00001   0.00000   2.91861
   R15        2.91845   0.00000   0.00000   0.00000   0.00000   2.91845
   R16        2.62239   0.00000  -0.00001   0.00001  -0.00000   2.62239
   R17        2.67463  -0.00000   0.00001  -0.00001   0.00000   2.67463
   R18        2.65292  -0.00000   0.00000  -0.00000  -0.00000   2.65292
   R19        2.05751  -0.00000   0.00000  -0.00000  -0.00000   2.05751
   R20        2.64231  -0.00000   0.00000  -0.00001  -0.00000   2.64231
   R21        2.05506   0.00000  -0.00000   0.00000  -0.00000   2.05506
   R22        2.64101   0.00000  -0.00001   0.00001   0.00000   2.64101
   R23        2.05637  -0.00000   0.00000  -0.00000  -0.00000   2.05637
   R24        2.64633  -0.00001   0.00001  -0.00002  -0.00001   2.64632
   R25        2.05516   0.00000   0.00000   0.00000   0.00000   2.05516
   R26        2.07429  -0.00000  -0.00000  -0.00000  -0.00000   2.07429
   R27        2.07196  -0.00000  -0.00000   0.00000  -0.00000   2.07196
   R28        2.06881  -0.00000   0.00000  -0.00000   0.00000   2.06881
   R29        2.07206  -0.00000  -0.00000  -0.00000  -0.00000   2.07205
   R30        2.07426  -0.00000  -0.00000  -0.00000  -0.00000   2.07426
   R31        2.06898  -0.00000   0.00000  -0.00000  -0.00000   2.06898
   R32        2.72182  -0.00000  -0.00005   0.00002  -0.00003   2.72179
   R33        2.67431  -0.00000   0.00004  -0.00002   0.00003   2.67433
   R34        2.79042  -0.00001  -0.00000  -0.00002  -0.00002   2.79040
   R35        2.53195  -0.00001   0.00004  -0.00003   0.00001   2.53196
   R36        2.62254   0.00000  -0.00003   0.00001  -0.00002   2.62252
   R37        2.05198  -0.00000  -0.00000   0.00000  -0.00000   2.05198
   R38        2.71304  -0.00000  -0.00006   0.00004  -0.00002   2.71301
   R39        2.53533  -0.00001   0.00004  -0.00003   0.00001   2.53534
   R40        2.66876   0.00000   0.00004  -0.00001   0.00003   2.66880
   R41        2.05301  -0.00000  -0.00000  -0.00000  -0.00001   2.05300
   R42        2.77924   0.00000  -0.00000   0.00001   0.00000   2.77924
   R43        3.16733   0.00002  -0.00004   0.00007   0.00003   3.16735
   R44        3.16664   0.00002  -0.00004   0.00007   0.00003   3.16667
   R45        2.67433  -0.00001  -0.00000  -0.00001  -0.00001   2.67432
   R46        2.67605  -0.00001   0.00002  -0.00002  -0.00001   2.67604
   R47        2.63003   0.00000  -0.00001   0.00001   0.00001   2.63004
   R48        2.04524   0.00000   0.00001  -0.00000   0.00000   2.04525
   R49        2.62807   0.00000  -0.00001   0.00001  -0.00000   2.62806
   R50        2.05178  -0.00000   0.00000  -0.00000  -0.00000   2.05178
   R51        2.64898  -0.00000   0.00000  -0.00001  -0.00001   2.64897
   R52        2.06031  -0.00000  -0.00000   0.00000  -0.00000   2.06031
   R53        2.64914   0.00000   0.00000   0.00000   0.00001   2.64914
   R54        2.05972  -0.00000  -0.00000  -0.00000  -0.00000   2.05972
   R55        2.85803  -0.00000   0.00000  -0.00001  -0.00001   2.85802
   R56        2.07388   0.00000   0.00001  -0.00000   0.00000   2.07388
   R57        2.08039  -0.00000   0.00000  -0.00001  -0.00001   2.08039
   R58        2.90424  -0.00000  -0.00001  -0.00000  -0.00001   2.90423
   R59        2.08689  -0.00000   0.00000  -0.00000  -0.00000   2.08689
   R60        2.07299  -0.00000   0.00000  -0.00000   0.00000   2.07299
   R61        2.78322  -0.00000   0.00001  -0.00000   0.00000   2.78322
   R62        1.92882   0.00000   0.00000   0.00000   0.00001   1.92882
   R63        1.92731   0.00000   0.00000  -0.00000   0.00000   1.92731
    A1        2.13244  -0.00000   0.00000  -0.00001  -0.00001   2.13243
    A2        2.06159   0.00000  -0.00000  -0.00000  -0.00001   2.06159
    A3        2.08913   0.00000   0.00000   0.00001   0.00001   2.08915
    A4        2.03535   0.00001  -0.00001   0.00003   0.00002   2.03537
    A5        2.14296  -0.00001   0.00002  -0.00005  -0.00003   2.14293
    A6        2.10480   0.00000  -0.00001   0.00002   0.00001   2.10481
    A7        2.11435  -0.00000   0.00001  -0.00002  -0.00001   2.11434
    A8        2.08244   0.00001  -0.00005   0.00007   0.00002   2.08245
    A9        2.08581  -0.00000   0.00003  -0.00004  -0.00001   2.08580
   A10        2.11340   0.00000  -0.00001   0.00001   0.00000   2.11340
   A11        2.23987  -0.00000   0.00001  -0.00001  -0.00000   2.23987
   A12        1.92985   0.00000  -0.00001   0.00001   0.00000   1.92985
   A13        2.07595   0.00000  -0.00000   0.00000   0.00000   2.07595
   A14        1.90000  -0.00000   0.00001  -0.00000   0.00000   1.90000
   A15        2.30715  -0.00000  -0.00000  -0.00000  -0.00000   2.30714
   A16        2.09465  -0.00000   0.00001  -0.00001  -0.00000   2.09465
   A17        2.08347   0.00000   0.00001  -0.00000   0.00001   2.08348
   A18        2.10506   0.00000  -0.00002   0.00001  -0.00000   2.10506
   A19        1.76895  -0.00000   0.00001  -0.00001  -0.00000   1.76895
   A20        1.94547   0.00000  -0.00000   0.00000  -0.00000   1.94547
   A21        1.94436   0.00000  -0.00001   0.00001   0.00000   1.94437
   A22        1.94180  -0.00000   0.00000  -0.00001  -0.00000   1.94180
   A23        1.94274   0.00000   0.00000   0.00000   0.00000   1.94274
   A24        1.91697  -0.00000  -0.00000   0.00000   0.00000   1.91697
   A25        2.25047  -0.00000   0.00000  -0.00001  -0.00001   2.25046
   A26        1.92877   0.00000  -0.00001   0.00002   0.00001   1.92878
   A27        2.10394  -0.00000   0.00001  -0.00001   0.00000   2.10394
   A28        2.08578  -0.00000   0.00000  -0.00001  -0.00000   2.08578
   A29        2.10554   0.00000  -0.00001   0.00001   0.00000   2.10554
   A30        2.09186   0.00000   0.00000   0.00000   0.00000   2.09186
   A31        2.09497   0.00000  -0.00001   0.00001   0.00000   2.09497
   A32        2.09343  -0.00000   0.00001  -0.00001  -0.00000   2.09343
   A33        2.09479  -0.00000   0.00000  -0.00001  -0.00000   2.09478
   A34        2.10906  -0.00000   0.00001  -0.00001  -0.00000   2.10905
   A35        2.08799   0.00000  -0.00001   0.00001   0.00001   2.08800
   A36        2.08614  -0.00000  -0.00000  -0.00000  -0.00000   2.08613
   A37        2.08113  -0.00000   0.00000  -0.00000   0.00000   2.08113
   A38        2.09870  -0.00000   0.00000  -0.00001  -0.00001   2.09870
   A39        2.10335   0.00000  -0.00001   0.00001   0.00001   2.10336
   A40        1.89718  -0.00000   0.00001  -0.00001  -0.00001   1.89717
   A41        2.29451   0.00000   0.00001  -0.00000   0.00001   2.29452
   A42        2.09149   0.00000  -0.00002   0.00002  -0.00000   2.09149
   A43        1.93732  -0.00000   0.00001  -0.00001  -0.00001   1.93731
   A44        1.93018   0.00000  -0.00000   0.00001   0.00000   1.93018
   A45        1.93485   0.00000  -0.00000   0.00001   0.00001   1.93485
   A46        1.88522  -0.00000   0.00001  -0.00001  -0.00000   1.88522
   A47        1.88944  -0.00000   0.00000  -0.00000  -0.00000   1.88943
   A48        1.88505  -0.00000  -0.00000   0.00001   0.00000   1.88506
   A49        1.92948   0.00000  -0.00000   0.00000   0.00000   1.92948
   A50        1.93784  -0.00000   0.00001  -0.00001  -0.00001   1.93783
   A51        1.93511   0.00000  -0.00000   0.00001   0.00001   1.93511
   A52        1.88532   0.00000   0.00000  -0.00000  -0.00000   1.88532
   A53        1.88512  -0.00000  -0.00000   0.00000   0.00000   1.88512
   A54        1.88919  -0.00000   0.00000  -0.00000  -0.00000   1.88919
   A55        2.16650   0.00001   0.00001   0.00003   0.00004   2.16654
   A56        2.10743  -0.00001  -0.00003  -0.00001  -0.00003   2.10739
   A57        2.00925  -0.00000   0.00002  -0.00002  -0.00000   2.00925
   A58        2.11129   0.00000  -0.00000   0.00001   0.00001   2.11130
   A59        2.19160  -0.00001   0.00000  -0.00003  -0.00003   2.19157
   A60        1.98010   0.00001  -0.00000   0.00003   0.00002   1.98013
   A61        2.15966   0.00000  -0.00002   0.00002  -0.00001   2.15966
   A62        2.07224  -0.00000  -0.00004   0.00000  -0.00004   2.07220
   A63        2.04970   0.00000   0.00006  -0.00002   0.00004   2.04974
   A64        2.11233   0.00000  -0.00001   0.00002   0.00001   2.11234
   A65        1.98202   0.00001   0.00001   0.00000   0.00002   1.98204
   A66        2.18867  -0.00001  -0.00001  -0.00002  -0.00003   2.18864
   A67        2.15932  -0.00000  -0.00002   0.00001  -0.00001   2.15931
   A68        2.05157   0.00000   0.00006  -0.00002   0.00003   2.05160
   A69        2.07097  -0.00000  -0.00004   0.00001  -0.00003   2.07095
   A70        2.01322  -0.00000   0.00003  -0.00003  -0.00001   2.01321
   A71        2.16237   0.00001  -0.00002   0.00005   0.00003   2.16240
   A72        2.10759  -0.00000  -0.00001  -0.00002  -0.00003   2.10757
   A73        1.86967  -0.00001  -0.00003   0.00000  -0.00003   1.86964
   A74        1.86746  -0.00001  -0.00004   0.00001  -0.00003   1.86743
   A75        1.72552  -0.00000   0.00005  -0.00004   0.00001   1.72553
   A76        2.14847  -0.00001  -0.00000  -0.00003  -0.00003   2.14844
   A77        2.11052   0.00000   0.00001   0.00000   0.00002   2.11053
   A78        2.02409   0.00001  -0.00001   0.00002   0.00001   2.02410
   A79        2.12026  -0.00000   0.00000  -0.00001  -0.00000   2.12025
   A80        2.07055   0.00000  -0.00000   0.00000  -0.00000   2.07055
   A81        2.09237   0.00000   0.00000   0.00000   0.00001   2.09237
   A82        2.13087  -0.00000   0.00001  -0.00002  -0.00001   2.13086
   A83        2.08365   0.00001  -0.00003   0.00006   0.00003   2.08367
   A84        2.06831  -0.00000   0.00002  -0.00004  -0.00002   2.06830
   A85        2.13009  -0.00000   0.00000  -0.00001  -0.00000   2.13009
   A86        2.07372   0.00000   0.00000  -0.00000   0.00000   2.07373
   A87        2.07935   0.00000  -0.00001   0.00001  -0.00000   2.07935
   A88        2.11986   0.00000  -0.00001   0.00001   0.00000   2.11987
   A89        2.08015  -0.00000   0.00001  -0.00002  -0.00001   2.08014
   A90        2.08313   0.00000  -0.00000   0.00001   0.00001   2.08314
   A91        2.04107   0.00000   0.00000  -0.00000   0.00000   2.04107
   A92        2.12188   0.00000  -0.00000   0.00001   0.00000   2.12188
   A93        2.11931  -0.00000   0.00000  -0.00000  -0.00000   2.11931
   A94        1.93658   0.00000   0.00001  -0.00000   0.00000   1.93658
   A95        1.91572  -0.00000  -0.00001  -0.00001  -0.00002   1.91570
   A96        1.97042  -0.00000   0.00000  -0.00001  -0.00000   1.97042
   A97        1.85987   0.00000  -0.00001   0.00001   0.00000   1.85988
   A98        1.88513   0.00000   0.00000   0.00001   0.00001   1.88514
   A99        1.89223   0.00000   0.00000   0.00001   0.00001   1.89224
   A100       1.89624   0.00000  -0.00000   0.00001   0.00001   1.89625
   A101       1.90122   0.00000  -0.00000   0.00001   0.00001   1.90123
   A102       1.93415  -0.00000  -0.00000  -0.00002  -0.00002   1.93413
   A103       1.85876  -0.00000  -0.00000   0.00001   0.00001   1.85877
   A104       1.98819   0.00000   0.00000  -0.00000  -0.00000   1.98819
   A105       1.88224   0.00000   0.00001  -0.00001  -0.00000   1.88224
   A106       1.89779  -0.00000  -0.00003   0.00000  -0.00002   1.89777
   A107       1.90753  -0.00000   0.00000  -0.00001  -0.00001   1.90753
   A108       1.84090   0.00000  -0.00001  -0.00000  -0.00001   1.84089
    D1       -0.02186   0.00000  -0.00002   0.00001  -0.00001  -0.02187
    D2        3.10675  -0.00000  -0.00004  -0.00000  -0.00004   3.10671
    D3        3.11288   0.00000  -0.00003   0.00002  -0.00001   3.11286
    D4       -0.04170  -0.00000  -0.00005   0.00001  -0.00005  -0.04174
    D5        0.00804  -0.00000   0.00001  -0.00002  -0.00001   0.00803
    D6       -3.13240  -0.00000   0.00004  -0.00007  -0.00003  -3.13242
    D7       -3.12659  -0.00000   0.00002  -0.00003  -0.00001  -3.12660
    D8        0.01616  -0.00000   0.00005  -0.00008  -0.00003   0.01613
    D9        0.02126   0.00000   0.00002  -0.00000   0.00001   0.02128
   D10       -3.08340   0.00000   0.00001   0.00004   0.00005  -3.08335
   D11       -3.10765   0.00000   0.00003   0.00001   0.00005  -3.10760
   D12        0.07087   0.00000   0.00003   0.00005   0.00008   0.07095
   D13        0.35028   0.00000   0.00006  -0.00003   0.00003   0.35030
   D14       -2.78888   0.00000   0.00010  -0.00010   0.00000  -2.78888
   D15       -2.80480   0.00000   0.00004  -0.00005  -0.00001  -2.80481
   D16        0.33923  -0.00000   0.00008  -0.00011  -0.00003   0.33920
   D17       -0.00718   0.00000   0.00000  -0.00000   0.00000  -0.00717
   D18       -3.13530   0.00000   0.00000   0.00001   0.00001  -3.13528
   D19        3.09742  -0.00000   0.00000  -0.00004  -0.00004   3.09739
   D20       -0.03070  -0.00000   0.00000  -0.00002  -0.00002  -0.03072
   D21       -0.00754  -0.00000  -0.00001  -0.00001  -0.00002  -0.00756
   D22       -3.13645   0.00000   0.00000   0.00001   0.00001  -3.13643
   D23        3.12277  -0.00000  -0.00001  -0.00002  -0.00003   3.12274
   D24       -0.00614   0.00000   0.00000   0.00000   0.00000  -0.00614
   D25        3.13592  -0.00000   0.00000  -0.00002  -0.00002   3.13590
   D26        1.06866   0.00000  -0.00000  -0.00001  -0.00001   1.06865
   D27       -1.07941  -0.00000   0.00000  -0.00002  -0.00002  -1.07943
   D28        0.00665  -0.00000   0.00000  -0.00001  -0.00001   0.00664
   D29       -2.06061   0.00000  -0.00001   0.00001   0.00000  -2.06061
   D30        2.07450  -0.00000   0.00000  -0.00001  -0.00001   2.07450
   D31        0.00711   0.00000   0.00001   0.00002   0.00002   0.00713
   D32       -3.13566   0.00000  -0.00002   0.00007   0.00004  -3.13562
   D33        3.13250  -0.00000  -0.00001  -0.00001  -0.00002   3.13248
   D34       -0.01027   0.00000  -0.00004   0.00004   0.00000  -0.01027
   D35        0.00283  -0.00000  -0.00000   0.00000   0.00000   0.00284
   D36       -3.13897   0.00000  -0.00001   0.00003   0.00002  -3.13895
   D37       -3.12377   0.00000   0.00001   0.00003   0.00004  -3.12373
   D38        0.01761   0.00000   0.00001   0.00005   0.00005   0.01766
   D39        3.13798   0.00000   0.00001  -0.00001  -0.00000   3.13798
   D40       -0.00488   0.00000  -0.00000   0.00001   0.00001  -0.00487
   D41       -1.07531  -0.00000   0.00001  -0.00002  -0.00001  -1.07531
   D42        2.06502  -0.00000   0.00000   0.00000   0.00000   2.06503
   D43        1.06895  -0.00000   0.00001  -0.00001  -0.00000   1.06895
   D44       -2.07390  -0.00000   0.00000   0.00000   0.00000  -2.07390
   D45        3.08328  -0.00000   0.00002  -0.00004  -0.00002   3.08326
   D46       -1.10770  -0.00000   0.00003  -0.00005  -0.00002  -1.10773
   D47        0.98268  -0.00000   0.00002  -0.00003  -0.00001   0.98266
   D48        1.12273   0.00000   0.00001  -0.00002  -0.00001   1.12272
   D49       -3.06825  -0.00000   0.00002  -0.00004  -0.00002  -3.06827
   D50       -0.97787   0.00000   0.00001  -0.00002  -0.00001  -0.97788
   D51       -1.03627   0.00000   0.00001  -0.00002  -0.00001  -1.03628
   D52        1.05593  -0.00000   0.00002  -0.00004  -0.00002   1.05592
   D53       -3.13687   0.00000   0.00001  -0.00002  -0.00001  -3.13688
   D54        1.10721   0.00000  -0.00001   0.00002   0.00001   1.10722
   D55       -3.08377   0.00000  -0.00001   0.00001   0.00000  -3.08377
   D56       -0.98296   0.00000  -0.00001   0.00001   0.00000  -0.98296
   D57        3.06766   0.00000  -0.00001   0.00001   0.00000   3.06767
   D58       -1.12331  -0.00000  -0.00000   0.00000   0.00000  -1.12331
   D59        0.97749  -0.00000  -0.00000   0.00000  -0.00000   0.97749
   D60       -1.05707   0.00000  -0.00001   0.00001   0.00000  -1.05707
   D61        1.03514  -0.00000   0.00000  -0.00000  -0.00000   1.03513
   D62        3.13594  -0.00000   0.00000  -0.00000  -0.00000   3.13594
   D63        3.14061   0.00000  -0.00001   0.00002   0.00001   3.14062
   D64       -0.00074   0.00000  -0.00001   0.00001   0.00001  -0.00074
   D65        0.00039   0.00000   0.00000   0.00000   0.00000   0.00039
   D66       -3.14096  -0.00000   0.00000  -0.00000  -0.00000  -3.14096
   D67        0.00158  -0.00000   0.00000  -0.00001  -0.00000   0.00157
   D68       -3.13983  -0.00000   0.00001  -0.00003  -0.00002  -3.13985
   D69       -3.14116  -0.00000  -0.00000   0.00001   0.00000  -3.14115
   D70        0.00062  -0.00000   0.00000  -0.00001  -0.00001   0.00061
   D71       -0.00081   0.00000  -0.00000   0.00001   0.00000  -0.00081
   D72        3.14109  -0.00000  -0.00000   0.00000  -0.00000   3.14108
   D73        3.14054   0.00000  -0.00001   0.00001   0.00001   3.14055
   D74       -0.00074   0.00000  -0.00001   0.00001   0.00000  -0.00074
   D75        0.00023  -0.00000   0.00000  -0.00000  -0.00000   0.00022
   D76       -3.14110  -0.00000   0.00000  -0.00001  -0.00001  -3.14111
   D77        3.14151   0.00000   0.00000   0.00000   0.00000   3.14152
   D78        0.00018  -0.00000   0.00000  -0.00000   0.00000   0.00018
   D79        0.00078  -0.00000   0.00000  -0.00001  -0.00001   0.00077
   D80       -3.14091  -0.00000   0.00001  -0.00001  -0.00000  -3.14091
   D81       -3.14107  -0.00000   0.00000  -0.00000  -0.00000  -3.14108
   D82        0.00042  -0.00000   0.00001  -0.00001  -0.00000   0.00042
   D83        3.14063  -0.00000   0.00000  -0.00001  -0.00000   3.14062
   D84       -0.00120   0.00000  -0.00000   0.00002   0.00001  -0.00118
   D85       -0.00087  -0.00000  -0.00000  -0.00000  -0.00001  -0.00088
   D86        3.14049   0.00000  -0.00001   0.00002   0.00001   3.14050
   D87        3.10699  -0.00000   0.00007  -0.00009  -0.00002   3.10697
   D88       -0.01241  -0.00000   0.00011  -0.00015  -0.00004  -0.01245
   D89       -0.03692  -0.00000   0.00003  -0.00003   0.00000  -0.03691
   D90        3.12687  -0.00000   0.00007  -0.00009  -0.00002   3.12685
   D91       -3.10611   0.00000  -0.00007   0.00009   0.00002  -3.10609
   D92        0.09765   0.00000  -0.00006   0.00008   0.00002   0.09767
   D93        0.03771   0.00000  -0.00004   0.00003  -0.00000   0.03771
   D94       -3.04172  -0.00000  -0.00002   0.00002  -0.00000  -3.04172
   D95       -0.00013  -0.00000  -0.00001   0.00000  -0.00000  -0.00013
   D96       -3.12352  -0.00000   0.00002  -0.00006  -0.00003  -3.12355
   D97        3.12179   0.00000  -0.00004   0.00005   0.00001   3.12180
   D98       -0.00160  -0.00000  -0.00001  -0.00000  -0.00002  -0.00162
   D99        3.12279   0.00000  -0.00003   0.00008   0.00006   3.12285
   D100       0.00194   0.00000   0.00001   0.00003   0.00004   0.00198
   D101       0.00083   0.00000   0.00001  -0.00000   0.00001   0.00084
   D102      -3.08457   0.00000   0.00002  -0.00001   0.00001  -3.08456
   D103       3.08101   0.00000  -0.00001   0.00001   0.00000   3.08101
   D104      -0.00439   0.00000  -0.00000   0.00001   0.00001  -0.00438
   D105       0.03757   0.00000  -0.00002   0.00003   0.00001   0.03758
   D106      -3.10762   0.00000  -0.00007   0.00008   0.00001  -3.10761
   D107      -3.12449   0.00000  -0.00005   0.00009   0.00004  -3.12445
   D108       0.01350   0.00000  -0.00010   0.00014   0.00004   0.01354
   D109       0.00038  -0.00000   0.00001  -0.00002  -0.00001   0.00036
   D110      -3.12208  -0.00000   0.00004  -0.00008  -0.00005  -3.12212
   D111      -0.03906  -0.00000   0.00002  -0.00003  -0.00001  -0.03907
   D112       3.10601  -0.00000   0.00007  -0.00008  -0.00001   3.10600
   D113       3.04575  -0.00000   0.00001  -0.00003  -0.00001   3.04574
   D114      -0.09236  -0.00000   0.00006  -0.00008  -0.00001  -0.09238
   D115      -0.39108  -0.00000   0.00007  -0.00010  -0.00002  -0.39110
   D116       2.76763  -0.00000   0.00006  -0.00007  -0.00002   2.76761
   D117       2.74673  -0.00000   0.00002  -0.00004  -0.00002   2.74670
   D118      -0.37775  -0.00000   0.00000  -0.00002  -0.00002  -0.37777
   D119      -0.00155  -0.00000  -0.00001  -0.00004  -0.00004  -0.00159
   D120       0.00066   0.00000  -0.00000   0.00003   0.00003   0.00069
   D121      -3.10839   0.00000   0.00002   0.00000   0.00002  -3.10837
   D122       0.03839  -0.00000   0.00003  -0.00002   0.00002   0.03841
   D123       0.01687   0.00000   0.00003  -0.00002   0.00001   0.01688
   D124      -3.11953  -0.00000   0.00005  -0.00004   0.00001  -3.11952
   D125       3.10855  -0.00000  -0.00001  -0.00001  -0.00002   3.10853
   D126      -0.06210  -0.00000  -0.00001  -0.00003  -0.00004  -0.06214
   D127      -0.01710  -0.00000  -0.00003   0.00001  -0.00002  -0.01711
   D128       3.09544  -0.00000  -0.00002  -0.00001  -0.00004   3.09540
   D129      -0.00715   0.00000  -0.00001   0.00002   0.00000  -0.00715
   D130       3.12846   0.00000  -0.00003   0.00004   0.00002   3.12847
   D131       3.12919   0.00000  -0.00003   0.00004   0.00001   3.12919
   D132      -0.01838   0.00000  -0.00004   0.00006   0.00002  -0.01837
   D133       0.00744   0.00000   0.00001  -0.00000   0.00000   0.00745
   D134       3.13862   0.00000  -0.00000   0.00002   0.00002   3.13864
   D135      -3.10534   0.00000   0.00000   0.00002   0.00002  -3.10531
   D136       0.02584   0.00000  -0.00001   0.00004   0.00004   0.02588
   D137      -0.00333  -0.00000  -0.00001  -0.00001  -0.00002  -0.00334
   D138      -3.09922  -0.00000   0.00001  -0.00004  -0.00003  -3.09926
   D139      -3.13892  -0.00000   0.00000  -0.00003  -0.00003  -3.13895
   D140       0.04837  -0.00000   0.00002  -0.00006  -0.00004   0.04832
   D141       0.00320   0.00000   0.00001   0.00000   0.00001   0.00321
   D142       3.09916   0.00000  -0.00001   0.00003   0.00003   3.09919
   D143      -3.12796  -0.00000   0.00002  -0.00002  -0.00000  -3.12797
   D144      -0.03200   0.00000   0.00000   0.00001   0.00001  -0.03198
   D145      -2.61771   0.00000   0.00026   0.00022   0.00048  -2.61723
   D146      -0.56669   0.00000   0.00025   0.00022   0.00047  -0.56622
   D147       1.54646   0.00000   0.00025   0.00022   0.00047   1.54693
   D148       0.57163   0.00000   0.00027   0.00019   0.00046   0.57209
   D149       2.62265   0.00000   0.00026   0.00019   0.00045   2.62310
   D150      -1.54739   0.00000   0.00026   0.00019   0.00045  -1.54694
   D151      -0.95854  -0.00000  -0.00003  -0.00001  -0.00004  -0.95858
   D152       1.05965   0.00000  -0.00003   0.00002  -0.00002   1.05963
   D153       3.12770   0.00000  -0.00003   0.00000  -0.00003   3.12767
   D154      -3.10643  -0.00000  -0.00004  -0.00001  -0.00005  -3.10648
   D155      -1.08824   0.00000  -0.00005   0.00002  -0.00003  -1.08826
   D156       0.97981   0.00000  -0.00004   0.00000  -0.00004   0.97977
   D157       1.16789  -0.00000  -0.00003  -0.00003  -0.00006   1.16783
   D158      -3.09710  -0.00000  -0.00004  -0.00000  -0.00004  -3.09714
   D159      -1.02905  -0.00000  -0.00004  -0.00001  -0.00005  -1.02910
   D160       1.12692  -0.00000  -0.00043   0.00008  -0.00035   1.12657
   D161       3.12814  -0.00000  -0.00045   0.00008  -0.00038   3.12777
   D162      -1.01765  -0.00000  -0.00043   0.00009  -0.00034  -1.01799
   D163       0.98358  -0.00000  -0.00045   0.00008  -0.00037   0.98321
   D164      -3.07675  -0.00000  -0.00044   0.00008  -0.00035  -3.07710
   D165      -1.07552  -0.00000  -0.00046   0.00007  -0.00038  -1.07591
         Item               Value     Threshold  Converged?
 Maximum Force            0.000017     0.000450     YES
 RMS     Force            0.000003     0.000300     YES
 Maximum Displacement     0.001324     0.001800     YES
 RMS     Displacement     0.000191     0.001200     YES
 Predicted change in Energy=-9.697135D-09
 Optimization completed.
    -- Stationary point found.
                           ----------------------------
                           !   Optimized Parameters   !
                           ! (Angstroms and Degrees)  !
 --------------------------                            --------------------------
 ! Name  Definition              Value          Derivative Info.                !
 --------------------------------------------------------------------------------
 ! R1    R(1,2)                  1.4226         -DE/DX =    0.0                 !
 ! R2    R(1,6)                  1.3897         -DE/DX =    0.0                 !
 ! R3    R(1,7)                  1.0819         -DE/DX =    0.0                 !
 ! R4    R(2,3)                  1.4243         -DE/DX =    0.0                 !
 ! R5    R(2,29)                 1.4644         -DE/DX =    0.0                 !
 ! R6    R(3,4)                  1.3825         -DE/DX =    0.0                 !
 ! R7    R(3,8)                  1.0861         -DE/DX =    0.0                 !
 ! R8    R(4,5)                  1.4109         -DE/DX =    0.0                 !
 ! R9    R(4,10)                 1.5316         -DE/DX =    0.0                 !
 ! R10   R(5,6)                  1.4001         -DE/DX =    0.0                 !
 ! R11   R(5,16)                 1.4587         -DE/DX =    0.0                 !
 ! R12   R(6,9)                  1.0889         -DE/DX =    0.0                 !
 ! R13   R(10,11)                1.5303         -DE/DX =    0.0                 !
 ! R14   R(10,21)                1.5445         -DE/DX =    0.0                 !
 ! R15   R(10,25)                1.5444         -DE/DX =    0.0                 !
 ! R16   R(11,12)                1.3877         -DE/DX =    0.0                 !
 ! R17   R(11,16)                1.4154         -DE/DX =    0.0                 !
 ! R18   R(12,13)                1.4039         -DE/DX =    0.0                 !
 ! R19   R(12,17)                1.0888         -DE/DX =    0.0                 !
 ! R20   R(13,14)                1.3983         -DE/DX =    0.0                 !
 ! R21   R(13,18)                1.0875         -DE/DX =    0.0                 !
 ! R22   R(14,15)                1.3976         -DE/DX =    0.0                 !
 ! R23   R(14,19)                1.0882         -DE/DX =    0.0                 !
 ! R24   R(15,16)                1.4004         -DE/DX =    0.0                 !
 ! R25   R(15,20)                1.0875         -DE/DX =    0.0                 !
 ! R26   R(21,22)                1.0977         -DE/DX =    0.0                 !
 ! R27   R(21,23)                1.0964         -DE/DX =    0.0                 !
 ! R28   R(21,24)                1.0948         -DE/DX =    0.0                 !
 ! R29   R(25,26)                1.0965         -DE/DX =    0.0                 !
 ! R30   R(25,27)                1.0977         -DE/DX =    0.0                 !
 ! R31   R(25,28)                1.0949         -DE/DX =    0.0                 !
 ! R32   R(29,30)                1.4403         -DE/DX =    0.0                 !
 ! R33   R(29,31)                1.4152         -DE/DX =    0.0                 !
 ! R34   R(30,32)                1.4766         -DE/DX =    0.0                 !
 ! R35   R(30,37)                1.3399         -DE/DX =    0.0                 !
 ! R36   R(31,33)                1.3878         -DE/DX =    0.0                 !
 ! R37   R(31,34)                1.0859         -DE/DX =    0.0                 !
 ! R38   R(32,35)                1.4357         -DE/DX =    0.0                 !
 ! R39   R(32,38)                1.3416         -DE/DX =    0.0                 !
 ! R40   R(33,35)                1.4122         -DE/DX =    0.0                 !
 ! R41   R(33,36)                1.0864         -DE/DX =    0.0                 !
 ! R42   R(35,40)                1.4707         -DE/DX =    0.0                 !
 ! R43   R(37,39)                1.6761         -DE/DX =    0.0                 !
 ! R44   R(38,39)                1.6757         -DE/DX =    0.0                 !
 ! R45   R(40,41)                1.4152         -DE/DX =    0.0                 !
 ! R46   R(40,42)                1.4161         -DE/DX =    0.0                 !
 ! R47   R(41,43)                1.3918         -DE/DX =    0.0                 !
 ! R48   R(41,44)                1.0823         -DE/DX =    0.0                 !
 ! R49   R(42,45)                1.3907         -DE/DX =    0.0                 !
 ! R50   R(42,46)                1.0858         -DE/DX =    0.0                 !
 ! R51   R(43,47)                1.4018         -DE/DX =    0.0                 !
 ! R52   R(43,48)                1.0903         -DE/DX =    0.0                 !
 ! R53   R(45,47)                1.4019         -DE/DX =    0.0                 !
 ! R54   R(45,49)                1.09           -DE/DX =    0.0                 !
 ! R55   R(47,50)                1.5124         -DE/DX =    0.0                 !
 ! R56   R(50,51)                1.0974         -DE/DX =    0.0                 !
 ! R57   R(50,52)                1.1009         -DE/DX =    0.0                 !
 ! R58   R(50,53)                1.5369         -DE/DX =    0.0                 !
 ! R59   R(53,54)                1.1043         -DE/DX =    0.0                 !
 ! R60   R(53,55)                1.097          -DE/DX =    0.0                 !
 ! R61   R(53,56)                1.4728         -DE/DX =    0.0                 !
 ! R62   R(56,57)                1.0207         -DE/DX =    0.0                 !
 ! R63   R(56,58)                1.0199         -DE/DX =    0.0                 !
 ! A1    A(2,1,6)              122.1798         -DE/DX =    0.0                 !
 ! A2    A(2,1,7)              118.1206         -DE/DX =    0.0                 !
 ! A3    A(6,1,7)              119.6985         -DE/DX =    0.0                 !
 ! A4    A(1,2,3)              116.617          -DE/DX =    0.0                 !
 ! A5    A(1,2,29)             122.7824         -DE/DX =    0.0                 !
 ! A6    A(3,2,29)             120.5963         -DE/DX =    0.0                 !
 ! A7    A(2,3,4)              121.1435         -DE/DX =    0.0                 !
 ! A8    A(2,3,8)              119.3148         -DE/DX =    0.0                 !
 ! A9    A(4,3,8)              119.5082         -DE/DX =    0.0                 !
 ! A10   A(3,4,5)              121.0888         -DE/DX =    0.0                 !
 ! A11   A(3,4,10)             128.3351         -DE/DX =    0.0                 !
 ! A12   A(5,4,10)             110.5723         -DE/DX =    0.0                 !
 ! A13   A(4,5,6)              118.9431         -DE/DX =    0.0                 !
 ! A14   A(4,5,16)             108.8618         -DE/DX =    0.0                 !
 ! A15   A(6,5,16)             132.1899         -DE/DX =    0.0                 !
 ! A16   A(1,6,5)              120.0145         -DE/DX =    0.0                 !
 ! A17   A(1,6,9)              119.3743         -DE/DX =    0.0                 !
 ! A18   A(5,6,9)              120.6112         -DE/DX =    0.0                 !
 ! A19   A(4,10,11)            101.3534         -DE/DX =    0.0                 !
 ! A20   A(4,10,21)            111.4675         -DE/DX =    0.0                 !
 ! A21   A(4,10,25)            111.4038         -DE/DX =    0.0                 !
 ! A22   A(11,10,21)           111.257          -DE/DX =    0.0                 !
 ! A23   A(11,10,25)           111.3108         -DE/DX =    0.0                 !
 ! A24   A(21,10,25)           109.834          -DE/DX =    0.0                 !
 ! A25   A(10,11,12)           128.9426         -DE/DX =    0.0                 !
 ! A26   A(10,11,16)           110.5105         -DE/DX =    0.0                 !
 ! A27   A(12,11,16)           120.5468         -DE/DX =    0.0                 !
 ! A28   A(11,12,13)           119.5067         -DE/DX =    0.0                 !
 ! A29   A(11,12,17)           120.6385         -DE/DX =    0.0                 !
 ! A30   A(13,12,17)           119.8549         -DE/DX =    0.0                 !
 ! A31   A(12,13,14)           120.033          -DE/DX =    0.0                 !
 ! A32   A(12,13,18)           119.9447         -DE/DX =    0.0                 !
 ! A33   A(14,13,18)           120.0224         -DE/DX =    0.0                 !
 ! A34   A(13,14,15)           120.84           -DE/DX =    0.0                 !
 ! A35   A(13,14,19)           119.6332         -DE/DX =    0.0                 !
 ! A36   A(15,14,19)           119.5268         -DE/DX =    0.0                 !
 ! A37   A(14,15,16)           119.24           -DE/DX =    0.0                 !
 ! A38   A(14,15,20)           120.2468         -DE/DX =    0.0                 !
 ! A39   A(16,15,20)           120.5132         -DE/DX =    0.0                 !
 ! A40   A(5,16,11)            108.7005         -DE/DX =    0.0                 !
 ! A41   A(5,16,15)            131.4659         -DE/DX =    0.0                 !
 ! A42   A(11,16,15)           119.8336         -DE/DX =    0.0                 !
 ! A43   A(10,21,22)           111.0001         -DE/DX =    0.0                 !
 ! A44   A(10,21,23)           110.5912         -DE/DX =    0.0                 !
 ! A45   A(10,21,24)           110.8586         -DE/DX =    0.0                 !
 ! A46   A(22,21,23)           108.0154         -DE/DX =    0.0                 !
 ! A47   A(22,21,24)           108.2567         -DE/DX =    0.0                 !
 ! A48   A(23,21,24)           108.0055         -DE/DX =    0.0                 !
 ! A49   A(10,25,26)           110.5513         -DE/DX =    0.0                 !
 ! A50   A(10,25,27)           111.0298         -DE/DX =    0.0                 !
 ! A51   A(10,25,28)           110.8736         -DE/DX =    0.0                 !
 ! A52   A(26,25,27)           108.0209         -DE/DX =    0.0                 !
 ! A53   A(26,25,28)           108.0092         -DE/DX =    0.0                 !
 ! A54   A(27,25,28)           108.2424         -DE/DX =    0.0                 !
 ! A55   A(2,29,30)            124.1314         -DE/DX =    0.0                 !
 ! A56   A(2,29,31)            120.7467         -DE/DX =    0.0                 !
 ! A57   A(30,29,31)           115.1217         -DE/DX =    0.0                 !
 ! A58   A(29,30,32)           120.9682         -DE/DX =    0.0                 !
 ! A59   A(29,30,37)           125.5695         -DE/DX =    0.0                 !
 ! A60   A(32,30,37)           113.4516         -DE/DX =    0.0                 !
 ! A61   A(29,31,33)           123.7394         -DE/DX =    0.0                 !
 ! A62   A(29,31,34)           118.7305         -DE/DX =    0.0                 !
 ! A63   A(33,31,34)           117.4391         -DE/DX =    0.0                 !
 ! A64   A(30,32,35)           121.0277         -DE/DX =    0.0                 !
 ! A65   A(30,32,38)           113.5616         -DE/DX =    0.0                 !
 ! A66   A(35,32,38)           125.4015         -DE/DX =    0.0                 !
 ! A67   A(31,33,35)           123.7198         -DE/DX =    0.0                 !
 ! A68   A(31,33,36)           117.5461         -DE/DX =    0.0                 !
 ! A69   A(35,33,36)           118.658          -DE/DX =    0.0                 !
 ! A70   A(32,35,33)           115.349          -DE/DX =    0.0                 !
 ! A71   A(32,35,40)           123.8945         -DE/DX =    0.0                 !
 ! A72   A(33,35,40)           120.7561         -DE/DX =    0.0                 !
 ! A73   A(30,37,39)           107.1242         -DE/DX =    0.0                 !
 ! A74   A(32,38,39)           106.9975         -DE/DX =    0.0                 !
 ! A75   A(37,39,38)            98.8649         -DE/DX =    0.0                 !
 ! A76   A(35,40,41)           123.0981         -DE/DX =    0.0                 !
 ! A77   A(35,40,42)           120.9236         -DE/DX =    0.0                 !
 ! A78   A(41,40,42)           115.9716         -DE/DX =    0.0                 !
 ! A79   A(40,41,43)           121.4817         -DE/DX =    0.0                 !
 ! A80   A(40,41,44)           118.6338         -DE/DX =    0.0                 !
 ! A81   A(43,41,44)           119.8838         -DE/DX =    0.0                 !
 ! A82   A(40,42,45)           122.0898         -DE/DX =    0.0                 !
 ! A83   A(40,42,46)           119.3843         -DE/DX =    0.0                 !
 ! A84   A(45,42,46)           118.5056         -DE/DX =    0.0                 !
 ! A85   A(41,43,47)           122.0454         -DE/DX =    0.0                 !
 ! A86   A(41,43,48)           118.8155         -DE/DX =    0.0                 !
 ! A87   A(47,43,48)           119.1382         -DE/DX =    0.0                 !
 ! A88   A(42,45,47)           121.4593         -DE/DX =    0.0                 !
 ! A89   A(42,45,49)           119.1837         -DE/DX =    0.0                 !
 ! A90   A(47,45,49)           119.3544         -DE/DX =    0.0                 !
 ! A91   A(43,47,45)           116.9445         -DE/DX =    0.0                 !
 ! A92   A(43,47,50)           121.5748         -DE/DX =    0.0                 !
 ! A93   A(45,47,50)           121.4275         -DE/DX =    0.0                 !
 ! A94   A(47,50,51)           110.9576         -DE/DX =    0.0                 !
 ! A95   A(47,50,52)           109.7624         -DE/DX =    0.0                 !
 ! A96   A(47,50,53)           112.8969         -DE/DX =    0.0                 !
 ! A97   A(51,50,52)           106.5629         -DE/DX =    0.0                 !
 ! A98   A(51,50,53)           108.0098         -DE/DX =    0.0                 !
 ! A99   A(52,50,53)           108.4166         -DE/DX =    0.0                 !
 ! A100  A(50,53,54)           108.6466         -DE/DX =    0.0                 !
 ! A101  A(50,53,55)           108.9321         -DE/DX =    0.0                 !
 ! A102  A(50,53,56)           110.8187         -DE/DX =    0.0                 !
 ! A103  A(54,53,55)           106.499          -DE/DX =    0.0                 !
 ! A104  A(54,53,56)           113.9148         -DE/DX =    0.0                 !
 ! A105  A(55,53,56)           107.8446         -DE/DX =    0.0                 !
 ! A106  A(53,56,57)           108.7353         -DE/DX =    0.0                 !
 ! A107  A(53,56,58)           109.2937         -DE/DX =    0.0                 !
 ! A108  A(57,56,58)           105.4756         -DE/DX =    0.0                 !
 ! D1    D(6,1,2,3)             -1.2524         -DE/DX =    0.0                 !
 ! D2    D(6,1,2,29)           178.0039         -DE/DX =    0.0                 !
 ! D3    D(7,1,2,3)            178.3546         -DE/DX =    0.0                 !
 ! D4    D(7,1,2,29)            -2.3891         -DE/DX =    0.0                 !
 ! D5    D(2,1,6,5)              0.4605         -DE/DX =    0.0                 !
 ! D6    D(2,1,6,9)           -179.473          -DE/DX =    0.0                 !
 ! D7    D(7,1,6,5)           -179.1405         -DE/DX =    0.0                 !
 ! D8    D(7,1,6,9)              0.9259         -DE/DX =    0.0                 !
 ! D9    D(1,2,3,4)              1.2184         -DE/DX =    0.0                 !
 ! D10   D(1,2,3,8)           -176.666          -DE/DX =    0.0                 !
 ! D11   D(29,2,3,4)          -178.0553         -DE/DX =    0.0                 !
 ! D12   D(29,2,3,8)             4.0604         -DE/DX =    0.0                 !
 ! D13   D(1,2,29,30)           20.0693         -DE/DX =    0.0                 !
 ! D14   D(1,2,29,31)         -159.7911         -DE/DX =    0.0                 !
 ! D15   D(3,2,29,30)         -160.7031         -DE/DX =    0.0                 !
 ! D16   D(3,2,29,31)           19.4364         -DE/DX =    0.0                 !
 ! D17   D(2,3,4,5)             -0.4112         -DE/DX =    0.0                 !
 ! D18   D(2,3,4,10)          -179.6393         -DE/DX =    0.0                 !
 ! D19   D(8,3,4,5)            177.4691         -DE/DX =    0.0                 !
 ! D20   D(8,3,4,10)            -1.759          -DE/DX =    0.0                 !
 ! D21   D(3,4,5,6)             -0.4319         -DE/DX =    0.0                 !
 ! D22   D(3,4,5,16)          -179.7051         -DE/DX =    0.0                 !
 ! D23   D(10,4,5,6)           178.9214         -DE/DX =    0.0                 !
 ! D24   D(10,4,5,16)           -0.3518         -DE/DX =    0.0                 !
 ! D25   D(3,4,10,11)          179.6748         -DE/DX =    0.0                 !
 ! D26   D(3,4,10,21)           61.2297         -DE/DX =    0.0                 !
 ! D27   D(3,4,10,25)          -61.8457         -DE/DX =    0.0                 !
 ! D28   D(5,4,10,11)            0.3809         -DE/DX =    0.0                 !
 ! D29   D(5,4,10,21)         -118.0642         -DE/DX =    0.0                 !
 ! D30   D(5,4,10,25)          118.8603         -DE/DX =    0.0                 !
 ! D31   D(4,5,6,1)              0.4072         -DE/DX =    0.0                 !
 ! D32   D(4,5,6,9)           -179.6601         -DE/DX =    0.0                 !
 ! D33   D(16,5,6,1)           179.4789         -DE/DX =    0.0                 !
 ! D34   D(16,5,6,9)            -0.5884         -DE/DX =    0.0                 !
 ! D35   D(4,5,16,11)            0.1624         -DE/DX =    0.0                 !
 ! D36   D(4,5,16,15)         -179.8496         -DE/DX =    0.0                 !
 ! D37   D(6,5,16,11)         -178.9791         -DE/DX =    0.0                 !
 ! D38   D(6,5,16,15)            1.0089         -DE/DX =    0.0                 !
 ! D39   D(4,10,11,12)         179.793          -DE/DX =    0.0                 !
 ! D40   D(4,10,11,16)          -0.2794         -DE/DX =    0.0                 !
 ! D41   D(21,10,11,12)        -61.6105         -DE/DX =    0.0                 !
 ! D42   D(21,10,11,16)        118.3172         -DE/DX =    0.0                 !
 ! D43   D(25,10,11,12)         61.2465         -DE/DX =    0.0                 !
 ! D44   D(25,10,11,16)       -118.8258         -DE/DX =    0.0                 !
 ! D45   D(4,10,21,22)         176.6588         -DE/DX =    0.0                 !
 ! D46   D(4,10,21,23)         -63.4666         -DE/DX =    0.0                 !
 ! D47   D(4,10,21,24)          56.3033         -DE/DX =    0.0                 !
 ! D48   D(11,10,21,22)         64.3275         -DE/DX =    0.0                 !
 ! D49   D(11,10,21,23)       -175.798          -DE/DX =    0.0                 !
 ! D50   D(11,10,21,24)        -56.0281         -DE/DX =    0.0                 !
 ! D51   D(25,10,21,22)        -59.3741         -DE/DX =    0.0                 !
 ! D52   D(25,10,21,23)         60.5005         -DE/DX =    0.0                 !
 ! D53   D(25,10,21,24)       -179.7296         -DE/DX =    0.0                 !
 ! D54   D(4,10,25,26)          63.4385         -DE/DX =    0.0                 !
 ! D55   D(4,10,25,27)        -176.6869         -DE/DX =    0.0                 !
 ! D56   D(4,10,25,28)         -56.3197         -DE/DX =    0.0                 !
 ! D57   D(11,10,25,26)        175.7642         -DE/DX =    0.0                 !
 ! D58   D(11,10,25,27)        -64.3612         -DE/DX =    0.0                 !
 ! D59   D(11,10,25,28)         56.006          -DE/DX =    0.0                 !
 ! D60   D(21,10,25,26)        -60.5657         -DE/DX =    0.0                 !
 ! D61   D(21,10,25,27)         59.3089         -DE/DX =    0.0                 !
 ! D62   D(21,10,25,28)        179.6761         -DE/DX =    0.0                 !
 ! D63   D(10,11,12,13)        179.9437         -DE/DX =    0.0                 !
 ! D64   D(10,11,12,17)         -0.0426         -DE/DX =    0.0                 !
 ! D65   D(16,11,12,13)          0.0224         -DE/DX =    0.0                 !
 ! D66   D(16,11,12,17)       -179.964          -DE/DX =    0.0                 !
 ! D67   D(10,11,16,5)           0.0904         -DE/DX =    0.0                 !
 ! D68   D(10,11,16,15)       -179.8992         -DE/DX =    0.0                 !
 ! D69   D(12,11,16,5)        -179.9749         -DE/DX =    0.0                 !
 ! D70   D(12,11,16,15)          0.0354         -DE/DX =    0.0                 !
 ! D71   D(11,12,13,14)         -0.0466         -DE/DX =    0.0                 !
 ! D72   D(11,12,13,18)        179.971          -DE/DX =    0.0                 !
 ! D73   D(17,12,13,14)        179.9399         -DE/DX =    0.0                 !
 ! D74   D(17,12,13,18)         -0.0426         -DE/DX =    0.0                 !
 ! D75   D(12,13,14,15)          0.013          -DE/DX =    0.0                 !
 ! D76   D(12,13,14,19)       -179.972          -DE/DX =    0.0                 !
 ! D77   D(18,13,14,15)        179.9954         -DE/DX =    0.0                 !
 ! D78   D(18,13,14,19)          0.0105         -DE/DX =    0.0                 !
 ! D79   D(13,14,15,16)          0.0447         -DE/DX =    0.0                 !
 ! D80   D(13,14,15,20)       -179.9606         -DE/DX =    0.0                 !
 ! D81   D(19,14,15,16)       -179.9703         -DE/DX =    0.0                 !
 ! D82   D(19,14,15,20)          0.0243         -DE/DX =    0.0                 !
 ! D83   D(14,15,16,5)         179.9446         -DE/DX =    0.0                 !
 ! D84   D(14,15,16,11)         -0.0685         -DE/DX =    0.0                 !
 ! D85   D(20,15,16,5)          -0.05           -DE/DX =    0.0                 !
 ! D86   D(20,15,16,11)        179.9369         -DE/DX =    0.0                 !
 ! D87   D(2,29,30,32)         178.0173         -DE/DX =    0.0                 !
 ! D88   D(2,29,30,37)          -0.711          -DE/DX =    0.0                 !
 ! D89   D(31,29,30,32)         -2.1151         -DE/DX =    0.0                 !
 ! D90   D(31,29,30,37)        179.1565         -DE/DX =    0.0                 !
 ! D91   D(2,29,31,33)        -177.9667         -DE/DX =    0.0                 !
 ! D92   D(2,29,31,34)           5.5947         -DE/DX =    0.0                 !
 ! D93   D(30,29,31,33)          2.1608         -DE/DX =    0.0                 !
 ! D94   D(30,29,31,34)       -174.2777         -DE/DX =    0.0                 !
 ! D95   D(29,30,32,35)         -0.0073         -DE/DX =    0.0                 !
 ! D96   D(29,30,32,38)       -178.9643         -DE/DX =    0.0                 !
 ! D97   D(37,30,32,35)        178.8652         -DE/DX =    0.0                 !
 ! D98   D(37,30,32,38)         -0.0918         -DE/DX =    0.0                 !
 ! D99   D(29,30,37,39)        178.9227         -DE/DX =    0.0                 !
 ! D100  D(32,30,37,39)          0.1112         -DE/DX =    0.0                 !
 ! D101  D(29,31,33,35)          0.0476         -DE/DX =    0.0                 !
 ! D102  D(29,31,33,36)       -176.7326         -DE/DX =    0.0                 !
 ! D103  D(34,31,33,35)        176.5288         -DE/DX =    0.0                 !
 ! D104  D(34,31,33,36)         -0.2514         -DE/DX =    0.0                 !
 ! D105  D(30,32,35,33)          2.1527         -DE/DX =    0.0                 !
 ! D106  D(30,32,35,40)       -178.0535         -DE/DX =    0.0                 !
 ! D107  D(38,32,35,33)       -179.0203         -DE/DX =    0.0                 !
 ! D108  D(38,32,35,40)          0.7735         -DE/DX =    0.0                 !
 ! D109  D(30,32,38,39)          0.0217         -DE/DX =    0.0                 !
 ! D110  D(35,32,38,39)       -178.8818         -DE/DX =    0.0                 !
 ! D111  D(31,33,35,32)         -2.2379         -DE/DX =    0.0                 !
 ! D112  D(31,33,35,40)        177.9612         -DE/DX =    0.0                 !
 ! D113  D(36,33,35,32)        174.5087         -DE/DX =    0.0                 !
 ! D114  D(36,33,35,40)         -5.2921         -DE/DX =    0.0                 !
 ! D115  D(32,35,40,41)        -22.4072         -DE/DX =    0.0                 !
 ! D116  D(32,35,40,42)        158.5733         -DE/DX =    0.0                 !
 ! D117  D(33,35,40,41)        157.376          -DE/DX =    0.0                 !
 ! D118  D(33,35,40,42)        -21.6435         -DE/DX =    0.0                 !
 ! D119  D(30,37,39,38)         -0.0887         -DE/DX =    0.0                 !
 ! D120  D(32,38,39,37)          0.0375         -DE/DX =    0.0                 !
 ! D121  D(35,40,41,43)       -178.0976         -DE/DX =    0.0                 !
 ! D122  D(35,40,41,44)          2.1996         -DE/DX =    0.0                 !
 ! D123  D(42,40,41,43)          0.9668         -DE/DX =    0.0                 !
 ! D124  D(42,40,41,44)       -178.736          -DE/DX =    0.0                 !
 ! D125  D(35,40,42,45)        178.1068         -DE/DX =    0.0                 !
 ! D126  D(35,40,42,46)         -3.5581         -DE/DX =    0.0                 !
 ! D127  D(41,40,42,45)         -0.9795         -DE/DX =    0.0                 !
 ! D128  D(41,40,42,46)        177.3556         -DE/DX =    0.0                 !
 ! D129  D(40,41,43,47)         -0.4099         -DE/DX =    0.0                 !
 ! D130  D(40,41,43,48)        179.2475         -DE/DX =    0.0                 !
 ! D131  D(44,41,43,47)        179.2892         -DE/DX =    0.0                 !
 ! D132  D(44,41,43,48)         -1.0534         -DE/DX =    0.0                 !
 ! D133  D(40,42,45,47)          0.4265         -DE/DX =    0.0                 !
 ! D134  D(40,42,45,49)        179.8297         -DE/DX =    0.0                 !
 ! D135  D(46,42,45,47)       -177.9227         -DE/DX =    0.0                 !
 ! D136  D(46,42,45,49)          1.4805         -DE/DX =    0.0                 !
 ! D137  D(41,43,47,45)         -0.1906         -DE/DX =    0.0                 !
 ! D138  D(41,43,47,50)       -177.5724         -DE/DX =    0.0                 !
 ! D139  D(48,43,47,45)       -179.8469         -DE/DX =    0.0                 !
 ! D140  D(48,43,47,50)          2.7713         -DE/DX =    0.0                 !
 ! D141  D(42,45,47,43)          0.1831         -DE/DX =    0.0                 !
 ! D142  D(42,45,47,50)        177.569          -DE/DX =    0.0                 !
 ! D143  D(49,45,47,43)       -179.2192         -DE/DX =    0.0                 !
 ! D144  D(49,45,47,50)         -1.8332         -DE/DX =    0.0                 !
 ! D145  D(43,47,50,51)       -149.9835         -DE/DX =    0.0                 !
 ! D146  D(43,47,50,52)        -32.4688         -DE/DX =    0.0                 !
 ! D147  D(43,47,50,53)         88.6057         -DE/DX =    0.0                 !
 ! D148  D(45,47,50,51)         32.7518         -DE/DX =    0.0                 !
 ! D149  D(45,47,50,52)        150.2665         -DE/DX =    0.0                 !
 ! D150  D(45,47,50,53)        -88.6589         -DE/DX =    0.0                 !
 ! D151  D(47,50,53,54)        -54.9205         -DE/DX =    0.0                 !
 ! D152  D(47,50,53,55)         60.7133         -DE/DX =    0.0                 !
 ! D153  D(47,50,53,56)        179.2038         -DE/DX =    0.0                 !
 ! D154  D(51,50,53,54)       -177.9852         -DE/DX =    0.0                 !
 ! D155  D(51,50,53,55)        -62.3514         -DE/DX =    0.0                 !
 ! D156  D(51,50,53,56)         56.1391         -DE/DX =    0.0                 !
 ! D157  D(52,50,53,54)         66.9154         -DE/DX =    0.0                 !
 ! D158  D(52,50,53,55)       -177.4508         -DE/DX =    0.0                 !
 ! D159  D(52,50,53,56)        -58.9603         -DE/DX =    0.0                 !
 ! D160  D(50,53,56,57)         64.5679         -DE/DX =    0.0                 !
 ! D161  D(50,53,56,58)        179.2294         -DE/DX =    0.0                 !
 ! D162  D(54,53,56,57)        -58.3068         -DE/DX =    0.0                 !
 ! D163  D(54,53,56,58)         56.3547         -DE/DX =    0.0                 !
 ! D164  D(55,53,56,57)       -176.2845         -DE/DX =    0.0                 !
 ! D165  D(55,53,56,58)        -61.623          -DE/DX =    0.0                 !
 --------------------------------------------------------------------------------
 Lowest energy point so far.  Saving SCF results.
 Largest change from initial coordinates is atom   22       0.369 Angstoms.
 GradGradGradGradGradGradGradGradGradGradGradGradGradGradGradGradGradGrad

 Leave Link  103 at Thu Mar 14 10:14:04 2024, MaxMem= 32212254720 cpu:               2.6 elap:               0.1
 (Enter /home/<user>/g16/l202.exe)
 Stoichiometry    C29H25N3S(1-,2)
 Framework group  C1[X(C29H25N3S)]
 Deg. of freedom   168
 Full point group                 C1      NOp   1
 RotChk:  IX=0 Diff= 1.14D-15
 Largest Abelian subgroup         C1      NOp   1
 Largest concise Abelian subgroup C1      NOp   1
                         Standard orientation:                         
 ---------------------------------------------------------------------
 Center     Atomic      Atomic             Coordinates (Angstroms)
 Number     Number       Type             X           Y           Z
 ---------------------------------------------------------------------
      1          6           0       -2.487569    1.675698   -0.287557
      2          6           0       -1.790578    0.440949   -0.171452
      3          6           0       -2.586621   -0.727280    0.002399
      4          6           0       -3.966959   -0.654482    0.029083
      5          6           0       -4.634099    0.581322   -0.106479
      6          6           0       -3.875126    1.747673   -0.261012
      7          1           0       -1.905774    2.581689   -0.393202
      8          1           0       -2.098529   -1.686176    0.150420
      9          1           0       -4.361725    2.716461   -0.362379
     10          6           0       -4.974979   -1.793027    0.212239
     11          6           0       -6.301911   -1.033209    0.151746
     12          6           0       -7.594951   -1.526566    0.253611
     13          6           0       -8.681319   -0.641232    0.170981
     14          6           0       -8.456934    0.726761   -0.011659
     15          6           0       -7.158068    1.232276   -0.114542
     16          6           0       -6.072690    0.351099   -0.033659
     17          1           0       -7.772984   -2.591110    0.396835
     18          1           0       -9.697614   -1.020210    0.249425
     19          1           0       -9.303784    1.407244   -0.074361
     20          1           0       -6.994643    2.298143   -0.255862
     21          6           0       -4.793291   -2.494891    1.575962
     22          1           0       -5.556448   -3.269783    1.724331
     23          1           0       -3.808437   -2.973116    1.635343
     24          1           0       -4.870395   -1.775770    2.397812
     25          6           0       -4.868770   -2.828753   -0.928417
     26          1           0       -3.884750   -3.312376   -0.918812
     27          1           0       -5.632288   -3.610290   -0.823177
     28          1           0       -5.000952   -2.349624   -1.903957
     29          6           0       -0.330929    0.344847   -0.240322
     30          6           0        0.563328    1.451349   -0.015617
     31          6           0        0.299593   -0.884872   -0.545238
     32          6           0        2.027603    1.266026   -0.060109
     33          6           0        1.676189   -1.055804   -0.586735
     34          1           0       -0.318617   -1.734979   -0.817696
     35          6           0        2.602731   -0.021783   -0.328337
     36          1           0        2.052709   -2.030251   -0.885007
     37          7           0        0.193199    2.706998    0.269956
     38          7           0        2.718129    2.388470    0.191451
     39         16           0        1.596302    3.602247    0.467604
     40          6           0        4.049354   -0.286234   -0.346745
     41          6           0        5.017015    0.724160   -0.560084
     42          6           0        4.551665   -1.598092   -0.167671
     43          6           0        6.376386    0.429821   -0.609620
     44          1           0        4.681764    1.746043   -0.681449
     45          6           0        5.912183   -1.881689   -0.219083
     46          1           0        3.860946   -2.408887    0.043004
     47          6           0        6.861434   -0.874839   -0.443568
     48          1           0        7.083356    1.240250   -0.788737
     49          1           0        6.246991   -2.908447   -0.071853
     50          6           0        8.343785   -1.174829   -0.445454
     51          1           0        8.539543   -2.184069   -0.829521
     52          1           0        8.864056   -0.476391   -1.118858
     53          6           0        8.977577   -1.066402    0.950427
     54          1           0        8.755489   -0.066111    1.362316
     55          1           0        8.495800   -1.791948    1.617390
     56          7           0       10.414519   -1.385377    0.899090
     57          1           0       10.886637   -0.680889    0.331110
     58          1           0       10.813575   -1.293973    1.833204
 ---------------------------------------------------------------------
 Rotational constants (GHZ):           0.3523682           0.0394043           0.0360992
 Leave Link  202 at Thu Mar 14 10:14:04 2024, MaxMem= 32212254720 cpu:               0.0 elap:               0.0
 (Enter /home/<user>/g16/l601.exe)
 Copying SCF densities to generalized density rwf, IOpCl= 1 IROHF=0.

 **********************************************************************

            Population analysis using the SCF Density.

 **********************************************************************

 Orbital symmetries:
 Alpha Orbitals:
       Occupied  (A) (A) (A) (A) (A) (A) (A) (A) (A) (A) (A) (A)
                 (A) (A) (A) (A) (A) (A) (A) (A) (A) (A) (A) (A)
                 (A) (A) (A) (A) (A) (A) (A) (A) (A) (A) (A) (A)
                 (A) (A) (A) (A) (A) (A) (A) (A) (A) (A) (A) (A)
                 (A) (A) (A) (A) (A) (A) (A) (A) (A) (A) (A) (A)
                 (A) (A) (A) (A) (A) (A) (A) (A) (A) (A) (A) (A)
                 (A) (A) (A) (A) (A) (A) (A) (A) (A) (A) (A) (A)
                 (A) (A) (A) (A) (A) (A) (A) (A) (A) (A) (A) (A)
                 (A) (A) (A) (A) (A) (A) (A) (A) (A) (A) (A) (A)
                 (A) (A) (A) (A) (A) (A) (A) (A) (A) (A) (A)
       Virtual   (A) (A) (A) (A) (A) (A) (A) (A) (A) (A) (A) (A)
                 (A) (A) (A) (A) (A) (A) (A) (A) (A) (A) (A) (A)
                 (A) (A) (A) (A) (A) (A) (A) (A) (A) (A) (A) (A)
                 (A) (A) (A) (A) (A) (A) (A) (A) (A) (A) (A) (A)
                 (A) (A) (A) (A) (A) (A) (A) (A) (A) (A) (A) (A)
                 (A) (A) (A) (A) (A) (A) (A) (A) (A) (A) (A) (A)
                 (A) (A) (A) (A) (A) (A) (A) (A) (A) (A) (A) (A)
                 (A) (A) (A) (A) (A) (A) (A) (A) (A) (A) (A) (A)
                 (A) (A) (A) (A) (A) (A) (A) (A) (A) (A) (A) (A)
                 (A) (A) (A) (A) (A) (A) (A) (A) (A) (A) (A) (A)
                 (A) (A) (A) (A) (A) (A) (A) (A) (A) (A) (A) (A)
                 (A) (A) (A) (A) (A) (A) (A) (A) (A) (A) (A) (A)
                 (A) (A) (A) (A) (A) (A) (A) (A) (A) (A) (A) (A)
                 (A) (A) (A) (A) (A) (A) (A) (A) (A) (A) (A) (A)
                 (A) (A) (A) (A) (A) (A) (A) (A) (A) (A) (A) (A)
                 (A) (A) (A) (A) (A) (A) (A) (A) (A) (A) (A) (A)
                 (A) (A) (A) (A) (A) (A) (A) (A) (A) (A) (A) (A)
                 (A) (A) (A) (A) (A) (A) (A) (A) (A) (A) (A) (A)
                 (A) (A) (A) (A) (A) (A) (A) (A) (A) (A) (A) (A)
                 (A) (A) (A) (A) (A) (A) (A) (A) (A) (A) (A) (A)
                 (A) (A) (A) (A) (A) (A) (A) (A) (A) (A) (A) (A)
                 (A) (A) (A) (A) (A) (A) (A) (A) (A) (A) (A) (A)
                 (A) (A) (A) (A) (A) (A) (A) (A) (A) (A) (A) (A)
                 (A) (A) (A) (A) (A) (A) (A) (A) (A) (A) (A) (A)
                 (A) (A) (A) (A) (A) (A) (A) (A) (A) (A) (A) (A)
                 (A) (A) (A) (A) (A) (A) (A) (A) (A) (A) (A) (A)
                 (A) (A) (A) (A) (A) (A) (A) (A) (A) (A) (A) (A)
                 (A) (A) (A) (A) (A) (A) (A) (A) (A) (A) (A) (A)
                 (A) (A) (A) (A) (A) (A) (A) (A) (A) (A) (A) (A)
                 (A) (A) (A) (A) (A) (A) (A) (A) (A) (A) (A) (A)
                 (A) (A) (A) (A) (A) (A) (A) (A) (A) (A) (A) (A)
                 (A) (A) (A) (A) (A) (A) (A) (A) (A) (A) (A) (A)
                 (A) (A) (A) (A) (A) (A) (A) (A) (A) (A) (A) (A)
                 (A) (A) (A) (A) (A) (A) (A) (A) (A) (A) (A) (A)
                 (A) (A) (A) (A) (A) (A) (A) (A) (A) (A) (A) (A)
                 (A) (A) (A) (A) (A) (A) (A) (A) (A) (A)
 Beta  Orbitals:
       Occupied  (A) (A) (A) (A) (A) (A) (A) (A) (A) (A) (A) (A)
                 (A) (A) (A) (A) (A) (A) (A) (A) (A) (A) (A) (A)
                 (A) (A) (A) (A) (A) (A) (A) (A) (A) (A) (A) (A)
                 (A) (A) (A) (A) (A) (A) (A) (A) (A) (A) (A) (A)
                 (A) (A) (A) (A) (A) (A) (A) (A) (A) (A) (A) (A)
                 (A) (A) (A) (A) (A) (A) (A) (A) (A) (A) (A) (A)
                 (A) (A) (A) (A) (A) (A) (A) (A) (A) (A) (A) (A)
                 (A) (A) (A) (A) (A) (A) (A) (A) (A) (A) (A) (A)
                 (A) (A) (A) (A) (A) (A) (A) (A) (A) (A) (A) (A)
                 (A) (A) (A) (A) (A) (A) (A) (A) (A) (A)
       Virtual   (A) (A) (A) (A) (A) (A) (A) (A) (A) (A) (A) (A)
                 (A) (A) (A) (A) (A) (A) (A) (A) (A) (A) (A) (A)
                 (A) (A) (A) (A) (A) (A) (A) (A) (A) (A) (A) (A)
                 (A) (A) (A) (A) (A) (A) (A) (A) (A) (A) (A) (A)
                 (A) (A) (A) (A) (A) (A) (A) (A) (A) (A) (A) (A)
                 (A) (A) (A) (A) (A) (A) (A) (A) (A) (A) (A) (A)
                 (A) (A) (A) (A) (A) (A) (A) (A) (A) (A) (A) (A)
                 (A) (A) (A) (A) (A) (A) (A) (A) (A) (A) (A) (A)
                 (A) (A) (A) (A) (A) (A) (A) (A) (A) (A) (A) (A)
                 (A) (A) (A) (A) (A) (A) (A) (A) (A) (A) (A) (A)
                 (A) (A) (A) (A) (A) (A) (A) (A) (A) (A) (A) (A)
                 (A) (A) (A) (A) (A) (A) (A) (A) (A) (A) (A) (A)
                 (A) (A) (A) (A) (A) (A) (A) (A) (A) (A) (A) (A)
                 (A) (A) (A) (A) (A) (A) (A) (A) (A) (A) (A) (A)
                 (A) (A) (A) (A) (A) (A) (A) (A) (A) (A) (A) (A)
                 (A) (A) (A) (A) (A) (A) (A) (A) (A) (A) (A) (A)
                 (A) (A) (A) (A) (A) (A) (A) (A) (A) (A) (A) (A)
                 (A) (A) (A) (A) (A) (A) (A) (A) (A) (A) (A) (A)
                 (A) (A) (A) (A) (A) (A) (A) (A) (A) (A) (A) (A)
                 (A) (A) (A) (A) (A) (A) (A) (A) (A) (A) (A) (A)
                 (A) (A) (A) (A) (A) (A) (A) (A) (A) (A) (A) (A)
                 (A) (A) (A) (A) (A) (A) (A) (A) (A) (A) (A) (A)
                 (A) (A) (A) (A) (A) (A) (A) (A) (A) (A) (A) (A)
                 (A) (A) (A) (A) (A) (A) (A) (A) (A) (A) (A) (A)
                 (A) (A) (A) (A) (A) (A) (A) (A) (A) (A) (A) (A)
                 (A) (A) (A) (A) (A) (A) (A) (A) (A) (A) (A) (A)
                 (A) (A) (A) (A) (A) (A) (A) (A) (A) (A) (A) (A)
                 (A) (A) (A) (A) (A) (A) (A) (A) (A) (A) (A) (A)
                 (A) (A) (A) (A) (A) (A) (A) (A) (A) (A) (A) (A)
                 (A) (A) (A) (A) (A) (A) (A) (A) (A) (A) (A) (A)
                 (A) (A) (A) (A) (A) (A) (A) (A) (A) (A) (A) (A)
                 (A) (A) (A) (A) (A) (A) (A) (A) (A) (A) (A) (A)
                 (A) (A) (A) (A) (A) (A) (A) (A) (A) (A) (A) (A)
                 (A) (A) (A) (A) (A) (A) (A) (A) (A) (A) (A) (A)
                 (A) (A) (A) (A) (A) (A) (A) (A) (A) (A) (A) (A)
                 (A) (A) (A) (A) (A) (A) (A) (A) (A) (A) (A)
 The electronic state is 2-A.
 Alpha  occ. eigenvalues --  -88.80657 -14.24472 -14.20908 -14.20883 -10.13084
 Alpha  occ. eigenvalues --  -10.11727 -10.10627 -10.10496 -10.10392 -10.10134
 Alpha  occ. eigenvalues --  -10.10110 -10.10056 -10.09891 -10.09872 -10.09782
 Alpha  occ. eigenvalues --  -10.09750 -10.09701 -10.08726 -10.08459 -10.08327
 Alpha  occ. eigenvalues --  -10.08290 -10.08244 -10.08085 -10.08032 -10.07964
 Alpha  occ. eigenvalues --  -10.07640 -10.07511 -10.06734 -10.06607 -10.06583
 Alpha  occ. eigenvalues --  -10.06520 -10.05904 -10.05808  -7.86290  -5.82862
 Alpha  occ. eigenvalues --   -5.82302  -5.82011  -0.85174  -0.80803  -0.79098
 Alpha  occ. eigenvalues --   -0.74931  -0.74577  -0.73502  -0.72067  -0.70784
 Alpha  occ. eigenvalues --   -0.68317  -0.67293  -0.64962  -0.63876  -0.63279
 Alpha  occ. eigenvalues --   -0.62726  -0.61394  -0.61053  -0.60374  -0.58049
 Alpha  occ. eigenvalues --   -0.54737  -0.53707  -0.52208  -0.50600  -0.49875
 Alpha  occ. eigenvalues --   -0.48656  -0.47958  -0.47405  -0.46380  -0.45075
 Alpha  occ. eigenvalues --   -0.43666  -0.41517  -0.41327  -0.39602  -0.38692
 Alpha  occ. eigenvalues --   -0.38203  -0.37545  -0.36560  -0.35650  -0.35120
 Alpha  occ. eigenvalues --   -0.34980  -0.34740  -0.34339  -0.34237  -0.33532
 Alpha  occ. eigenvalues --   -0.33219  -0.32741  -0.32019  -0.31138  -0.30880
 Alpha  occ. eigenvalues --   -0.30756  -0.30563  -0.29871  -0.29281  -0.29077
 Alpha  occ. eigenvalues --   -0.28355  -0.27967  -0.26827  -0.26481  -0.25895
 Alpha  occ. eigenvalues --   -0.25321  -0.25061  -0.24818  -0.24627  -0.24103
 Alpha  occ. eigenvalues --   -0.23624  -0.23392  -0.22833  -0.22098  -0.21582
 Alpha  occ. eigenvalues --   -0.20942  -0.19925  -0.17585  -0.16808  -0.16680
 Alpha  occ. eigenvalues --   -0.16047  -0.14716  -0.14531  -0.13991  -0.13630
 Alpha  occ. eigenvalues --   -0.12624  -0.12039  -0.07542   0.00088
 Alpha virt. eigenvalues --    0.06396   0.08325   0.09502   0.10912   0.11350
 Alpha virt. eigenvalues --    0.12817   0.14247   0.14773   0.15411   0.16378
 Alpha virt. eigenvalues --    0.17399   0.18119   0.18893   0.20109   0.20380
 Alpha virt. eigenvalues --    0.20654   0.21453   0.21894   0.22180   0.22616
 Alpha virt. eigenvalues --    0.23184   0.23634   0.23690   0.24182   0.24664
 Alpha virt. eigenvalues --    0.25339   0.25842   0.26241   0.26863   0.27109
 Alpha virt. eigenvalues --    0.27286   0.27619   0.28042   0.29208   0.29664
 Alpha virt. eigenvalues --    0.30472   0.31416   0.31709   0.32030   0.32664
 Alpha virt. eigenvalues --    0.32982   0.33924   0.34316   0.35127   0.35464
 Alpha virt. eigenvalues --    0.36074   0.36403   0.36852   0.37660   0.37888
 Alpha virt. eigenvalues --    0.38584   0.39063   0.40071   0.41419   0.41686
 Alpha virt. eigenvalues --    0.42088   0.43631   0.44150   0.44495   0.45249
 Alpha virt. eigenvalues --    0.46425   0.47565   0.47947   0.48035   0.49613
 Alpha virt. eigenvalues --    0.50697   0.51441   0.53064   0.54931   0.55720
 Alpha virt. eigenvalues --    0.56938   0.57406   0.58666   0.58983   0.59758
 Alpha virt. eigenvalues --    0.60510   0.60881   0.61033   0.61658   0.61991
 Alpha virt. eigenvalues --    0.62279   0.62546   0.63492   0.63712   0.64156
 Alpha virt. eigenvalues --    0.64834   0.65241   0.65693   0.66093   0.66144
 Alpha virt. eigenvalues --    0.66685   0.67027   0.67539   0.67580   0.68079
 Alpha virt. eigenvalues --    0.68359   0.68599   0.69143   0.69358   0.69852
 Alpha virt. eigenvalues --    0.69978   0.70448   0.70622   0.70964   0.71518
 Alpha virt. eigenvalues --    0.71545   0.72397   0.72694   0.72972   0.73499
 Alpha virt. eigenvalues --    0.73951   0.74218   0.74526   0.74969   0.75472
 Alpha virt. eigenvalues --    0.75695   0.76297   0.76407   0.76890   0.77237
 Alpha virt. eigenvalues --    0.78403   0.78727   0.79237   0.79932   0.80350
 Alpha virt. eigenvalues --    0.81419   0.81595   0.83278   0.83535   0.84808
 Alpha virt. eigenvalues --    0.85455   0.85525   0.86490   0.87398   0.88117
 Alpha virt. eigenvalues --    0.88537   0.88713   0.89319   0.89955   0.90626
 Alpha virt. eigenvalues --    0.90745   0.91038   0.91629   0.91826   0.92109
 Alpha virt. eigenvalues --    0.92187   0.92906   0.94147   0.94797   0.95435
 Alpha virt. eigenvalues --    0.96310   0.96765   0.96928   0.97288   0.97743
 Alpha virt. eigenvalues --    0.98112   0.98541   0.98848   0.99018   0.99232
 Alpha virt. eigenvalues --    0.99629   1.00134   1.00261   1.01055   1.01123
 Alpha virt. eigenvalues --    1.01490   1.02036   1.02791   1.04358   1.04599
 Alpha virt. eigenvalues --    1.04844   1.05323   1.05641   1.06633   1.07367
 Alpha virt. eigenvalues --    1.08127   1.08309   1.08830   1.09595   1.10080
 Alpha virt. eigenvalues --    1.10713   1.11033   1.12426   1.12946   1.13432
 Alpha virt. eigenvalues --    1.13938   1.14899   1.15964   1.16747   1.17744
 Alpha virt. eigenvalues --    1.18336   1.19663   1.20441   1.21138   1.22240
 Alpha virt. eigenvalues --    1.23194   1.23346   1.24128   1.24809   1.26776
 Alpha virt. eigenvalues --    1.27388   1.27954   1.28408   1.29874   1.31155
 Alpha virt. eigenvalues --    1.32559   1.32744   1.32997   1.33997   1.34511
 Alpha virt. eigenvalues --    1.34839   1.37264   1.37873   1.38216   1.41781
 Alpha virt. eigenvalues --    1.42269   1.42951   1.43224   1.44772   1.45210
 Alpha virt. eigenvalues --    1.46889   1.48536   1.49980   1.50373   1.50892
 Alpha virt. eigenvalues --    1.51252   1.51741   1.52460   1.54163   1.54396
 Alpha virt. eigenvalues --    1.54990   1.56425   1.57208   1.57329   1.58391
 Alpha virt. eigenvalues --    1.58819   1.59011   1.59791   1.61133   1.61307
 Alpha virt. eigenvalues --    1.62002   1.63423   1.63812   1.64256   1.65330
 Alpha virt. eigenvalues --    1.65837   1.66868   1.68754   1.71393   1.71498
 Alpha virt. eigenvalues --    1.73980   1.76225   1.77597   1.78705   1.80711
 Alpha virt. eigenvalues --    1.81885   1.83146   1.84982   1.86334   1.87613
 Alpha virt. eigenvalues --    1.87842   1.88483   1.89159   1.89415   1.90161
 Alpha virt. eigenvalues --    1.90579   1.91242   1.91288   1.91945   1.92738
 Alpha virt. eigenvalues --    1.93196   1.93520   1.94375   1.94919   1.95628
 Alpha virt. eigenvalues --    1.98522   1.99186   1.99441   2.00029   2.00537
 Alpha virt. eigenvalues --    2.01110   2.02323   2.03085   2.03633   2.03858
 Alpha virt. eigenvalues --    2.04060   2.04468   2.06212   2.06497   2.08111
 Alpha virt. eigenvalues --    2.09946   2.10558   2.11292   2.12234   2.12738
 Alpha virt. eigenvalues --    2.13156   2.13829   2.14267   2.15219   2.15732
 Alpha virt. eigenvalues --    2.16457   2.17991   2.19233   2.19740   2.21518
 Alpha virt. eigenvalues --    2.22270   2.23156   2.23864   2.24720   2.25357
 Alpha virt. eigenvalues --    2.27241   2.27998   2.28815   2.29084   2.31189
 Alpha virt. eigenvalues --    2.31931   2.32915   2.33329   2.33707   2.34554
 Alpha virt. eigenvalues --    2.35028   2.35416   2.35675   2.36805   2.37285
 Alpha virt. eigenvalues --    2.39523   2.40132   2.40740   2.41065   2.41702
 Alpha virt. eigenvalues --    2.41864   2.42440   2.42938   2.43506   2.44142
 Alpha virt. eigenvalues --    2.45076   2.46842   2.48020   2.48936   2.50454
 Alpha virt. eigenvalues --    2.51111   2.52124   2.52152   2.53243   2.54470
 Alpha virt. eigenvalues --    2.56414   2.58011   2.58895   2.59517   2.61317
 Alpha virt. eigenvalues --    2.63491   2.66010   2.66973   2.68720   2.69312
 Alpha virt. eigenvalues --    2.70305   2.72310   2.72789   2.73347   2.73806
 Alpha virt. eigenvalues --    2.75248   2.75826   2.77841   2.78225   2.78676
 Alpha virt. eigenvalues --    2.79801   2.80624   2.83170   2.83972   2.84374
 Alpha virt. eigenvalues --    2.84782   2.86172   2.88229   2.88851   2.89579
 Alpha virt. eigenvalues --    2.91488   2.92547   2.95522   2.96558   2.99640
 Alpha virt. eigenvalues --    3.00025   3.03085   3.04585   3.05837   3.06792
 Alpha virt. eigenvalues --    3.08124   3.12351   3.13922   3.18526   3.20013
 Alpha virt. eigenvalues --    3.28985   3.39200   3.41869   3.46344   3.48235
 Alpha virt. eigenvalues --    3.56797   3.62760   3.84957   4.00996   4.16548
 Alpha virt. eigenvalues --    4.16896   4.17376   4.18949   4.19796   4.21981
 Alpha virt. eigenvalues --    4.23009   4.23595   4.24342   4.26255   4.26652
 Alpha virt. eigenvalues --    4.28928   4.30543   4.32522   4.32608   4.36724
 Alpha virt. eigenvalues --    4.37401   4.41142   4.44709   4.45189   4.46999
 Alpha virt. eigenvalues --    4.51600   4.51892   4.55040   4.57386   4.63553
 Alpha virt. eigenvalues --    4.71039   4.81383   4.89821   4.91839   4.98371
  Beta  occ. eigenvalues --  -88.80558 -14.24471 -14.20571 -14.20500 -10.13075
  Beta  occ. eigenvalues --  -10.11727 -10.10643 -10.10504 -10.10353 -10.10139
  Beta  occ. eigenvalues --  -10.10112 -10.10031 -10.09953 -10.09873 -10.09868
  Beta  occ. eigenvalues --  -10.09749 -10.09700 -10.08647 -10.08466 -10.08360
  Beta  occ. eigenvalues --  -10.08318 -10.08275 -10.08087 -10.07994 -10.07970
  Beta  occ. eigenvalues --  -10.07576 -10.07448 -10.06674 -10.06559 -10.06384
  Beta  occ. eigenvalues --  -10.06267 -10.05847 -10.05701  -7.86195  -5.82813
  Beta  occ. eigenvalues --   -5.82256  -5.81678  -0.84721  -0.80796  -0.79053
  Beta  occ. eigenvalues --   -0.74784  -0.74470  -0.72986  -0.71846  -0.70586
  Beta  occ. eigenvalues --   -0.68167  -0.67201  -0.64927  -0.63674  -0.63207
  Beta  occ. eigenvalues --   -0.62636  -0.61269  -0.60820  -0.60372  -0.57819
  Beta  occ. eigenvalues --   -0.54685  -0.53572  -0.52144  -0.50233  -0.49758
  Beta  occ. eigenvalues --   -0.48613  -0.47754  -0.47334  -0.46312  -0.44962
  Beta  occ. eigenvalues --   -0.43549  -0.41500  -0.41293  -0.39562  -0.38635
  Beta  occ. eigenvalues --   -0.38144  -0.37482  -0.36446  -0.35584  -0.35064
  Beta  occ. eigenvalues --   -0.34890  -0.34674  -0.34301  -0.34209  -0.33462
  Beta  occ. eigenvalues --   -0.33097  -0.32698  -0.31967  -0.31018  -0.30870
  Beta  occ. eigenvalues --   -0.30716  -0.30455  -0.29339  -0.29220  -0.28803
  Beta  occ. eigenvalues --   -0.28250  -0.27925  -0.26782  -0.26352  -0.25844
  Beta  occ. eigenvalues --   -0.25140  -0.24929  -0.24629  -0.24434  -0.23944
  Beta  occ. eigenvalues --   -0.23550  -0.22998  -0.22793  -0.21950  -0.20944
  Beta  occ. eigenvalues --   -0.20593  -0.19056  -0.16844  -0.16670  -0.16525
  Beta  occ. eigenvalues --   -0.15937  -0.14342  -0.13854  -0.13691  -0.13194
  Beta  occ. eigenvalues --   -0.11592  -0.11521  -0.06176
  Beta virt. eigenvalues --    0.04701   0.07485   0.08398   0.10436   0.11110
  Beta virt. eigenvalues --    0.11476   0.13449   0.14599   0.14777   0.15930
  Beta virt. eigenvalues --    0.16385   0.18101   0.18147   0.19129   0.20141
  Beta virt. eigenvalues --    0.20398   0.20944   0.21611   0.21917   0.22211
  Beta virt. eigenvalues --    0.22655   0.23396   0.23657   0.23761   0.24200
  Beta virt. eigenvalues --    0.24694   0.25384   0.26003   0.26273   0.26898
  Beta virt. eigenvalues --    0.27141   0.27380   0.27719   0.28058   0.29235
  Beta virt. eigenvalues --    0.29708   0.30764   0.31493   0.31821   0.32155
  Beta virt. eigenvalues --    0.32723   0.33203   0.34040   0.34498   0.35218
  Beta virt. eigenvalues --    0.35526   0.36114   0.36480   0.36956   0.37742
  Beta virt. eigenvalues --    0.37983   0.38773   0.39201   0.40182   0.41510
  Beta virt. eigenvalues --    0.41829   0.42190   0.43661   0.44262   0.44589
  Beta virt. eigenvalues --    0.45320   0.46494   0.47959   0.48145   0.48317
  Beta virt. eigenvalues --    0.49705   0.50838   0.51556   0.53221   0.55120
  Beta virt. eigenvalues --    0.55755   0.57028   0.57535   0.58698   0.59080
  Beta virt. eigenvalues --    0.59810   0.60577   0.60939   0.61095   0.61706
  Beta virt. eigenvalues --    0.62051   0.62424   0.62676   0.63576   0.63759
  Beta virt. eigenvalues --    0.64279   0.64985   0.65345   0.65786   0.66185
  Beta virt. eigenvalues --    0.66265   0.66795   0.67099   0.67635   0.67674
  Beta virt. eigenvalues --    0.68149   0.68523   0.68686   0.69186   0.69453
  Beta virt. eigenvalues --    0.69947   0.70051   0.70520   0.70731   0.71059
  Beta virt. eigenvalues --    0.71631   0.71730   0.72446   0.72784   0.73103
  Beta virt. eigenvalues --    0.73623   0.74086   0.74366   0.74591   0.75036
  Beta virt. eigenvalues --    0.75582   0.75818   0.76392   0.76538   0.77012
  Beta virt. eigenvalues --    0.77417   0.78527   0.79195   0.79876   0.80251
  Beta virt. eigenvalues --    0.80428   0.81542   0.82182   0.83539   0.83780
  Beta virt. eigenvalues --    0.84932   0.85520   0.85614   0.86581   0.87480
  Beta virt. eigenvalues --    0.88202   0.88572   0.88811   0.89453   0.90085
  Beta virt. eigenvalues --    0.90788   0.90887   0.91169   0.91718   0.91958
  Beta virt. eigenvalues --    0.92129   0.92222   0.92984   0.94319   0.94884
  Beta virt. eigenvalues --    0.95517   0.96360   0.96853   0.97093   0.97370
  Beta virt. eigenvalues --    0.97855   0.98192   0.98694   0.98898   0.99230
  Beta virt. eigenvalues --    0.99422   0.99724   1.00316   1.00484   1.01084
  Beta virt. eigenvalues --    1.01187   1.01596   1.02277   1.02916   1.04463
  Beta virt. eigenvalues --    1.04645   1.04888   1.05395   1.05710   1.06679
  Beta virt. eigenvalues --    1.07384   1.08223   1.08420   1.08920   1.09663
  Beta virt. eigenvalues --    1.10195   1.10807   1.11158   1.12627   1.13019
  Beta virt. eigenvalues --    1.13650   1.14183   1.15028   1.16073   1.16869
  Beta virt. eigenvalues --    1.17911   1.18459   1.19810   1.20566   1.21354
  Beta virt. eigenvalues --    1.22355   1.23328   1.23412   1.24266   1.24904
  Beta virt. eigenvalues --    1.26853   1.27504   1.28139   1.28482   1.29990
  Beta virt. eigenvalues --    1.31429   1.32667   1.32847   1.33070   1.34166
  Beta virt. eigenvalues --    1.34746   1.34899   1.37451   1.38031   1.38396
  Beta virt. eigenvalues --    1.41888   1.42391   1.43025   1.43360   1.44883
  Beta virt. eigenvalues --    1.45318   1.47014   1.48636   1.50061   1.50560
  Beta virt. eigenvalues --    1.51030   1.51372   1.51806   1.52577   1.54278
  Beta virt. eigenvalues --    1.54552   1.55186   1.56538   1.57339   1.57417
  Beta virt. eigenvalues --    1.58479   1.58881   1.59118   1.59899   1.61294
  Beta virt. eigenvalues --    1.61389   1.62309   1.63590   1.63939   1.64403
  Beta virt. eigenvalues --    1.65431   1.65927   1.66936   1.68902   1.71500
  Beta virt. eigenvalues --    1.71612   1.74008   1.76330   1.77626   1.78902
  Beta virt. eigenvalues --    1.80828   1.81983   1.83340   1.85235   1.86600
  Beta virt. eigenvalues --    1.87685   1.87978   1.88606   1.89249   1.89467
  Beta virt. eigenvalues --    1.90270   1.90827   1.91325   1.91464   1.92281
  Beta virt. eigenvalues --    1.92980   1.93529   1.93776   1.94522   1.94941
  Beta virt. eigenvalues --    1.95707   1.98607   1.99275   1.99604   2.00130
  Beta virt. eigenvalues --    2.00620   2.01797   2.02423   2.03427   2.03805
  Beta virt. eigenvalues --    2.04028   2.04321   2.04572   2.06357   2.06597
  Beta virt. eigenvalues --    2.08164   2.10013   2.10589   2.11445   2.12308
  Beta virt. eigenvalues --    2.12834   2.13288   2.14060   2.14335   2.15340
  Beta virt. eigenvalues --    2.15800   2.16521   2.18108   2.19354   2.19824
  Beta virt. eigenvalues --    2.21635   2.22320   2.23317   2.23964   2.24891
  Beta virt. eigenvalues --    2.25436   2.27425   2.28052   2.28985   2.29191
  Beta virt. eigenvalues --    2.31377   2.32144   2.33009   2.33400   2.33914
  Beta virt. eigenvalues --    2.34670   2.35106   2.35479   2.35764   2.37007
  Beta virt. eigenvalues --    2.37476   2.39681   2.40360   2.41059   2.41242
  Beta virt. eigenvalues --    2.41816   2.42080   2.42565   2.43109   2.43716
  Beta virt. eigenvalues --    2.44405   2.45428   2.46942   2.48239   2.49004
  Beta virt. eigenvalues --    2.50609   2.51343   2.52193   2.52211   2.53374
  Beta virt. eigenvalues --    2.54661   2.56568   2.58399   2.59062   2.59587
  Beta virt. eigenvalues --    2.61573   2.63638   2.66079   2.67241   2.68862
  Beta virt. eigenvalues --    2.69467   2.70425   2.72581   2.72871   2.73580
  Beta virt. eigenvalues --    2.73962   2.75346   2.75915   2.78058   2.78374
  Beta virt. eigenvalues --    2.78865   2.79965   2.80807   2.83251   2.84154
  Beta virt. eigenvalues --    2.84402   2.84883   2.86272   2.88389   2.88935
  Beta virt. eigenvalues --    2.89667   2.91565   2.92603   2.95601   2.96618
  Beta virt. eigenvalues --    2.99693   3.00086   3.03148   3.04631   3.05901
  Beta virt. eigenvalues --    3.06817   3.08186   3.12412   3.14070   3.18584
  Beta virt. eigenvalues --    3.20367   3.29044   3.39244   3.41914   3.46408
  Beta virt. eigenvalues --    3.48278   3.56844   3.62807   3.84960   4.01417
  Beta virt. eigenvalues --    4.16997   4.17298   4.17495   4.19014   4.19962
  Beta virt. eigenvalues --    4.22075   4.23056   4.23705   4.24437   4.26338
  Beta virt. eigenvalues --    4.26725   4.29013   4.30617   4.32542   4.32674
  Beta virt. eigenvalues --    4.37066   4.37402   4.41218   4.44763   4.45284
  Beta virt. eigenvalues --    4.47104   4.51651   4.52017   4.55079   4.57397
  Beta virt. eigenvalues --    4.63709   4.71105   4.81471   4.89852   4.91931
  Beta virt. eigenvalues --    4.98504
          Condensed to atoms (all electrons):
          Atomic-Atomic Spin Densities.
 Mulliken charges and spin densities:
               1          2
     1  C   -0.191092   0.037413
     2  C    0.105523  -0.013401
     3  C   -0.282499   0.048700
     4  C    0.101951  -0.023917
     5  C    0.073167   0.060304
     6  C   -0.211562  -0.016486
     7  H    0.160977  -0.002249
     8  H    0.107885  -0.002474
     9  H    0.099553   0.000659
    10  C   -0.051946  -0.000227
    11  C    0.098341   0.017241
    12  C   -0.209137  -0.009031
    13  C   -0.142564   0.031781
    14  C   -0.136623  -0.014189
    15  C   -0.202924   0.028213
    16  C    0.078894  -0.011461
    17  H    0.102219   0.000274
    18  H    0.097379  -0.001678
    19  H    0.100811   0.000528
    20  H    0.113230  -0.001342
    21  C   -0.434139   0.000184
    22  H    0.122741   0.000078
    23  H    0.142057   0.000291
    24  H    0.152746  -0.000070
    25  C   -0.433606   0.000157
    26  H    0.140155   0.000456
    27  H    0.123000   0.000025
    28  H    0.151163  -0.000070
    29  C    0.075531   0.148400
    30  C    0.194154  -0.059271
    31  C   -0.223506   0.081322
    32  C    0.191097  -0.067535
    33  C   -0.226967   0.034241
    34  H    0.089927  -0.004304
    35  C    0.078449   0.189790
    36  H    0.090568  -0.002238
    37  N   -0.645266   0.152209
    38  N   -0.645650   0.174583
    39  S    0.395890   0.155487
    40  C    0.096124  -0.032840
    41  C   -0.174971   0.046968
    42  C   -0.184472   0.049072
    43  C   -0.198544  -0.025099
    44  H    0.158562  -0.002552
    45  C   -0.197884  -0.026466
    46  H    0.108828  -0.002554
    47  C    0.168560   0.058161
    48  H    0.088738   0.001098
    49  H    0.091020   0.001067
    50  C   -0.337844  -0.004278
    51  H    0.138395   0.000851
    52  H    0.116874   0.001012
    53  C   -0.129102   0.002776
    54  H    0.118330  -0.000012
    55  H    0.139404  -0.000072
    56  N   -0.718994   0.000399
    57  H    0.282941  -0.000023
    58  H    0.284107   0.000100
 Sum of Mulliken charges =  -1.00000   1.00000
 Mulliken charges and spin densities with hydrogens summed into heavy atoms:
               1          2
     1  C   -0.030115   0.035164
     2  C    0.105523  -0.013401
     3  C   -0.174613   0.046226
     4  C    0.101951  -0.023917
     5  C    0.073167   0.060304
     6  C   -0.112009  -0.015828
    10  C   -0.051946  -0.000227
    11  C    0.098341   0.017241
    12  C   -0.106918  -0.008758
    13  C   -0.045184   0.030103
    14  C   -0.035812  -0.013661
    15  C   -0.089694   0.026870
    16  C    0.078894  -0.011461
    21  C   -0.016594   0.000483
    25  C   -0.019289   0.000569
    29  C    0.075531   0.148400
    30  C    0.194154  -0.059271
    31  C   -0.133579   0.077018
    32  C    0.191097  -0.067535
    33  C   -0.136399   0.032003
    35  C    0.078449   0.189790
    37  N   -0.645266   0.152209
    38  N   -0.645650   0.174583
    39  S    0.395890   0.155487
    40  C    0.096124  -0.032840
    41  C   -0.016409   0.044416
    42  C   -0.075644   0.046518
    43  C   -0.109806  -0.024000
    45  C   -0.106863  -0.025399
    47  C    0.168560   0.058161
    50  C   -0.082575  -0.002416
    53  C    0.128631   0.002692
    56  N   -0.151947   0.000476
 Electronic spatial extent (au):  <R**2>=          28019.2290
 Charge=             -1.0000 electrons
 Dipole moment (field-independent basis, Debye):
    X=             -2.1530    Y=             -3.3953    Z=              0.4993  Tot=              4.0513
 Quadrupole moment (field-independent basis, Debye-Ang):
   XX=           -289.8132   YY=           -215.4271   ZZ=           -207.5999
   XY=             11.3239   XZ=              6.3054   YZ=             -3.5436
 Traceless Quadrupole moment (field-independent basis, Debye-Ang):
   XX=            -52.1998   YY=             22.1863   ZZ=             30.0135
   XY=             11.3239   XZ=              6.3054   YZ=             -3.5436
 Octapole moment (field-independent basis, Debye-Ang**2):
  XXX=             46.7691  YYY=            -29.4219  ZZZ=             15.5202  XYY=            -64.7574
  XXY=            182.6572  XXZ=             65.1175  XZZ=             43.2499  YZZ=             -0.9452
  YYZ=             -5.0077  XYZ=             -3.0520
 Hexadecapole moment (field-independent basis, Debye-Ang**3):
 XXXX=         -38319.7069 YYYY=          -3840.3400 ZZZZ=           -607.5345 XXXY=           1865.5521
 XXXZ=            683.2574 YYYX=             -3.5446 YYYZ=            -15.3724 ZZZX=            113.1689
 ZZZY=             -9.2275 XXYY=          -6812.1979 XXZZ=          -5936.1481 YYZZ=           -748.2968
 XXYZ=            -92.4974 YYXZ=             -4.3469 ZZXY=            -25.1862
 N-N= 3.069072212549D+03 E-N=-1.008644133890D+04  KE= 1.669027969743D+03
                          Isotropic Fermi Contact Couplings
        Atom                 a.u.       MegaHertz       Gauss      10(-4) cm-1
     1  C(13)              0.00363       4.08189       1.45652       1.36157
     2  C(13)             -0.00455      -5.11062      -1.82360      -1.70472
     3  C(13)              0.00513       5.76908       2.05855       1.92436
     4  C(13)             -0.00398      -4.47015      -1.59506      -1.49108
     5  C(13)              0.00660       7.41852       2.64711       2.47455
     6  C(13)             -0.00319      -3.58267      -1.27839      -1.19505
     7  H(1)              -0.00059      -2.63849      -0.94148      -0.88011
     8  H(1)              -0.00079      -3.50890      -1.25206      -1.17044
     9  H(1)               0.00019       0.84032       0.29985       0.28030
    10  C(13)             -0.00000      -0.00498      -0.00178      -0.00166
    11  C(13)              0.00187       2.10408       0.75079       0.70185
    12  C(13)             -0.00157      -1.76516      -0.62985      -0.58879
    13  C(13)              0.00344       3.86370       1.37866       1.28879
    14  C(13)             -0.00222      -2.49812      -0.89139      -0.83328
    15  C(13)              0.00304       3.41432       1.21831       1.13889
    16  C(13)             -0.00253      -2.84169      -1.01398      -0.94789
    17  H(1)               0.00008       0.37654       0.13436       0.12560
    18  H(1)              -0.00050      -2.22677      -0.79457      -0.74277
    19  H(1)               0.00016       0.70313       0.25089       0.23454
    20  H(1)              -0.00043      -1.91283      -0.68255      -0.63805
    21  C(13)              0.00064       0.71740       0.25599       0.23930
    22  H(1)              -0.00003      -0.14938      -0.05330      -0.04983
    23  H(1)               0.00002       0.09399       0.03354       0.03135
    24  H(1)               0.00001       0.04580       0.01634       0.01528
    25  C(13)              0.00070       0.78611       0.28050       0.26222
    26  H(1)               0.00002       0.10468       0.03735       0.03492
    27  H(1)              -0.00005      -0.22036      -0.07863      -0.07350
    28  H(1)               0.00001       0.02471       0.00882       0.00824
    29  C(13)              0.01490      16.74789       5.97606       5.58649
    30  C(13)             -0.01066     -11.98386      -4.27614      -3.99739
    31  C(13)              0.00494       5.55602       1.98253       1.85329
    32  C(13)             -0.01253     -14.08612      -5.02628      -4.69862
    33  C(13)             -0.00071      -0.79272      -0.28286      -0.26442
    34  H(1)              -0.00140      -6.27508      -2.23910      -2.09314
    35  C(13)              0.01996      22.43458       8.00522       7.48337
    36  H(1)              -0.00077      -3.44504      -1.22928      -1.14914
    37  N(14)              0.02604       8.41239       3.00175       2.80607
    38  N(14)              0.02955       9.54811       3.40700       3.18491
    39  S(33)              0.01970       6.76614       2.41433       2.25694
    40  C(13)             -0.00731      -8.22049      -2.93328      -2.74206
    41  C(13)              0.00505       5.67676       2.02561       1.89356
    42  C(13)              0.00573       6.44248       2.29884       2.14898
    43  C(13)             -0.00401      -4.50267      -1.60666      -1.50193
    44  H(1)              -0.00072      -3.22468      -1.15065      -1.07564
    45  C(13)             -0.00417      -4.68489      -1.67168      -1.56271
    46  H(1)              -0.00077      -3.44590      -1.22958      -1.14943
    47  C(13)              0.00662       7.44094       2.65511       2.48203
    48  H(1)               0.00030       1.35339       0.48292       0.45144
    49  H(1)               0.00034       1.50372       0.53656       0.50159
    50  C(13)             -0.00174      -1.95621      -0.69802      -0.65252
    51  H(1)               0.00040       1.76887       0.63118       0.59003
    52  H(1)               0.00040       1.78980       0.63865       0.59701
    53  C(13)              0.00484       5.44610       1.94331       1.81662
    54  H(1)              -0.00005      -0.23541      -0.08400      -0.07853
    55  H(1)              -0.00005      -0.22467      -0.08017      -0.07494
    56  N(14)              0.00052       0.16843       0.06010       0.05618
    57  H(1)              -0.00001      -0.03568      -0.01273      -0.01190
    58  H(1)               0.00004       0.16795       0.05993       0.05602
 --------------------------------------------------------
       Center         ----  Spin Dipole Couplings  ----
                      3XX-RR        3YY-RR        3ZZ-RR
 --------------------------------------------------------
     1   Atom       -0.015517     -0.015548      0.031065
     2   Atom        0.001483     -0.004168      0.002684
     3   Atom       -0.021834     -0.019359      0.041192
     4   Atom        0.011191      0.007037     -0.018228
     5   Atom       -0.029061     -0.032163      0.061223
     6   Atom        0.008281      0.004577     -0.012858
     7   Atom        0.003515     -0.000528     -0.002988
     8   Atom       -0.000064      0.001879     -0.001815
     9   Atom        0.001798     -0.000472     -0.001326
    10   Atom        0.000692      0.000141     -0.000832
    11   Atom       -0.008251     -0.008414      0.016665
    12   Atom        0.003872      0.002241     -0.006113
    13   Atom       -0.014973     -0.015621      0.030594
    14   Atom        0.005626      0.005153     -0.010780
    15   Atom       -0.012987     -0.012993      0.025979
    16   Atom        0.004200      0.000769     -0.004969
    17   Atom        0.000573     -0.000069     -0.000503
    18   Atom        0.001876     -0.001663     -0.000213
    19   Atom        0.000394      0.000124     -0.000518
    20   Atom       -0.001046      0.001563     -0.000517
    21   Atom        0.000354     -0.000120     -0.000234
    22   Atom        0.000124      0.000162     -0.000286
    23   Atom        0.000210      0.000226     -0.000435
    24   Atom        0.000318     -0.000214     -0.000104
    25   Atom        0.000438      0.000005     -0.000443
    26   Atom        0.000254      0.000420     -0.000674
    27   Atom        0.000146      0.000279     -0.000425
    28   Atom        0.000366     -0.000026     -0.000340
    29   Atom       -0.078459     -0.065809      0.144269
    30   Atom        0.020833      0.030913     -0.051746
    31   Atom       -0.046191     -0.033810      0.080000
    32   Atom        0.022884      0.033592     -0.056476
    33   Atom       -0.023272     -0.020298      0.043570
    34   Atom        0.001019      0.001391     -0.002410
    35   Atom       -0.097935     -0.084645      0.182580
    36   Atom       -0.000655      0.003223     -0.002568
    37   Atom       -0.186419     -0.158057      0.344476
    38   Atom       -0.212317     -0.177272      0.389588
    39   Atom       -0.393874     -0.366226      0.760100
    40   Atom        0.009522      0.005444     -0.014966
    41   Atom       -0.018748     -0.017577      0.036324
    42   Atom       -0.022473     -0.016290      0.038763
    43   Atom        0.010883      0.008260     -0.019143
    44   Atom        0.001962      0.000821     -0.002783
    45   Atom        0.011916      0.008202     -0.020118
    46   Atom       -0.000067      0.001731     -0.001664
    47   Atom       -0.028411     -0.029808      0.058219
    48   Atom        0.001615     -0.000377     -0.001238
    49   Atom        0.001455     -0.000340     -0.001115
    50   Atom        0.001105     -0.000821     -0.000284
    51   Atom        0.000745     -0.000139     -0.000606
    52   Atom        0.001250     -0.000656     -0.000594
    53   Atom       -0.000065     -0.001984      0.002050
    54   Atom        0.000546     -0.000350     -0.000195
    55   Atom        0.000262     -0.000370      0.000108
    56   Atom        0.001429     -0.000687     -0.000743
    57   Atom        0.000487     -0.000244     -0.000242
    58   Atom        0.000334     -0.000239     -0.000095
 --------------------------------------------------------
                        XY            XZ            YZ
 --------------------------------------------------------
     1   Atom       -0.000509      0.000577      0.014182
     2   Atom        0.001121      0.002038      0.005560
     3   Atom        0.002490      0.003997      0.018736
     4   Atom       -0.000845     -0.001175     -0.003469
     5   Atom        0.000163      0.003098      0.008124
     6   Atom        0.000922      0.000062     -0.002223
     7   Atom        0.001745      0.000683     -0.000446
     8   Atom       -0.000851      0.000390     -0.000678
     9   Atom       -0.000034      0.000071     -0.000026
    10   Atom        0.000629     -0.000299     -0.000231
    11   Atom        0.000716      0.000414      0.003765
    12   Atom       -0.000013     -0.000133     -0.001085
    13   Atom        0.000646      0.001440      0.005834
    14   Atom        0.000720     -0.000569     -0.002108
    15   Atom        0.000125      0.000967      0.005374
    16   Atom       -0.000171     -0.000169     -0.000779
    17   Atom        0.000217     -0.000052     -0.000047
    18   Atom        0.001566     -0.000252      0.000137
    19   Atom        0.000420     -0.000072     -0.000095
    20   Atom        0.000238     -0.000003     -0.000288
    21   Atom        0.000360     -0.000182     -0.000314
    22   Atom        0.000259     -0.000160     -0.000311
    23   Atom        0.000581     -0.000311     -0.000480
    24   Atom        0.000280     -0.000287     -0.000424
    25   Atom        0.000462      0.000099      0.000187
    26   Atom        0.000672      0.000102      0.000244
    27   Atom        0.000295      0.000069      0.000156
    28   Atom        0.000335      0.000200      0.000405
    29   Atom       -0.003620      0.008990     -0.053757
    30   Atom        0.000446      0.001335      0.021908
    31   Atom       -0.001929     -0.001107     -0.044016
    32   Atom        0.003879     -0.000131      0.023279
    33   Atom        0.003101     -0.001610     -0.025609
    34   Atom        0.007363      0.002406      0.001645
    35   Atom        0.003058     -0.009015     -0.063318
    36   Atom       -0.004684     -0.001481      0.002097
    37   Atom        0.002615      0.001747     -0.115852
    38   Atom       -0.001882     -0.001351     -0.131467
    39   Atom       -0.001894      0.005140     -0.236827
    40   Atom       -0.002252     -0.001589      0.001120
    41   Atom        0.001980      0.007709      0.018855
    42   Atom       -0.000639      0.003237      0.021085
    43   Atom       -0.002095     -0.002287     -0.004107
    44   Atom       -0.002595     -0.001278     -0.000182
    45   Atom       -0.000283     -0.001902     -0.004799
    46   Atom        0.001142     -0.000606     -0.000587
    47   Atom       -0.000346      0.003598      0.011580
    48   Atom       -0.000908     -0.000246     -0.000004
    49   Atom       -0.000134     -0.000188     -0.000047
    50   Atom       -0.000468      0.000169      0.000152
    51   Atom       -0.000922     -0.000148      0.000101
    52   Atom        0.000095     -0.000366      0.000024
    53   Atom       -0.000111      0.002312      0.000116
    54   Atom        0.000042      0.000506      0.000429
    55   Atom       -0.000412      0.000386     -0.000504
    56   Atom       -0.000272      0.000131     -0.000048
    57   Atom       -0.000028      0.000037     -0.000040
    58   Atom       -0.000120      0.000198     -0.000017
 --------------------------------------------------------


 ---------------------------------------------------------------------------------
              Anisotropic Spin Dipole Couplings in Principal Axis System
 ---------------------------------------------------------------------------------

       Atom             a.u.   MegaHertz   Gauss  10(-4) cm-1        Axes

              Baa    -0.0196    -2.634    -0.940    -0.878  0.1554  0.9509 -0.2678
     1 C(13)  Bbb    -0.0154    -2.069    -0.738    -0.690  0.9878 -0.1518  0.0341
              Bcc     0.0350     4.703     1.678     1.569  0.0083  0.2698  0.9629
 
              Baa    -0.0073    -0.976    -0.348    -0.326  0.0018  0.8730 -0.4878
     2 C(13)  Bbb     0.0005     0.063     0.022     0.021  0.9163 -0.1967 -0.3487
              Bcc     0.0068     0.913     0.326     0.305  0.4004  0.4464  0.8003
 
              Baa    -0.0252    -3.386    -1.208    -1.129 -0.3857  0.8938 -0.2289
     3 C(13)  Bbb    -0.0216    -2.897    -1.034    -0.966  0.9203  0.3550 -0.1645
              Bcc     0.0468     6.283     2.242     2.096  0.0658  0.2741  0.9594
 
              Baa    -0.0188    -2.516    -0.898    -0.839  0.0427  0.1346  0.9900
     4 C(13)  Bbb     0.0074     0.991     0.354     0.331  0.1731  0.9749 -0.1400
              Bcc     0.0114     1.525     0.544     0.509  0.9840 -0.1774 -0.0183
 
              Baa    -0.0329    -4.410    -1.574    -1.471  0.0281  0.9958 -0.0869
     5 C(13)  Bbb    -0.0292    -3.913    -1.396    -1.305  0.9990 -0.0309 -0.0315
              Bcc     0.0620     8.324     2.970     2.777  0.0340  0.0859  0.9957
 
              Baa    -0.0131    -1.763    -0.629    -0.588 -0.0082  0.1249  0.9921
     6 C(13)  Bbb     0.0046     0.621     0.222     0.207 -0.2410  0.9627 -0.1232
              Bcc     0.0085     1.142     0.407     0.381  0.9705  0.2401 -0.0222
 
              Baa    -0.0032    -1.723    -0.615    -0.575 -0.1643  0.2630  0.9507
     7 H(1)   Bbb    -0.0010    -0.517    -0.184    -0.172 -0.3054  0.9029 -0.3026
              Bcc     0.0042     2.240     0.799     0.747  0.9379  0.3400  0.0680
 
              Baa    -0.0020    -1.050    -0.375    -0.350 -0.1369  0.1425  0.9803
     8 H(1)   Bbb    -0.0004    -0.200    -0.071    -0.067  0.9252  0.3719  0.0752
              Bcc     0.0023     1.250     0.446     0.417 -0.3539  0.9173 -0.1827
 
              Baa    -0.0013    -0.709    -0.253    -0.236 -0.0224  0.0298  0.9993
     9 H(1)   Bbb    -0.0005    -0.251    -0.090    -0.084  0.0157  0.9994 -0.0295
              Bcc     0.0018     0.960     0.343     0.320  0.9996 -0.0151  0.0228
 
              Baa    -0.0009    -0.121    -0.043    -0.040  0.1287  0.1393  0.9818
    10 C(13)  Bbb    -0.0003    -0.036    -0.013    -0.012 -0.5569  0.8294 -0.0447
              Bcc     0.0012     0.157     0.056     0.053  0.8205  0.5411 -0.1844
 
              Baa    -0.0094    -1.255    -0.448    -0.419 -0.5108  0.8520 -0.1152
    11 C(13)  Bbb    -0.0079    -1.057    -0.377    -0.353  0.8595  0.5029 -0.0917
              Bcc     0.0172     2.312     0.825     0.771  0.0202  0.1458  0.9891
 
              Baa    -0.0063    -0.839    -0.299    -0.280  0.0132  0.1267  0.9919
    12 C(13)  Bbb     0.0024     0.319     0.114     0.107 -0.0026  0.9919 -0.1267
              Bcc     0.0039     0.520     0.185     0.173  0.9999  0.0009 -0.0134
 
              Baa    -0.0165    -2.213    -0.790    -0.738 -0.3004  0.9477 -0.1082
    13 C(13)  Bbb    -0.0149    -1.996    -0.712    -0.666  0.9533  0.2944 -0.0680
              Bcc     0.0314     4.209     1.502     1.404  0.0325  0.1236  0.9918
 
              Baa    -0.0111    -1.485    -0.530    -0.495  0.0283  0.1276  0.9914
    14 C(13)  Bbb     0.0047     0.636     0.227     0.212 -0.6579  0.7491 -0.0776
              Bcc     0.0063     0.849     0.303     0.283  0.7526  0.6500 -0.1052
 
              Baa    -0.0137    -1.841    -0.657    -0.614  0.0084  0.9909 -0.1343
    15 C(13)  Bbb    -0.0130    -1.746    -0.623    -0.582  0.9997 -0.0116 -0.0232
              Bcc     0.0267     3.587     1.280     1.197  0.0245  0.1341  0.9907
 
              Baa    -0.0051    -0.681    -0.243    -0.227  0.0205  0.1327  0.9909
    16 C(13)  Bbb     0.0009     0.116     0.042     0.039  0.0439  0.9901 -0.1335
              Bcc     0.0042     0.565     0.202     0.188  0.9988 -0.0462 -0.0145
 
              Baa    -0.0005    -0.272    -0.097    -0.091  0.0294  0.0914  0.9954
    17 H(1)   Bbb    -0.0001    -0.071    -0.025    -0.024 -0.2985  0.9512 -0.0785
              Bcc     0.0006     0.343     0.122     0.114  0.9539  0.2948 -0.0553
 
              Baa    -0.0023    -1.216    -0.434    -0.406 -0.3563  0.9284 -0.1051
    18 H(1)   Bbb    -0.0002    -0.108    -0.039    -0.036  0.0275  0.1228  0.9920
              Bcc     0.0025     1.324     0.473     0.442  0.9340  0.3506 -0.0693
 
              Baa    -0.0005    -0.283    -0.101    -0.095  0.0165  0.1324  0.9911
    19 H(1)   Bbb    -0.0002    -0.096    -0.034    -0.032 -0.5965  0.7968 -0.0966
              Bcc     0.0007     0.379     0.135     0.126  0.8024  0.5896 -0.0921
 
              Baa    -0.0011    -0.570    -0.204    -0.190  0.9946 -0.0947 -0.0433
    20 H(1)   Bbb    -0.0006    -0.296    -0.106    -0.099  0.0553  0.1287  0.9901
              Bcc     0.0016     0.866     0.309     0.289  0.0882  0.9872 -0.1332
 
              Baa    -0.0005    -0.068    -0.024    -0.023 -0.1432  0.6978  0.7019
    21 C(13)  Bbb    -0.0001    -0.020    -0.007    -0.007  0.5899 -0.5093  0.6267
              Bcc     0.0007     0.088     0.032     0.030  0.7947  0.5037 -0.3387
 
              Baa    -0.0004    -0.238    -0.085    -0.079  0.0545  0.4359  0.8983
    22 H(1)   Bbb    -0.0001    -0.051    -0.018    -0.017  0.8068 -0.5493  0.2177
              Bcc     0.0005     0.289     0.103     0.096  0.5883  0.7129 -0.3816
 
              Baa    -0.0007    -0.367    -0.131    -0.122  0.0090  0.4608  0.8875
    23 H(1)   Bbb    -0.0003    -0.175    -0.063    -0.059  0.7744 -0.5648  0.2854
              Bcc     0.0010     0.542     0.193     0.181  0.6327  0.6846 -0.3619
 
              Baa    -0.0006    -0.313    -0.112    -0.105 -0.0285  0.7595  0.6498
    24 H(1)   Bbb    -0.0001    -0.057    -0.020    -0.019  0.6847 -0.4588  0.5663
              Bcc     0.0007     0.371     0.132     0.124  0.7283  0.4611 -0.5069
 
              Baa    -0.0005    -0.070    -0.025    -0.023  0.1097 -0.4198  0.9009
    25 C(13)  Bbb    -0.0002    -0.032    -0.012    -0.011 -0.5532  0.7273  0.4063
              Bcc     0.0008     0.102     0.036     0.034  0.8258  0.5430  0.1525
 
              Baa    -0.0007    -0.389    -0.139    -0.130  0.0668 -0.2443  0.9674
    26 H(1)   Bbb    -0.0003    -0.172    -0.061    -0.057  0.7581 -0.6180 -0.2084
              Bcc     0.0011     0.560     0.200     0.187  0.6487  0.7473  0.1439
 
              Baa    -0.0005    -0.245    -0.087    -0.082 -0.0139 -0.2014  0.9794
    27 H(1)   Bbb    -0.0001    -0.045    -0.016    -0.015  0.7946 -0.5968 -0.1114
              Bcc     0.0005     0.290     0.103     0.097  0.6069  0.7767  0.1683
 
              Baa    -0.0006    -0.330    -0.118    -0.110  0.0297 -0.5755  0.8173
    28 H(1)   Bbb    -0.0001    -0.045    -0.016    -0.015  0.6526 -0.6081 -0.4519
              Bcc     0.0007     0.375     0.134     0.125  0.7571  0.5468  0.3575
 
              Baa    -0.0802   -10.765    -3.841    -3.591  0.7167  0.6841  0.1351
    29 C(13)  Bbb    -0.0774   -10.386    -3.706    -3.464  0.6962 -0.6907 -0.1957
              Bcc     0.1576    21.150     7.547     7.055  0.0406 -0.2344  0.9713
 
              Baa    -0.0572    -7.677    -2.739    -2.561 -0.0152 -0.2412  0.9704
    30 C(13)  Bbb     0.0208     2.793     0.997     0.932  0.9987 -0.0508  0.0030
              Bcc     0.0364     4.884     1.743     1.629  0.0485  0.9692  0.2416
 
              Baa    -0.0501    -6.720    -2.398    -2.241  0.4902  0.8243  0.2831
    31 C(13)  Bbb    -0.0450    -6.034    -2.153    -2.013  0.8716 -0.4647 -0.1560
              Bcc     0.0950    12.753     4.551     4.254 -0.0030 -0.3232  0.9463
 
              Baa    -0.0621    -8.340    -2.976    -2.782  0.0123 -0.2367  0.9715
    32 C(13)  Bbb     0.0221     2.963     1.057     0.988  0.9770 -0.2039 -0.0620
              Bcc     0.0401     5.377     1.918     1.793  0.2127  0.9500  0.2288
 
              Baa    -0.0301    -4.045    -1.443    -1.349 -0.3322  0.8932  0.3031
    33 C(13)  Bbb    -0.0225    -3.021    -1.078    -1.008  0.9426  0.3029  0.1404
              Bcc     0.0527     7.066     2.521     2.357 -0.0336 -0.3323  0.9426
 
              Baa    -0.0063    -3.340    -1.192    -1.114  0.7281 -0.6638 -0.1713
    34 H(1)   Bbb    -0.0030    -1.606    -0.573    -0.536 -0.0399 -0.2905  0.9560
              Bcc     0.0093     4.946     1.765     1.650  0.6844  0.6892  0.2380
 
              Baa    -0.0996   -13.368    -4.770    -4.459 -0.5880  0.7930  0.1592
    35 C(13)  Bbb    -0.0975   -13.085    -4.669    -4.365  0.8082  0.5683  0.1545
              Bcc     0.1971    26.453     9.439     8.824 -0.0321 -0.2195  0.9751
 
              Baa    -0.0038    -2.024    -0.722    -0.675  0.8416  0.5279  0.1137
    36 H(1)   Bbb    -0.0032    -1.732    -0.618    -0.578  0.0450 -0.2784  0.9594
              Bcc     0.0070     3.756     1.340     1.253 -0.5382  0.8024  0.2581
 
              Baa    -0.1882    -7.260    -2.590    -2.422  0.8512 -0.5123 -0.1142
    37 N(14)  Bbb    -0.1817    -7.007    -2.500    -2.337  0.5249  0.8316  0.1814
              Bcc     0.3699    14.266     5.091     4.759  0.0021 -0.2143  0.9768
 
              Baa    -0.2130    -8.215    -2.931    -2.740  0.9532  0.2948  0.0665
    38 N(14)  Bbb    -0.2056    -7.930    -2.829    -2.645 -0.3022  0.9309  0.2049
              Bcc     0.4186    16.144     5.761     5.385 -0.0014 -0.2154  0.9765
 
              Baa    -0.4140   -16.975    -6.057    -5.662  0.0417  0.9794  0.1974
    39 S(33)  Bbb    -0.3939   -16.148    -5.762    -5.386  0.9991 -0.0400 -0.0127
              Bcc     0.8079    33.123    11.819    11.049  0.0045 -0.1977  0.9802
 
              Baa    -0.0151    -2.028    -0.724    -0.677  0.0599 -0.0477  0.9971
    40 C(13)  Bbb     0.0045     0.597     0.213     0.199  0.4109  0.9115  0.0189
              Bcc     0.0107     1.431     0.511     0.477  0.9097 -0.4085 -0.0743
 
              Baa    -0.0236    -3.162    -1.128    -1.055  0.1104  0.9439 -0.3114
    41 C(13)  Bbb    -0.0197    -2.646    -0.944    -0.883  0.9857 -0.1441 -0.0871
              Bcc     0.0433     5.808     2.073     1.937  0.1271  0.2973  0.9463
 
              Baa    -0.0247    -3.316    -1.183    -1.106  0.6122  0.7405 -0.2772
    42 C(13)  Bbb    -0.0213    -2.861    -1.021    -0.954  0.7896 -0.5911  0.1649
              Bcc     0.0460     6.177     2.204     2.060  0.0417  0.3198  0.9466
 
              Baa    -0.0200    -2.678    -0.956    -0.893  0.0832  0.1496  0.9852
    43 C(13)  Bbb     0.0079     1.062     0.379     0.354  0.4769  0.8621 -0.1711
              Bcc     0.0120     1.616     0.577     0.539  0.8750 -0.4841 -0.0004
 
              Baa    -0.0033    -1.772    -0.632    -0.591  0.3440  0.2552  0.9036
    44 H(1)   Bbb    -0.0008    -0.449    -0.160    -0.150  0.5126  0.7552 -0.4085
              Bcc     0.0042     2.221     0.793     0.741  0.7867 -0.6038 -0.1290
 
              Baa    -0.0210    -2.821    -1.007    -0.941  0.0583  0.1623  0.9850
    45 C(13)  Bbb     0.0090     1.207     0.431     0.403 -0.0099  0.9867 -0.1620
              Bcc     0.0120     1.614     0.576     0.538  0.9983  0.0003 -0.0591
 
              Baa    -0.0019    -1.004    -0.358    -0.335  0.2770  0.0682  0.9584
    46 H(1)   Bbb    -0.0006    -0.298    -0.106    -0.099  0.8517 -0.4792 -0.2120
              Bcc     0.0024     1.302     0.464     0.434  0.4448  0.8750 -0.1909
 
              Baa    -0.0315    -4.230    -1.509    -1.411  0.2610  0.9560 -0.1338
    47 C(13)  Bbb    -0.0283    -3.802    -1.357    -1.268  0.9645 -0.2640 -0.0048
              Bcc     0.0599     8.032     2.866     2.679  0.0399  0.1278  0.9910
 
              Baa    -0.0013    -0.677    -0.242    -0.226  0.1252  0.1312  0.9834
    48 H(1)   Bbb    -0.0007    -0.380    -0.136    -0.127  0.3429  0.9244 -0.1670
              Bcc     0.0020     1.058     0.377     0.353  0.9310 -0.3581 -0.0707
 
              Baa    -0.0011    -0.604    -0.216    -0.202  0.0759  0.0712  0.9946
    49 H(1)   Bbb    -0.0003    -0.184    -0.066    -0.061  0.0662  0.9949 -0.0763
              Bcc     0.0015     0.788     0.281     0.263  0.9949 -0.0717 -0.0708
 
              Baa    -0.0010    -0.131    -0.047    -0.044  0.2318  0.9370 -0.2613
    50 C(13)  Bbb    -0.0002    -0.033    -0.012    -0.011 -0.0249  0.2742  0.9613
              Bcc     0.0012     0.164     0.059     0.055  0.9724 -0.2163  0.0869
 
              Baa    -0.0007    -0.384    -0.137    -0.128  0.5263  0.8475 -0.0690
    51 H(1)   Bbb    -0.0006    -0.332    -0.118    -0.111  0.1140  0.0101  0.9934
              Bcc     0.0013     0.716     0.255     0.239  0.8426 -0.5307 -0.0913
 
              Baa    -0.0007    -0.375    -0.134    -0.125  0.1659 -0.6874  0.7070
    52 H(1)   Bbb    -0.0006    -0.331    -0.118    -0.110  0.0968  0.7249  0.6821
              Bcc     0.0013     0.706     0.252     0.236  0.9814  0.0447 -0.1868
 
              Baa    -0.0020    -0.273    -0.097    -0.091  0.2543  0.9519 -0.1709
    53 C(13)  Bbb    -0.0015    -0.201    -0.072    -0.067  0.8022 -0.3063 -0.5125
              Bcc     0.0035     0.474     0.169     0.158  0.5402  0.0068  0.8415
 
              Baa    -0.0008    -0.418    -0.149    -0.139 -0.2458 -0.6701  0.7004
    54 H(1)   Bbb    -0.0001    -0.036    -0.013    -0.012 -0.4743  0.7133  0.5160
              Bcc     0.0009     0.454     0.162     0.152  0.8453  0.2054  0.4932
 
              Baa    -0.0007    -0.383    -0.137    -0.128  0.1922  0.8747  0.4450
    55 H(1)   Bbb    -0.0002    -0.099    -0.035    -0.033  0.7303  0.1753 -0.6602
              Bcc     0.0009     0.482     0.172     0.161  0.6555 -0.4519  0.6051
 
              Baa    -0.0008    -0.030    -0.011    -0.010  0.0158  0.5352  0.8446
    56 N(14)  Bbb    -0.0007    -0.027    -0.010    -0.009  0.1393  0.8353 -0.5319
              Bcc     0.0015     0.057     0.020     0.019  0.9901 -0.1261  0.0613
 
              Baa    -0.0003    -0.151    -0.054    -0.050 -0.0080  0.7124  0.7017
    57 H(1)   Bbb    -0.0002    -0.110    -0.039    -0.037 -0.0662 -0.7006  0.7105
              Bcc     0.0005     0.261     0.093     0.087  0.9978 -0.0407  0.0527
 
              Baa    -0.0003    -0.143    -0.051    -0.048  0.2542  0.9467 -0.1977
    58 H(1)   Bbb    -0.0002    -0.088    -0.031    -0.029 -0.2988  0.2713  0.9149
              Bcc     0.0004     0.231     0.082     0.077  0.9198 -0.1736  0.3518
 

 ---------------------------------------------------------------------------------

 No NMR shielding tensors so no spin-rotation constants.
 Leave Link  601 at Thu Mar 14 10:14:04 2024, MaxMem= 32212254720 cpu:               8.2 elap:               0.3
 (Enter /home/<user>/g16/l9999.exe)

 Test job not archived.
 1\1\GINC-PB-207\FOpt\UB3LYP\6-31G(d)\C29H25N3S1(1-,2)\PB-207\14-Mar-20
 24\0\\#p opt b3lyp/6-31g(d)\\E0OPT\\-1,2\C,-2.4909748598,1.6653835563,
 -0.5302619213\C,-1.7912894061,0.4516654401,-0.2828557779\C,-2.58442463
 09,-0.6912436035,0.0226990343\C,-3.9647250474,-0.6174849312,0.04867491
 42\C,-4.634664332,0.5951755118,-0.2183471748\C,-3.8784932955,1.7383014
 479,-0.5042943411\H,-1.9112810746,2.5549071437,-0.7380323061\H,-2.0939
 354294,-1.627504,0.2726232899\H,-4.367261653,2.6895254137,-0.708944075
 1\C,-4.9698358191,-1.7301010948,0.3613598092\C,-6.2983549474,-0.983016
 6076,0.2248547688\C,-7.590002742,-1.4636148761,0.3873378993\C,-8.67829
 10661,-0.5939432202,0.2137289947\C,-8.4571900445,0.7459169396,-0.11943
 78216\C,-7.1597422908,1.2384938195,-0.2843015293\C,-6.0724607852,0.372
 7610384,-0.1128806203\H,-7.7654745967,-2.5061487133,0.6477109471\H,-9.
 6935153499,-0.9631232918,0.3388611071\H,-9.3055117788,1.41443774,-0.25
 2008678\H,-6.9988703585,2.282535909,-0.5428485615\C,-4.7798010521,-2.2
 775408075,1.792988016\H,-5.5408521162,-3.0322631663,2.0297874317\H,-3.
 7938385318,-2.7452422826,1.8992724205\H,-4.853810774,-1.4724896378,2.5
 311842048\C,-4.8678578169,-2.884862372,-0.6590476135\H,-3.8829817581,-
 3.3634037217,-0.6016393281\H,-5.6294857469,-3.6509339145,-0.464383119\
 H,-5.0059718149,-2.5160642484,-1.6806284928\C,-0.3318603259,0.35019260
 68,-0.3486275227\C,0.5616839825,1.4756857129,-0.2517924272\C,0.2991381
 765,-0.9048991635,-0.5198764809\C,2.0260180582,1.2882195222,-0.2835480
 867\C,1.6757858386,-1.0778290458,-0.5497646074\H,-0.3190493948,-1.7804
 968846,-0.6938596241\C,2.6019149347,-0.0206365838,-0.4116458811\H,2.05
 23884375,-2.0787487186,-0.7411079254\N,0.1909284833,2.7547120936,-0.10
 40264937\N,2.715948793,2.4322852837,-0.1606731261\S,1.5935279925,3.667
 8231557,-0.0136038524\C,4.048868201,-0.283902703,-0.4086799691\C,5.013
 6797567,0.6979767722,-0.7370549972\C,4.554337726,-1.5675531384,-0.0891
 562093\C,6.373269281,0.4014844505,-0.7612697106\H,4.6760616973,1.69994
 25984,-0.9682369833\C,5.9150470796,-1.8535744395,-0.1164234094\H,3.866
 1117685,-2.3510292144,0.2131260026\C,6.8613960999,-0.8764641707,-0.455
 3875384\H,7.0779126487,1.1880852263,-1.0322330279\H,6.2523651382,-2.85
 75424038,0.1410053943\C,8.3442238507,-1.1731959804,-0.4322848368\H,8.5
 396760505,-2.2183329995,-0.7040989863\H,8.859766854,-0.5524701295,-1.1
 812076125\C,8.985149103,-0.9112214017,0.9397631972\H,8.7635284362,0.12
 80508343,1.2403561637\H,8.5081120294,-1.559557151,1.6850570944\N,10.42
 23417228,-1.2323121861,0.9160479341\H,10.8902750048,-0.5940325913,0.27
 15028946\H,10.8261396944,-1.0382968216,1.8322761506\\Version=ES64L-G16
 RevC.01\State=2-A\HF=-1682.6459084\S2=0.760987\S2-1=0.\S2A=0.750104\RM
 SD=6.268e-09\RMSF=6.412e-06\Dipole=-0.8437408,-1.3070524,0.3467214\Qua
 drupole=-38.786751,16.0090487,22.7777023,8.812063,4.0687045,-1.9782921
 \PG=C01 [X(C29H25N3S1)]\\@


 I CLAIM NOT TO HAVE CONTROLLED EVENTS,
 BUT CONFESS PLAINLY THAT EVENTS HAVE CONTROLLED ME.

                                         A. LINCOLN
 Job cpu time:       0 days  3 hours 31 minutes 48.4 seconds.
 Elapsed time:       0 days  0 hours  7 minutes  4.4 seconds.
 File lengths (MBytes):  RWF=    335 Int=      0 D2E=      0 Chk=     32 Scr=      1
 Normal termination of Gaussian 16 at Thu Mar 14 10:14:04 2024.
