%mem=240GB
%nprocshared=30
%chk=FBTP_T1opt.chk
#p opt b3lyp/6-31g(d)

T1OPT

0 3
C	 -2.445420    1.576952   -0.640756
C	 -1.800770    0.377898   -0.276543
C	 -2.593188   -0.732829    0.084386
C	 -3.976156   -0.639371    0.067553
C	 -4.604884    0.564012   -0.308309
C	 -3.835098    1.673787   -0.661764
H	 -1.847013    2.438095   -0.912271
H	 -2.108244   -1.651967    0.403337
H	 -4.305906    2.609112   -0.953548
C	 -5.011020   -1.705216    0.429783
C	 -6.314910   -0.941629    0.196693
C	 -7.623913   -1.383182    0.353095
C	 -8.678397   -0.502959    0.081747
C	 -8.421388    0.805409   -0.341662
C	 -7.109101    1.255427   -0.500897
C	 -6.057367    0.376946   -0.230661
H	 -7.835091   -2.398082    0.682337
H	 -9.704987   -0.838925    0.201362
H	 -9.250200    1.477337   -0.548281
H	 -6.914211    2.273031   -0.829937
C	 -4.873450   -2.145823    1.904592
H	 -5.661933   -2.859551    2.170274
H	 -3.906850   -2.634198    2.074728
H	 -4.946541   -1.288068    2.580623
C	 -4.903949   -2.934957   -0.499622
H	 -3.938253   -3.437009   -0.367953
H	 -5.693098   -3.661406   -0.273395
H	 -4.998190   -2.644371   -1.550825
C	 -0.326596    0.250758   -0.297183
C	  0.561803    1.317276    0.086920
C	  0.296845   -0.920873   -0.682176
C	  2.010629    1.141126    0.062178
C	  1.707388   -1.091909   -0.706344
H	 -0.316167   -1.751252   -1.019726
C	  2.604471   -0.104847   -0.346857
H	  2.092779   -2.043380   -1.060607
N	  0.185135    2.526214    0.519893
N	  2.680579    2.223073    0.476747
S	  1.558695    3.359421    0.858730
C	  4.066915   -0.331759   -0.376367
C	  4.971773    0.672396   -0.762914
C	  4.592573   -1.593667   -0.045584
C	  6.338455    0.413776   -0.825905
H	  4.600567    1.656859   -1.021918
C	  5.960456   -1.842817   -0.107780
H	  3.922815   -2.381800    0.287153
C	  6.861990   -0.844676   -0.500902
H	  7.013438    1.206643   -1.141689
H	  6.336570   -2.828307    0.158693
C	  8.350770   -1.105944   -0.524079
H	  8.556915   -2.153440   -0.771898
H	  8.821757   -0.496101   -1.307801
C	  9.029919   -0.793298    0.821086
H	  8.813687    0.255269    1.094789
H	  8.577448   -1.417855    1.601077
N	 10.458266   -1.119926    0.755806
H	 10.926743   -0.474683    0.119996
H	 10.886698   -0.972254    1.668323

