%chk=FBTP.chk
#p hf/3-21g

Title Card Required

0 1
 C                 -5.31243965   -3.38084598   -0.00016900
 C                 -3.92074465   -3.38084598   -0.00016900
 C                 -3.20038265   -2.17693498   -0.00016900
 C                 -3.90027565   -0.98553898   -0.00014800
 C                 -5.32927965   -0.98463998   -0.00021200
 C                 -6.03214865   -2.17788598   -0.00023200
 H                 -5.85923565   -4.33536598   -0.00006800
 H                 -2.10158065   -2.18897898   -0.00006300
 H                 -7.13113565   -2.18543798   -0.00036500
 C                 -3.38378365    0.42702702    0.00000000
 C                 -4.63981265    1.25439502    0.00004000
 C                 -4.78685765    2.62831402    0.00011400
 C                 -6.08243765    3.16662402   -0.00000900
 C                 -7.20055865    2.33799802    0.00021800
 C                 -7.06257165    0.94298102    0.00003300
 C                 -5.78737065    0.40283202   -0.00007700
 H                 -3.91123365    3.29223102    0.00019000
 H                 -6.21123865    4.25909402   -0.00018400
 H                 -8.20819865    2.77930602    0.00041200
 H                 -7.95005565    0.29474902    0.00001500
 C                 -2.52946026    0.70918355   -1.24984768
 H                 -2.21675026    1.73245500   -1.24455743
 H                 -1.66896852    0.07323743   -1.24469850
 H                 -3.10907394    0.51790194   -2.12868745
 C                 -2.52952926    0.70891888    1.24995457
 H                 -1.66902837    0.07298593    1.24470945
 H                 -2.21683329    1.73219584    1.24490704
 H                 -3.10918602    0.51743469    2.12872180
 C                 -3.15498360   -4.71696349   -0.00020680
 C                 -3.91236266   -5.93545842   -0.00024127
 C                 -1.79999918   -4.76805237   -0.00020824
 C                 -3.18281148   -7.22897839   -0.00027786
 C                 -1.09096679   -6.02519178   -0.00024381
 H                 -1.19767520   -3.84723637   -0.00018219
 C                 -1.74822558   -7.21119504   -0.00027736
 H                  0.00865510   -5.98610252   -0.00024270
 N                 -5.25487780   -6.18418228   -0.00024831
 N                 -4.09019426   -8.24920725   -0.00030673
 S                 -5.48215404   -7.67332303   -0.00029043
 C                 -1.00095273   -8.55773999   -0.00031545
 C                 -1.71858449   -9.75379717   -0.00034929
 C                  0.39398779   -8.58120329   -0.00085825
 C                 -1.04139101  -10.97358418   -0.00061207
 H                 -2.81804066   -9.73538642   -0.00025653
 C                  1.07108671   -9.80065974   -0.00064193
 H                  0.95954396   -7.63800644   -0.00124687
 C                  0.35312080  -10.99721365   -0.00015908
 H                 -1.60744816  -11.91635696    0.00013855
 H                  2.17060467   -9.81954067   -0.00034386
 C                  1.10071536  -12.34357988    0.00043877
 H                  0.74939132  -12.94626067    0.81176317
 H                  0.92201446  -12.85117944   -0.92439022
 C                  2.61114930  -12.09197191    0.16439839
 H                  2.97267910  -11.53325764   -0.67347664
 H                  2.78504450  -11.53889544    1.06371306
 N                  3.31734264  -13.37921419    0.23649756
 H                  3.92831130  -13.46874591   -0.55007816
 H                  3.85236772  -13.41908570    1.08039236

